10000001,0060818077,Everywhere That Mary Went,9780060818074,,,,ES,2004/11/2,HarperAudio,,false,9,307644,20123,38930,10235,609,1993/1/1,Everywhere That Mary Went,book,2539,3994,2978,601,123,3.80,,Audio,,6,2,"Kate Burton,Lisa Scottoline",,,,,,5931,27,627,"adult,adult-fiction,chick-lit,contemporary,crime,drama,fiction,murder-mystery,mystery,mystery-thriller,romance,suspense,thriller"
10000501,1841841900,Urological Cancer: A Practical Guide to Management,9781841841908,,,,ES,2002/5/23,CRC Press,lav,false,1,10000501,0,0,0,0,2002/5/23,,,0,0,0,0,0,0.00,240,Hardcover,,0,0,Leslie E.F. Moffat,,,,,,,0,,
10001501,1162670096,Lady Molly of Scotland Yard,9781162670096,,,,ES,,,,false,61,54522,1253,1842,531,72,1910/1/1,Lady Molly of Scotland Yard,book,86,170,198,61,16,3.47,,,,1,0,Emmuska Orczy,,,,,,441,12,150,"classic-literature,classics,cozy-mystery,crime,detective,feminism,fiction,historical-fiction,mystery,mystery-thriller,romance,short-stories"
10004001,0529124424,Lo Hizo Por Ti,9780529124425,,,,ES,2002/1/13,Grupo Nelson,,true,3,19167872,61,158,36,5,2002/1/15,Lo Hizo Por Ti,book,23,7,4,1,1,4.39,64,ebook,,0,0,Max Lucado,,,,,,12,0,9,"christianity,non-fiction,spirituality"
10005501,1101154330,Dark Watch,9781101154335,,,,ES,2005/11/3,Penguin Audio,,false,52,41695,12346,29374,7185,223,2005/10/31,Dark Watch,book,2599,2878,1486,187,35,4.09,,Audio,,6,3,"Clive Cussler,Tom Wopat",,,,,,2337,17,278,"action,adult,adult-fiction,adventure,american,crime,fiction,historical-fiction,mystery,mystery-thriller,novels,suspense,thriller"
10006501,1407306537,Annona y La Politica Agraria Durante El Alto Imperio Romano,9781407306537,,,,ES,2010/6/15,British Archaeological Reports,,false,1,10006501,0,0,0,0,2009/12/31,,,0,0,0,0,0,0.00,186,Paperback,,0,0,Gustavo Sanz Palomera,,,,,,,0,,
10007001,3898406040,Der Totenacker,9783898406048,,,,ES,,,ger,false,2,10007001,4,9,3,0,,,book,1,0,0,2,0,3.00,223,Paperback,,3,0,Dan Shocker,,,,,,1,1,,
10007501,2287990658,Reparations Tissulaires a la Jambe: de L'Os...a la Peau,9782287990656,,,,ES,2012/6/8,Springer,fre,false,1,10007501,0,0,0,0,2012/5/28,,,0,0,0,0,0,0.00,480,Paperback,,0,0,"Alain Fabre,Dominique Le Nen,Frédéric Dubrana",,,,,,,0,,
10008501,1609763459,The Skin I Am In,9781609763459,,,,ES,2010/9/10,Eloquent Books,,false,1,10008501,60,87,22,2,2010/9/10,,book,13,3,1,2,3,3.95,28,Paperback,,22,2,Alycia R. Wright,,,,,,25,1,4,young-adult
10010501,,The Hidden One - Book Two (Truth is the Soul of the Sun),2940011941436,,,,ES,,,,true,3,10022358,37,57,15,1,,,,4,7,1,3,0,3.80,,,,0,0,Maria Isabel Pita,,,,,,15,6,1,
10011001,,The Atonement of Jesus Christ: A study of the saving atonement of Jesus Christ,,B004C43I7W,,,ES,,,en-GB,true,2,2909402,35,34,13,7,2002/1/1,The Atonement of Jesus Christ: A study of the saving atonement of Jesus Christ,book,1,1,5,4,2,2.62,,,,2,0,Kevan Kingsley Clawson,,,,,,20,5,,non-fiction
10011501,0961268441,Art of Music Copying: The Preparation of Music for Performance,9780961268442,,,,ES,,,,false,1,10011501,1,4,1,0,1985/1/1,,,0,1,0,0,0,4.00,,,,1,0,Clinton H. Roemer,,,,,,,0,,
10013001,006204379X,Poor People,9780062043795,,,,ES,2010/10/5,HarperCollins e-books,,true,12,45639,2443,3114,840,153,2007/1/1,Poor People,book,198,331,212,65,34,3.71,464,ebook,,1,0,William T. Vollmann,,,,,,1324,14,96,"american,class,cultural,economics,essays,fiction,history,non-fiction,politics,social-issues,society,sociology,travel,unfinished"
10014501,,6 Grand Fugues: Fugue No. 6 in C Minor,2940000621813,,,,ES,,,,true,1,10014501,0,0,0,0,,,,0,0,0,0,0,0.00,,,,0,0,Georg Friedrich Händel,,,,,,,0,,
10016501,,A Reversible Santa Claus,2940012031518,,,,ES,,,,true,55,12485436,51,82,22,9,1917/1/1,A Reversible Santa Claus,book,3,12,6,0,1,3.73,,,,0,0,Meredith Nicholson,,,,,,22,2,3,"american,christmas,classics,crime,fiction,holiday,short-stories"
10017001,0521114578,Claude Simon: Writing the Visible,9780521114578,,,,ES,2009/2/27,Cambridge University Press,,false,1,10017001,0,0,0,0,2009/6/25,,,0,0,0,0,0,0.00,244,Paperback,,0,0,Celia Britton,,,,,,,0,,
10018001,0126686084,Plant Physiology Vol. 8: A Treatise: Nitrogen Metabolism,9780126686081,,,,ES,1983/12/1,Academic Press,,false,2,10018001,0,0,0,0,1983/1/1,,,0,0,0,0,0,0.00,,Hardcover,,0,0,R. G. Bidwell,,,F.C. Steward,,,,0,,
10019001,,Italia dall'alto - Storia dell'arte e del paesaggio,,,,,ES,2004/1/1,Editoriale Jaca Book S.p.a.,ita,false,1,10019001,3,5,2,0,2004/1/1,,book,0,0,1,1,0,2.50,256,Hardcover,,2,0,Maria Antonietta Crippa,,,,,,1,0,,"art,non-fiction"
10020501,115953926X,"Anarchisme Insurrectionnel: Anarchiste Insurrectionnel, Mikhail Bakounine, Propagande Par Le Fait, Errico Malatesta, Carlo Cafiero",9781159539269,,,,ES,2011/8/25,"Books LLC, Wiki Series",,false,1,10020501,0,0,0,0,,,,0,0,0,0,0,0.00,,Paperback,,0,0,Source Wikipedia,,,,,,,0,,
10021001,1156182700,Irish Film Critics: Dave Fanning,9781156182703,,,,ES,2010/5/31,Books LLC,,false,1,10021001,0,0,0,0,,,,0,0,0,0,0,0.00,,Paperback,,0,0,,,,,,,,0,,
10022001,0295972483,Historical Atlas of Central Europe,9780295972480,,,,ES,1993/11/1,University of Washington Press,,false,9,12401,105,152,34,4,1993/10/1,"Historical Atlas of Central Europe (History of East Central Europe, Vol. 1)",book,22,7,4,1,0,4.47,231,Hardcover,,1,0,Paul Robert Magocsi,,,,,,50,3,2,"history,non-fiction,politics,reference"
10024001,0606107797,The Dark-Thirty: Southern Tales of the Supernatural,9780606107792,,,,ES,1992/1/1,Turtleback Books,,false,13,199623,3218,5828,1510,132,1992/1/1,"The Dark-Thirty: Southern Tales of the Supernatural: (Newbery Honor Book, Coretta Scott King Author Award, ALA Notable Children's Boo k) (Coretta Scott King Author Award Winner)",book,518,461,385,93,53,3.86,122,Hardcover,,2,1,Patricia C. McKissack,,,,,,1419,9,43,"adventure,anthologies,chapter-books,childrens,fantasy,fiction,ghosts,historical,historical-fiction,history,horror,juvenile,magic,middle-grade,mystery,paranormal,short-stories,supernatural,teen,thriller,young-adult"
10024501,0072855436,Elementary And Intermediate Algebra,9780072855432,,,,ES,,,eng,false,1,10024501,5,2,1,0,,,,0,0,0,1,0,2.00,,,,1,0,Mark Dugopoiski,,,,,,1,0,,
10025001,0600570991,A Collection Of Adventure Stories,9780600570998,,,,ES,1991/2/28,Hamlyn Young Books,eng,false,1,10025001,1,0,0,0,1991/2/28,,book,0,0,0,0,0,0.00,192,Hardcover,,0,0,Various,,,,,,,0,,fiction
10027001,1155487060,"Rock Eisteddfod Challenge Participants: Heath Ledger, Davidson High School, Abbotsleigh, Brighton Secondary College, Knox Grammar School",9781155487069,,,,ES,2011/8/15,"Books LLC, Wiki Series",,false,1,10027001,0,0,0,0,2011/8/15,,,0,0,0,0,0,0.00,,Paperback,,0,0,Source Wikipedia,,,,,,,0,,
10028501,,The Golden String: An Autobiography,9780872431638,,,,ES,,Templegate Publishers,eng,false,7,535905,197,234,55,8,1954/1/1,The Golden String: An Autobiography,book,24,22,8,1,0,4.25,192,Paperback,,8,1,Bede Griffiths,,,,,,123,8,4,"autobiography,biography,biography-memoir,christian,christianity,memoir,non-fiction,religion,spirituality,theology"
10029501,,"The antiquities of the priory of Christ-church, Hants, by B. Ferrey, the ...",2940017378687,,,,ES,,,,true,6,10029501,0,0,0,0,,,book,0,0,0,0,0,0.00,,,,0,0,"Benjamin Ferrey,Edward Wedlake Brayley",,,,,,,0,,
10030501,8838643881,Guida a StarOffice e OpenOffice.org - Valida per ECDL Syllabus 4.0,,,,,ES,2004/9/1,The McGraw - Hill Companies s.r.l.,ita,false,1,10030501,1,0,0,0,2004/9/1,,book,0,0,0,0,0,0.00,478,Paperback,AICA - Sun Microsystems Italia,0,0,Marina Cabrini,,,,,,1,1,,non-fiction
10031001,0231064810,The Responsive Workplace: Employers and a Changing Labor Force,9780231064811,,,,ES,1987/8/18,Columbia University Press,,false,2,4542793,1,0,0,0,1987/1/1,The  Responsive Workplace,,0,0,0,0,0,0.00,329,Paperback,,0,0,Sheila B. Kamerman,,,,,,1,0,,
10032001,,The Federalist Papers,2940011908262,,,,ES,,,,true,576,110331,82206,130610,32140,731,1787/9/17,The Federalist,book,13216,10408,6409,1564,543,4.06,,,,6,2,"Alexander Hamilton,James Madison,John Jay",,,,,,39578,117,5426,"academic,amazon,american,american-history,americana,classics,college,economics,essays,high-school,historical,history,literature,non-fiction,philosophy,politics,reference,school,science,unfinished"
10032501,073555966X,Americans with Disabilities Act Handbook 2006-2 Cumulative Supplement,9780735559660,,,,ES,,,,false,1,10032501,0,0,0,0,2000/2/29,,,0,0,0,0,0,0.00,,,,0,0,Henry H. Perritt Jr.,,,,,,,0,,
10033001,1442999837,Powerful Performance Appraisals: How to Set Expectations and Work Together to Improve Performance,9781442999831,,,,ES,2009/7/13,ReadHowYouWant,,true,1,10033001,1,0,0,0,2009/7/13,,,0,0,0,0,0,0.00,,ebook,,0,0,Karen McKirchy,,,,,,1,0,,
10034501,1169832105,Socialism: An Economic and Sociological Analysis (1951),9781169832107,,,,ES,,,,false,44,154244,4099,4120,954,30,1922/1/1,Die Gemeinwirtschaft: Untersuchungen uber den Sozialismus,book,533,277,90,23,31,4.32,,,,0,0,"J. Kahane,Ludwig von Mises",,,,,,2823,10,147,"amazon,business,classics,economics,history,non-fiction,philosophy,politics,science,social,society,sociology"
10035001,0786006692,Forever True/Solo Tuya,9780786006694,,,,ES,1999/9/1,Pinnacle,,false,3,10035001,4,3,1,0,1999/8/1,,book,0,0,1,0,0,3.00,384,Paperback,,1,0,Elaine Alberro,,,,,,1,0,,
10035501,1446032485,Art Thoughts - The Experiences and Observations of an American Amateur in Europe,9781446032480,,,,ES,2010/7/12,Hughes Press,,false,4,29582440,0,0,0,0,2008/6/29,,,0,0,0,0,0,0.00,390,Paperback,,0,0,James Jackson Jarves,,,,,,,0,,
10038501,1848793855,Totally Random (Planet Me),9781848793859,,,,ES,,,,false,1,10038501,3,0,0,0,2010/4/1,,,0,0,0,0,0,0.00,,,,0,0,T. Bugbird,,,,,,2,0,,
10039001,0471852694,How to Protect Your Creative Work: All You Need to Know about Copyright,9780471852698,,,,ES,1987/5/1,Wiley,,false,1,10039001,1,0,0,0,1987/4/1,,,0,0,0,0,0,0.00,343,Paperback,,0,0,David A. Weinstein,,,,,,1,0,,
10039501,0711225982,Regent’s Park and Primrose Hill,9780711225985,,,,ES,2010/10/1,Frances Lincoln,lav,false,1,10039501,2,0,0,0,2010/10/1,,,0,0,0,0,0,0.00,112,Hardcover,,0,0,"Martin Sheppard,Sandra Lousada",,,,,,2,0,,
10041001,0853604134,"Great Is the Lord, Psalm 48, Opus 67: Anthem for SATB & Organ or Orchestra",9780853604136,,,,ES,2003/12/1,Novello & Company,,false,1,10041001,0,0,0,0,2003/12/1,,,0,0,0,0,0,0.00,26,,,0,0,,,,,,,,0,,
10042001,1598299875,Studies of Work and the Workplace in Hci,9781598299878,,,,ES,2009/5/8,Morgan & Claypool,,false,1,10042001,1,0,0,0,2009/5/1,,,0,0,0,0,0,0.00,108,Paperback,,0,0,Graham Button,,,,,,1,0,,
10042501,1417627085,"The Adventures of Penrose, the Mathematical Cat",9781417627080,,,,ES,1997/10/24,Turtleback Books,,false,6,187099,474,680,169,20,1997/1/1,The Adventures of Penrose the Mathematical Cat,,64,59,37,4,5,4.02,114,Hardcover,,0,0,Theoni Pappas,,,,,,235,9,14,"animals,childrens,christian,education,non-fiction,school,science,teaching"
10043001,1587460033,"Ones: Subtraction Concepts and Basic Facts: Developmental Mathematics Student Workbook, Level 3.",9781587460036,,,,ES,,,,false,1,10043001,1,0,0,0,1993/1/28,,,0,0,0,0,0,0.00,,,,0,0,L. George Saad,,,,,,,0,,
10044001,1577492382,The Women's Book of Positive Quotations,9781577492382,,,,ES,,,,false,1,10044001,10,15,3,0,2010/10/16,,book,3,0,0,0,0,5.00,,,,3,0,"Leslie Ann Gibson,Steve Deger",,,,,,5,0,,
10045001,,"Archiwum Jana Zamoyskiego, Kanclerza i Hetmana Wielkiego Koronnego",2940039142235,,,,ES,,,,true,5,10045001,0,0,0,0,,,,0,0,0,0,0,0.00,,,,0,0,Waclaw Sobieski Maurycy Zamoyski,,,,,,,0,,
10046001,0745011063,The Policy Process in the Modern Capitalist State,9780745011066,,,,ES,1992/1/1,Harvester Wheatsheaf,eng,false,4,1137134,59,25,6,2,1984/4/1,The Policy Process in the Modern Capitalist State,book,2,3,1,0,0,4.17,210,Paperback,Second Edition,1,0,"Christopher Ham,Michael Hill",,,,,,42,0,1,
10046501,,"Architects of fate: or, Steps to success and power : a book designed to inspire youth to character building, self-culture and noble achievement",2940017370773,,,,ES,,,,true,73,7551155,30,17,4,1,1997/6/1,,book,2,1,1,0,0,4.25,,,,0,0,Orison Swett Marden,,,,,,16,0,2,
10048001,0174312709,Computer Programming In Basic,9780174312703,,,,ES,,,ger,false,1,10048001,4,4,1,0,,,,0,1,0,0,0,4.00,,,,1,0,Peter Bishop,,,,,,1,1,,
10048501,,Syrup: A Novel,,B002XNUWAU,,,ES,,,eng,true,24,41315,9334,19822,5105,352,1999/1/1,Syrup,book,1436,2075,1221,306,67,3.88,,,,184,7,Max Barry,,,,,,2561,28,51,"adult,adult-fiction,business,comedy,contemporary,fiction,funny,humor,literary-fiction,literature,modern,novels,thriller"
10049001,1848250274,In the Name of the Father,9781848250277,,,,ES,,,,false,1,10049001,0,5,1,0,2010/7/30,,,1,0,0,0,0,5.00,,,,1,0,,,,Julien Chilcott-Monk,,,,0,,
10051001,2950559522,L'armée romaine et les barbares: du IIIe au VIIe siècle,9782950559524,,,,ES,1993/1/1,Musee des antiquites nationales,fre,false,1,10051001,2,0,0,0,1993/1/1,,book,0,0,0,0,0,0.00,473,Unknown Binding,,0,0,"Françoise Vallet,Michel Kazanski",,,,,,1,0,,
10051501,3540441905,"Logics in Artificial Intelligence: European Conference, Jelia 2002, Cosenza, Italy, September, 23-26, Proceedings",9783540441908,,,,ES,2002/9/11,Springer,,false,3,10051501,0,0,0,0,2002/9/11,,,0,0,0,0,0,0.00,567,Paperback,,0,0,Giovambattista Ianni,,,Sergio Flesca,,,,0,,
10052501,1598585940,The Journey...,9781598585940,,,,ES,2008/4/8,Dog Ear Publishing,eng,false,1,10052501,0,0,0,0,2008/4/1,,,0,0,0,0,0,0.00,88,Paperback,,0,0,Kate Fenimore,,,,,,,0,,
10053501,0552085707,Monsters,9780552085700,,,,ES,1970/1/1,Corgi,,false,10,4642570,158,233,67,10,1965/1/1,The Blal and Other Science Fiction Monsters ,book,11,20,28,6,2,3.48,190,Paperback,,17,2,A.E. van Vogt,,,,,,46,1,2,"fiction,science-fiction,short-stories,speculative-fiction"
10054001,0232526338,Henri Nouwen: His Life and Vision,9780232526332,,,,ES,2007/9/1,Darton Longman and Todd,,false,1,10054001,3,0,0,0,2007/9/1,,,0,0,0,0,0,0.00,176,Paperback,,0,0,Michael O'Laughlin,,,,,,2,0,,
10056001,0899622615,The Least Of These,9780899622613,,,,ES,,,eng,false,1,10056001,0,0,0,0,,,,0,0,0,0,0,0.00,,,,0,0,Edith B. Dumas,,,,,,,0,,
10056501,0954692462,Fly-fishing in Northern Spain (European Angling),9780954692469,,,,ES,2006/6/1,Philip Pembroke,eng,false,1,10056501,3,4,1,0,2006/6/1,,,0,1,0,0,0,4.00,,Paperback,,1,0,Philip Pembroke,,,,,,2,0,,
10058001,2264049642,La Rose et le Chardon,9782264049643,,,,ES,2009/11/19,10/18,fre,false,7,2472553,274,552,149,16,2008/6/19,The Green Man,book,35,55,41,16,2,3.70,,Mass Market Paperback,,0,0,"Corine Derblum,Kate Sedley",,,,,,92,5,1,"crime,fiction,historical,historical-fiction,history,medieval,mystery,mystery-thriller"
10058501,0006714609,Jemima and the Welsh Rabbit,9780006714606,,,,ES,1978/9/28,,eng,false,2,10058501,7,6,2,0,1972/9/28,,book,0,0,2,0,0,3.00,,Paperback,,2,0,Gillian Avery,,,,,,1,0,,
10059001,,The Shield and the Shadow,,B004E9U7AG,,,ES,,,en-US,false,3,10059001,16,13,3,2,2010/11/28,,,1,2,0,0,0,4.33,,Audio CD,,3,2,D.B. Clifton,,,,,,9,0,1,short-stories
10059501,1448806887,"Donkeys: Jennies, Jacks, And Foals (On The Farm)",9781448806881,,,,ES,2010/8/15,PowerKids Press,en-US,false,4,10059501,6,9,2,1,2010/8/15,,,1,1,0,0,0,4.50,24,Hardcover,,2,1,Lorijo Metz,,,,,,4,0,,science
10060001,1157647693,"People from North York, Ontario: Geddy Lee, Kirk McLean, Snow, Peter Polansky, Howie Mandel, Gary Roberts, Esther Shiner, Liane Balaban",9781157647690,,,,ES,2011/8/17,"Books LLC, Wiki Series",,false,1,10060001,0,0,0,0,2011/8/17,,,0,0,0,0,0,0.00,,Paperback,,0,0,Source Wikipedia,,,,,,,0,,
10060501,1936000288,Secrets of Old Santa Fe,9781936000289,,,,ES,,,,true,3,6663299,4,8,2,1,2009/6/30,Secrets of Old Santa Fe,,0,2,0,0,0,4.00,,,,0,0,Marion Kelley Bullock,,,,,,2,0,,"christian-fiction,mystery,romance"
10061501,0140503331,The Old Joke Book,9780140503333,,,,ES,1979/4/26,Puffin Books,,false,5,500947,33,66,17,0,1976/1/1,The Old Joke Book,book,7,5,3,0,2,3.88,32,Paperback,,0,0,"Allan Ahlberg,Janet Ahlberg",,,,,,10,0,,"childrens,comedy,graphic-novels,humor,non-fiction,picture-books"
10063001,1101492287,Netochka Nezvanova,9781101492284,,,,ES,,,eng,true,45,17893,7546,13170,3448,291,1849/1/1,Неточка Незванова,book,986,1222,933,246,61,3.82,,,,1,0,Fyodor Dostoyevsky,,,,,,3049,6,100,"adult,classic-literature,classics,fiction,literary-fiction,literature,novels,tragedy"
10063501,1156278821,Delaware Fighting Blue Hens Football Seasons: 2009 Delaware Fightin' Blue Hens Football Team,9781156278826,,,,ES,2010/5/31,Books LLC,,false,1,10063501,0,0,0,0,,,,0,0,0,0,0,0.00,,Paperback,,0,0,,,,,,,,0,,
10064001,0786286962,Watching Amanda,9780786286966,,,,ES,2006/6/30,Thorndike Press,,false,10,914788,344,579,159,14,2005/1/1,Watching Amanda ,book,43,48,42,20,6,3.64,408,Hardcover,Large Print,1,0,Janelle Taylor,,,,,,112,7,2,"adult,adult-fiction,chick-lit,contemporary,fiction,mystery,mystery-thriller,novels,romance,suspense,thriller"
10065001,0536279845,Global Marketing (Custom Package),9780536279842,,,,ES,,,,false,51,178309,436,350,97,3,1999/7/28,Global Marketing ,book,22,34,28,7,6,3.61,,,,0,0,"Mark C. Green,Warren J. Keegan",,,,,,227,0,15,"business,textbooks"
10067501,0072506202,"Adapted Physical Activity, Recreation and Sport with Powerweb: Health and Human Performance",9780072506204,,,,ES,2001/3/16,McGraw-Hill Humanities/Social Sciences/Languages,,false,1,10067501,2,0,0,0,1998/6/1,,,0,0,0,0,0,0.00,,Unknown Binding,,0,0,"Claudine Sherrill,Sherrill",,,,,,1,0,,
10069001,0321286588,"Study Guide for Principles of Managerial Finance, Brief Edition [with MyFinanceLab Access Card]",9780321286581,,,,ES,2005/5/18,Addison Wesley Longman,,false,7,9505579,7,3,1,0,2005/4/28,,book,0,0,1,0,0,3.00,336,Paperback,,0,0,Lawrence J. Gitman,,,,,,3,0,,
10072501,,Unknown Book 10072501,,,,,ES,,,ita,false,1,10072501,5,8,2,1,,,,0,2,0,0,0,4.00,,,,2,1,Unknown,,,,,,2,0,,
10073001,1157626734,"1875 Books (Study Guide): Science and Health with Key to the Scriptures, the Sexes Throughout Nature, Satyarth Prakash, 1875 in Literature",9781157626732,,,,ES,2010/10/14,Books LLC,,false,1,10073001,0,0,0,0,2010/10/14,,,0,0,0,0,0,0.00,42,Paperback,,0,0,,,,Books LLC,,,,0,,
10074001,,A-t-il perdu?: com,2940030586083,,,,ES,,,,true,1,10074001,0,0,0,0,,,,0,0,0,0,0,0.00,,,,0,0,Ch. de Lonchamps,,,,,,,0,,
10074501,1110811403,An Analytical Key,9781110811403,,,,ES,,,,false,3,16918243,0,0,0,0,2009/5/28,,,0,0,0,0,0,0.00,,,,0,0,Aven Nelson,,,,,,,0,,
10075001,,Leaving Gee's Bend,,B0030CHF3U,,,ES,,,,true,8,6532373,1160,1814,453,113,2010/1/7,Leaving Gee's Bend,book,162,174,81,29,7,4.00,,,,9,0,Irene Latham,,,,,,611,17,8,"adult,adventure,childrens,family,fiction,historical,historical-fiction,history,juvenile,middle-grade,novels,realistic-fiction,teen,young-adult"
10075501,2754104984,"Hiroshige, Sur La Route Du Tôkaido",9782754104982,,,,ES,2010/11/17,Hazan,fre,false,1,10075501,6,5,1,0,2010/1/1,,book,1,0,0,0,0,5.00,456,Unknown Binding,,1,0,Nelly Delay,,,,,,1,0,,art
10076501,1109461429,"Ambient measurements of chemical and physical properties of organic aerosols: Insights into formation, growth, and heterogeneous chemistry.",9781109461428,,,,ES,,,,false,1,10076501,0,0,0,0,,,,0,0,0,0,0,0.00,,,,0,0,Luke D Ziemba,,,,,,,0,,
10078501,0606063447,Earthquake at Dawn,9780606063449,,,,ES,1992/1/1,Turtleback Books,,false,8,99817,534,780,215,23,1992/1/1,Earthquake at Dawn,book,40,82,70,19,4,3.63,194,Hardcover,,0,0,Kristiana Gregory,,,,,,225,14,3,"american-history,childrens,fiction,historical,historical-fiction,history,non-fiction,teen,young-adult"
10079001,,Crystal River Witch,2940000101131,,,,ES,,,,true,2,10079001,11,19,5,0,2006/8/5,,,1,2,2,0,0,3.80,,,,5,0,Ed Howdershelt,,,,,,2,0,,
10080001,8493785245,Vivir a medias. Mundos no,9788493785246,,,,ES,,,,true,1,10080001,0,0,0,0,2010/1/28,,,0,0,0,0,0,0.00,,,,0,0,Noem,,,,,,,0,,
10080501,,Daemon,2940011071652,,,,ES,,,,true,5,3136130,73,128,34,4,2005/1/1,"Daemon (The Night Trilogy, #3)",book,8,16,5,4,1,3.76,,,,0,0,Harry Shannon,,,,,,31,1,,horror
10081001,0972085947,Darklings,9780972085946,,,,ES,,,eng,false,13,1624890,244,326,88,7,1985/10/1,Darklings,book,22,22,41,2,1,3.70,313,,signed limited to 300 numbered copies,6,2,Ray Garton,Caniglia,,,,,127,10,4,"fiction,horror"
10081501,0856133469,The Annotated Oscar Wilde,9780856133466,,,,ES,1982/10/1,Orbis,eng,false,2,2293269,28,26,6,1,1982/9/19,The Annotated Oscar Wilde,book,5,0,0,0,1,4.33,488,Hardcover,,0,0,Oscar Wilde,,,H. Montgomery Hyde,,,19,0,,"biography,classics,collections,comedy,fantasy,fiction,history,horror,lgbt,poetry,politics,theatre"
10082001,5994201960,Все зависит от нас,9785994201961,,,,ES,,,rus,false,2,17342938,23,83,20,0,2008/1/1,,book,8,9,2,0,1,4.15,,,,1,0,Владислав Конюшевский,,,,,,2,0,,
10082501,,Three Hundred Zeroes,2940011977428,,,,ES,,,eng,true,5,7997475,1245,1907,480,37,2010/12/20,,book,141,207,113,16,3,3.97,,,,4,1,Dennis R. Blanchard,,,,,,309,12,24,"adventure,amazon,americana,biography,funny,memoir,nature,non-fiction,sports,travel"
10083001,1415938520,The Lost Diary of Don Juan,9781415938522,,,,ES,2007/5/1,Random House Audio,eng,false,39,132587,1526,2973,876,130,2007/1/1,The Lost Diary of Don Juan: An Account of the True Arts of Passion and the Perilous Adventure of Love,book,152,250,313,113,48,3.39,0,Audiobook,,0,0,Douglas Carlton Abrams,,,,,Scott Brick,403,18,25,"biography,drama,fiction,historical,historical-fiction,history,love,memoir,romance"
10083501,,The Bird of Paradise Lost and Other Poems,9781450716130,,,,ES,2010/1/1,,eng,false,1,10083501,1,3,1,0,2010/1/1,,book,0,0,1,0,0,3.00,46,Unknown Binding,First,1,0,Art Walsh,,,,,,,0,,poetry
10084001,1424124522,Gaining of Larruth,9781424124527,,,,ES,2006/6/26,Publish America,,false,1,10084001,0,0,0,0,2006/6/30,,,0,0,0,0,0,0.00,372,Paperback,,0,0,Roby Ward,,,,,,,0,,
10084501,1157980333,"Micropolitan Areas of South Carolina: Hilton Head Island-Beaufort Micropolitan Area, Jasper County, South Carolina, Beaufort County",9781157980339,,,,ES,2011/8/16,"Books LLC, Wiki Series",,false,1,10084501,0,0,0,0,2011/8/16,,,0,0,0,0,0,0.00,,Paperback,,0,0,Source Wikipedia,,,,,,,0,,
10085501,,The Man For Me,,B001J9Q49C,,,ES,,,en-US,true,6,5983737,184,297,82,15,2008/1/1,The Man for Me,book,17,32,23,5,5,3.62,328,,,4,0,Gemma Bruce,,,,,,73,10,2,"contemporary,romance,sports"
10086501,0495898333,The Speaker's Compact Handbook,9780495898337,,,,ES,2011/1/1,Cengage Learning,,false,12,4120282,79,136,39,3,2008/4/16,,book,7,13,13,4,2,3.49,272,Spiral-bound,Third Edition,7,1,"Douglas K. Stuart,Jo Sprague",,,,,,23,1,2,"school,textbooks"
10087001,,Environmental assessment of the Alaskan Continental Shelf: Annual reports of principal investigators,2940029272621,,,,ES,,,,true,2,10087002,1,5,1,0,,,,1,0,0,0,0,5.00,,,,0,0,"Environmental Research Laboratories (U.S.),Outer Continental Shelf Environmental Assessment Program,United States. Bureau of Land Management,United States. Office of Marine Pollution Assessment",,,,,,,0,,
10088001,8439722737,La pianista (The Piano Teacher),9788439722731,,,,ES,,,,true,108,219879,21338,27169,7657,747,1983/1/1,Die Klavierspielerin,book,1842,2481,1912,877,545,3.55,,,,1,2,Elfriede Jelinek,,,,,,11460,113,446,"adult,adult-fiction,classics,contemporary,dark,drama,family,feminism,fiction,literary-fiction,literature,music,novels,psychology,romance,unfinished"
10089001,1425337112,One,9781425337117,,,,ES,,,,false,3,10089001,4,0,0,0,2005/12/28,,book,0,0,0,0,0,0.00,,,,0,0,,,,,,,4,0,,
10089501,0143064703,Sarama And Her Children: The Dog In Indian Myth,9780143064701,,,,ES,,,eng,false,2,10089501,28,17,6,2,2008/8/25,,,1,1,1,2,1,2.83,,,,6,2,Bibek Debroy,,,,,,19,2,1,"academic,amazon,history,research"
10090501,1400004616,"Fodor's Walt Disney World 2011: With Universal, SeaWorld, and the Best of Central Florida",9781400004614,,,,ES,2010/11/16,Fodor's,eng,false,33,10090501,190,390,108,14,1989/8/26,"Fodor's Walt Disney World®, Universal Orlando®, and Central Florida 2006 (Fodor's Gold Guides)",book,23,37,36,7,5,3.61,608,Paperback,,26,4,,,,Fodor's Travel Publications Inc.,,,27,3,5,"family,non-fiction,reference,travel"
10091001,1740452674,The Complete Vegetarian Cookbook,9781740452670,,,,ES,,,eng,false,2,10091001,7,6,2,0,2000/1/1,,book,0,0,2,0,0,3.00,,,,1,0,Jane    Price,,,,,,2,0,,
10091501,110941014X,Interacting two dimensional systems with a discrete degree of freedom.,9781109410143,,,,ES,,,,false,1,10091501,0,0,0,0,,,book,0,0,0,0,0,0.00,,,,0,0,Nathaniel Bishop,,,,,,,0,,
10092001,,Brown University Library; the Library of the College Or University in the English Colony of ...,2940018094661,,,,ES,,,,true,1,10092001,0,0,0,0,,,,0,0,0,0,0,0.00,,,,0,0,Samuel Lane Boardman Henry Bartlett Van Hoesen,,,,,,,0,,
10092501,0567437019,Church Dogmatics: II.2 The Doctrine of the Word of God §§ 32–33 (Study Edition #10),9780567437013,,,,ES,2010/9/20,Bloomsbury T&T Clark,eng,false,2,10092501,23,42,9,2,1988/12/31,,book,6,3,0,0,0,4.67,248,Paperback,,9,2,Karl Barth,,,,,,6,2,1,theology
10093001,1848890281,G2: In Defence of Ireland: Irish Military Intelligence 1918-45,9781848890282,,,,ES,2010/10/4,Collins Press,,false,1,10093001,10,10,4,1,2010/10/4,,,0,1,1,1,1,2.50,374,Paperback,,4,1,Maurice Walsh,,,,,,5,0,,history
10093501,1577656490,Chickens,9781577656494,,,,ES,2003/9/1,Buddy Books,,false,6,9947065,10,13,4,1,2002/1/1,,book,1,1,0,2,0,3.25,24,Hardcover,,0,0,Julie Murray,,,,,,4,1,,"non-fiction,science"
10094001,3511091888,An Der Wiege Der Bayerischen Mundart-Grammatik Und Des Bayerischen Worterbuches,9783511091880,,,,ES,1985/12/31,Scientia Verlag,ger,false,1,10094001,0,0,0,0,1985/12/31,,,0,0,0,0,0,0.00,365,Paperback,,0,0,Ludwig Rockinger,,,Robert Hinderling,,,,0,,
10096001,1605630128,RB's Mystery: Poetical Mysteries of the Soul,9781605630120,,,,ES,2008/3/31,America Star Books,eng,false,1,10096001,0,0,0,0,2008/3/31,,,0,0,0,0,0,0.00,58,Paperback,,0,0,Regina Benton,,,,,,,0,,
10096501,,WordPairs Puzzles Sampler,2940011151125,,,,ES,,,,true,1,10096501,2,0,0,0,2010/12/17,,,0,0,0,0,0,0.00,,,,0,0,John Bates,,,,,,2,0,,non-fiction
10097001,,The Tale of Fatty Coon,,B004DNWH9W,,,ES,,,eng,true,26,2537594,43,46,13,4,1915/1/1,,book,4,3,2,4,0,3.54,,,,0,0,Arthur Scott Bailey,,,,,,20,4,1,"childrens,classics,fiction"
10097501,,"Beauties of diplomacy. Speech of Hon. Samuel S. Cox, of New York, in the House of Representatives, February 9, 1876 ..",2940017338117,,,,ES,,,,true,4,10097501,0,0,0,0,2010/6/24,,,0,0,0,0,0,0.00,,,,0,0,Samuel Sullivan Cox,,,,,,,0,,
10098001,,"The code of Alabama, adopted by act of the legislature of Alabama; approved July 27, 1907, entitled An act to adopt a code of laws for the state of Alabama, with such statutes passed at the session of 1907 as are required to be incorporated herein by act",2940028985973,,,,ES,,,,true,1,10098001,0,0,0,0,,,,0,0,0,0,0,0.00,,,,0,0,Alabama,,,,,,,0,,
10098501,,Prodigal,,B0046LV7LA,,,ES,,,,true,3,10098501,6,0,0,0,2010/10/9,,,0,0,0,0,0,0.00,,,,0,0,Bobby Mathews,,,,,,6,1,,
10099501,,Billionaire Bachelors: Gray,,B004GEARC2,,,ES,2010/12/16,Silhouette Desire,,true,6,1526494,103,117,35,3,2003/8/1,Billionaire Bachelors: Gray,book,8,8,10,6,3,3.34,,,,0,0,Anne Marie Winston,,,,,,43,3,1,"chick-lit,drama,harlequin,romance"
10100501,8818121677,La realtà in trasparenza: Lettere (1914-1973),9788818121674,,,,ES,1997/1/1,Rusconi,ita,false,39,2327,12166,21111,5094,202,1981/1/1,Letters of J.R.R. Tolkien,book,2293,1626,884,199,92,4.14,520,Hardcover,,7,1,J.R.R. Tolkien,,,,Cristina De Grandis,,790,30,104,"academic,amazon,autobiography,biography,biography-memoir,british-literature,christian,classics,essays,fantasy,fiction,high-fantasy,historical,history,literature,memoir,non-fiction,reference,religion,unfinished,writing"
10101501,,Invisible Woman: I to I: Invisibility to Invincibility,,B003ODI90I,,,ES,,,,true,5,8156439,1,0,0,0,2010/4/23,,,0,0,0,0,0,0.00,,,,0,0,Jagdish D. Kulkarni,,,,,,1,0,,
10102001,1426887310,"Fantasy (Visitation, North Carolina, #0.5)",9781426887314,,,,ES,2005/8/1,Silhouette Desire,,true,17,511581,2333,4314,1129,42,1998/1/1,Fantasy,book,352,353,317,84,23,3.82,,ebook,,8,1,Lori Foster,,,,,,268,20,65,"chick-lit,contemporary,fiction,harlequin,novella,romance"
10102501,220331513X,"Les 4 as et la bombe F (Les 4 as, #13)",9782203315136,,,,ES,1993/11/29,Caterman,fre,false,2,10102501,24,59,17,1,1975/6/1,"Les 4 as et la bombe F (Les 4 as, #13)",book,2,4,11,0,0,3.47,,Hardcover,,15,1,"François Craenhals,Georges Chaulet",,,,,,2,1,,"comics,france"
10103001,,Mark and Sharon: A Question of Sex,,B00387G1CI,,,ES,,,en-GB,true,3,9671220,61,110,33,0,2010/2/12,,book,4,11,12,4,2,3.33,,,,4,0,G.A. Hauser,,,,,,15,2,2,erotica
10103501,1117882845,The Life of Stonewall Jackson,9781117882840,,,,ES,,,,false,21,24017975,109,84,23,1,1866/1/1,,,6,7,7,2,1,3.65,,,,0,0,John Esten Cooke,,,,,,22,1,53,"biography,history,war"
10104001,,"Notes and Queries, Number 28, May 11, 1850",2940011973697,,,,ES,,,,true,2,10104001,0,0,0,0,2010/11/30,,,0,0,0,0,0,0.00,,,,0,0,Various,,,,,,,0,,
10104501,0961976055,Robert Kushner: Celestial Banquet,9780961976057,,,,ES,,,,false,1,10104501,0,0,0,0,,,,0,0,0,0,0,0.00,,,,0,0,"Fabric Workshop & Museum,Robert Kushner",,,,,,,0,,
10105501,0918074002,Log of the Mahina,9780918074003,,,,ES,,,,false,5,965953,28,50,13,2,1994/9/28,Log of the Mahina: A Tale of the South Pacific,,2,7,4,0,0,3.85,,,,1,0,John Neal,,,,,,10,0,3,"adventure,travel"
10106501,080758455X,Valentine's Day,9780807584552,,,,ES,1994/10/1,Albert Whitman & Company,,false,2,10106501,14,23,8,2,1994/10/1,,,0,1,6,0,1,2.88,,Paperback,,8,2,Miriam Nerlove,,,,,,2,0,,"childrens,holiday"
10107501,,The Disused Well and Other Tales of Horror & Mystery,,,,,ES,2006/1/1,Horizon Books,eng,false,1,10107501,3,3,1,0,2002/1/1,,book,0,0,1,0,0,3.00,195,Paperback,,1,0,Othman Wok,,,,,,1,0,,
10108001,0793567866,The Consul: Vocal Score,9780793567867,,,,ES,1986/11/1,,eng,false,1,10108001,0,0,0,0,1950/1/1,The Consul,book,0,0,0,0,0,0.00,56,Paperback,,0,0,Gian Carlo Menotti,,,,,,,0,,
10110501,160260858X,Daily Light,9781602608580,,,,ES,2010/2/1,Barbour Books,,false,37,962990,311,520,116,10,1789/1/1,Daily Light on the Daily Path: The Classic Devotional Book For Every Morning and Evening in the Very Words of Scripture,book,79,21,12,1,3,4.48,192,Paperback,Abridged,6,0,Samuel Bagster,,,,,,106,6,56,"christian,christianity,faith,inspirational,non-fiction,religion,self-help,theology"
10111001,0595246249,Viagro Blue,9780595246243,,,,ES,2002/10/6,iUniverse,,false,3,7465781,0,0,0,0,2002/10/1,,,0,0,0,0,0,0.00,196,Paperback,,0,0,Perry Aayr,,,,,,,0,,
10112001,1444692402,"Wild Life Conservation in Theory and Practice - Lectures Delivered Before the Forest School of Yale University, 1914",9781444692402,,,,ES,2010/1/24,Rogers Press,,false,15,10112001,6,0,0,0,1914/1/1,"Wild Life Conservation in Theory and Practice: Lectures Delivered Before the Forest School of Yale University, 1914",book,0,0,0,0,0,0.00,272,Paperback,,0,0,William Temple Hornaday,,,,,,5,0,,
10112501,0785316760,Patch's Lucky Star (Leap Frog),9780785316763,,,,ES,,,lav,false,1,10112501,13,23,6,0,,,book,2,1,3,0,0,3.83,16,,,6,0,Catherine McCafferty,Loretta Lustig,,,,,6,0,,
10113001,2890211126,Le Père D'arthur,9782890211124,,,,ES,,,,false,4,10113001,4,3,2,0,1989/1/1,,book,0,0,0,1,1,1.50,,,,2,0,Ginette Anfousse,,,,,,,0,,
10113501,0806944447,The Karate Road to Power,9780806944449,,,,ES,,,,false,2,10113501,0,0,0,0,1969/1/1,,,0,0,0,0,0,0.00,,,,0,0,Russell Kozuki,,,,,,,0,,
10114001,1157763863,"Aircraft Manufactured by the Czech Republic and Czechoslovakia: Aero Vodochody Aircraft, Avia Aircraft, Bene -Mraz Aircraft",9781157763864,,,,ES,2011/8/12,"Books LLC, Wiki Series",,false,1,10114001,0,0,0,0,2011/8/12,,,0,0,0,0,0,0.00,,Paperback,,0,0,Source Wikipedia,,,,,,,0,,
10114501,,Sin,,,,,ES,,,,false,4,10114501,185,333,82,10,2006/1/1,,book,28,36,14,3,1,4.06,,,,40,1,Andrej Nikolaidis,,,,,,72,5,1,"fiction,novels"
10116501,2081223902,La cité antique,9782081223905,,,,ES,2009/11/7,Flammarion,fre,false,87,1260022,882,1386,326,28,1864/3/1,La Cité antique,book,161,98,57,8,2,4.25,663,Paperback,Champs classiques (poche),3,2,"Bruno Karsenti,Numa Denis Fustel de Coulanges",,,,,,398,5,53,"anthropology,classics,france,history,non-fiction,philosophy,politics,religion,sociology,textbooks"
10117001,0749002581,How to Write for Children,9780749002589,,,,ES,2000/11/1,Allison & Busby,eng,false,1,10117001,5,10,3,0,2000/11/1,,,0,1,2,0,0,3.33,120,Paperback,,3,0,Tessa Krailing,,,,,,2,0,,
10117501,8854502324,L'insaziabile,9788854502321,,,,ES,2008/1/1,Neri Pozza,ita,false,1,10117501,5,0,0,0,,,book,0,0,0,0,0,0.00,168,Paperback,,0,0,Osvaldo Guerrieri,,,,,,4,0,,
10118501,,Morgen kommer,9788252546477,,,,ES,2005/1/1,Den norske bokklubben,nor,false,15,5195513,279,665,166,3,2002/1/1,Sista rompan,book,49,72,42,3,0,4.01,426,Hardcover,,0,0,Kerstin Ekman,,,,Jo Ørjasæter,,60,5,2,"classics,drama,fiction,historical,history,novels"
10119001,1159487642,"Groupe de Musique Neo-Zelandais: The Black Seeds, Adeaze, Fat Freddy's Drop, Steriogram, the Bilders, the Bats",9781159487645,,,,ES,2010/7/29,Books LLC,,false,1,10119001,0,0,0,0,2010/7/28,,,0,0,0,0,0,0.00,26,Paperback,,0,0,,,,Livres Groupe,,,,0,,
10119501,8120401972,The Library of Congress,9788120401976,,,,ES,,,,false,5,1008093,74,97,24,4,1974/3/1,Treasures of the Library of Congress,book,8,10,5,1,0,4.04,,,,0,0,"Charles A. Goodrum,Helen Dalrymple",,,,,,33,2,,"american,art,history,non-fiction"
10120001,0739315919,Oh My Stars,9780739315910,,,,ES,2005/4/19,Random House Audio,eng,false,16,16449,13387,22521,5798,539,2005/1/1,Oh My Stars,book,1593,2377,1474,272,82,3.88,0,Audio,,6,0,"Judith Ivey,Lorna Landvik",,,,,,6610,25,91,"adult,adult-fiction,adventure,american,chick-lit,contemporary,drama,fiction,funny,historical,historical-fiction,history,literature,novels,relationships,romance,unfinished"
10120501,1605539791,Elmo Christmas: Book Box and Plush,9781605539799,,,,ES,,,,false,1,10120501,1,0,0,0,2010/7/1,,,0,0,0,0,0,0.00,,,,0,0,Limited Publications International,,,,,,1,0,,
10121001,8870217205,La Cucina Delle Murge: Curiosità E Tradizioni,9788870217209,,,,ES,,,ita,false,1,10121001,1,0,0,0,1995/1/1,,,0,0,0,0,0,0.00,,,,0,0,Maria Pignatelli Ferrante,,,,,,,0,,
10122501,9606868370,"Αγγελική σιωπή (Αγγελική Σιωπή, #1)",9789606868375,,,,ES,2010/1/1,Φανταστικός Κόσμος,gre,false,106,6339664,863147,2044554,512867,23360,2009/10/13,"Hush, Hush",book,227397,133000,92590,37919,21961,3.99,365,Paperback,,68,15,Becca Fitzpatrick,,,,Δήμητρα Καρανικολού,,301935,1490,4713,"angels,contemporary,fantasy,fiction,high-school,love,magic,mystery,paranormal,romance,supernatural,teen,urban-fantasy,young-adult"
10123501,0195280075,"The Scofield Study Bible III, NIV",9780195280074,,,,ES,2004/9/28,"Oxford University Press, USA",,false,74,120452,104,281,62,11,1920/1/1,,book,47,6,5,3,1,4.53,1992,Hardcover,,0,0,Anonymous,,,,,,21,1,12,"christianity,fiction,reference,religion,spirituality"
10124001,1441735445,Borrower of the Night,9781441735447,,,,ES,2000/9/1,Blackstone Audiobooks,,false,37,66508,8877,20661,5527,369,1973/1/1,Borrower of the Night ,book,1366,1943,1717,407,94,3.74,,Audio CD,,1,1,Elizabeth Peters,,,,,,2058,58,107,"adult,adult-fiction,adventure,american,art,chick-lit,contemporary,cozy-mystery,crime,detective,fiction,funny,gothic,historical,historical-fiction,history,humor,mystery,mystery-thriller,novels,romance,suspense,thriller,unfinished"
10124501,0307700836,American 19th Century Literature: Complete Stories; The Golden Bowl; Moby-Dick; Tom Sawyer and Huckleberry Finn; The Age of Innocence,9780307700834,,,,ES,2010/12/21,Everyman's Library,,false,1,10124501,5,0,0,0,2010/12/19,,,0,0,0,0,0,0.00,,Hardcover,,0,0,Various,,,,,,3,0,,
10125001,4061490761,Depato O Hatsumei Shita Fufu (Kodansha Gendai Shinsho),9784061490765,,,,ES,,,,false,1,10125001,0,0,0,0,,,,0,0,0,0,0,0.00,238,,,0,0,Shigeru Kashima,,,,,,,0,,
10126001,,Nighttime Sweethearts (Silhouette Romance),,B003FV7GJO,,,ES,,,,true,7,2856783,96,154,41,5,2005/2/1,Nighttime Sweethearts (Silhouette Romance),book,9,16,13,3,0,3.76,,,,3,0,Cara Colter,,,,,,40,6,,"adult,contemporary,fantasy,fiction,harlequin,love,love-story,romance"
10126501,0959086404,On Air: 25 Years Of Tv In Queensland,9780959086409,,,,ES,,,eng,false,1,10126501,3,0,0,0,,,book,0,0,0,0,0,0.00,,,,0,0,Christopher  Beck,,,,,,1,0,,history
10127501,0203483375,Exploratory Data Analysis with MATLAB(R),9780203483374,,,,ES,2014/5/14,Taylor & Francis Group,,true,6,584687,27,15,4,1,2004/11/24,,book,1,1,2,0,0,3.75,431,ebook,,0,0,"Angel R. Martinez,Wendy L. Martinez",,,,,,13,0,1,
10128001,,Metropolis,2940011874680,,,,ES,,,eng,true,150,1043987,3384,3232,889,115,1925/1/1,Metropolis,book,233,275,249,88,44,3.64,,,,0,0,Thea von Harbou,,,,,,2106,18,128,"amazon,art,classic-literature,classics,dystopia,fantasy,fiction,film,historical,literature,novels,romance,science,science-fiction,speculative-fiction"
10128501,,Dictionnaire des proverbes fran,2940030987002,,,,ES,,,,true,1,10128501,0,0,0,0,,,,0,0,0,0,0,0.00,,,,0,0,Andr? Joseph Panckoucke,,,,,,,0,,
10129501,0557703573,Confessions of a Househusband,9780557703579,,,,ES,2010/10/29,Lulu.com,eng,false,2,10129501,9,14,3,2,2010/10/29,,,2,1,0,0,0,4.67,256,Paperback,,3,2,Alan Tapley,,,,,,6,0,,
10130001,,Male Nude Photography- Touch Your Toes - The Rear View,2940011981746,,,,ES,,,,true,2,10130000,0,0,0,0,2010/8/12,,book,0,0,0,0,0,0.00,,,,0,0,Nick Baer,,,,,,,0,,
10131501,032144535X,Microbiology,9780321445353,,,,ES,,,,false,110,883997,1317,1855,485,31,1986/1/1,Microbiology: An Introduction,book,173,143,110,29,30,3.82,,,,0,0,"Berdell Funke,Christine L. Case,Gerard J. Tortora",,,,,,565,11,58,"academic,college,education,medical,non-fiction,reference,research,school,science,textbooks"
10135001,8323306826,Osobliwy Podolak: W Kregu Mysli Historiozoficznej I Spoeczno-Politycznej Wojciecha HR. Dzieduszyckiego,9788323306825,,,,ES,,,dan,false,1,10135001,0,0,0,0,,,,0,0,0,0,0,0.00,,,,0,0,Krzysztof Karol Daszyk,,,,,,,0,,
10135501,0877288925,PRAXIS Spagyrica Philosophica OT Plain and Honest Directions on how to Make the Stone,9780877288923,,,,ES,1998/2/1,,,false,3,10135501,12,5,1,0,1998/2/1,,,1,0,0,0,0,5.00,144,Hardcover,,1,0,"Albertus Von Eins Bis Zehn,Frater Albertus",,,,,,7,0,,
10136001,0131394258,Microeconomics,9780131394254,,,,ES,2011/1/7,Addison Wesley,eng,false,101,1043515,336,353,110,4,1990/1/1,Microeconomics,book,27,25,22,16,20,3.21,,Paperback,10th Edition,12,1,Michael Parkin,,,,,,156,3,17,"american,business,economics,non-fiction,school,textbooks"
10137001,,Larousse Gastronomique,,,,,ES,1961/1/1,Crown,eng,false,8,1269189,422,829,179,16,1961/1/1,Larousse Gastronomique: The World's Greatest Cookery Encyclopedia (Larousse),book,129,36,12,2,0,4.63,1101,Hardcover,,6,2,Prosper Montagné,,,,,,171,5,19,"cookbooks,cooking,fiction,food,france,non-fiction,reference"
10137501,1448984513,"Give Her Your Dessert: A Group of Cautionary Tales from the Wayward Males & Those Equally Foolish, Like Me",9781448984510,,,,ES,2009/11/25,Publish America,,false,2,10137501,0,0,0,0,2009/11/25,,,0,0,0,0,0,0.00,80,Paperback,,0,0,Robert W. Wofford,,,,,,,0,,
10138001,,Tales from Shakespeare,2940019468867,,,,ES,,,,true,430,42036,10534,17334,4393,309,1899/1/1,Tales from Shakespear,book,1534,1473,1069,248,69,3.95,,,,0,0,Charles Lamb,,,,,,4114,24,466,"adventure,british-literature,childrens,classic-literature,classics,collections,drama,education,english-literature,fantasy,fiction,historical,historical-fiction,history,juvenile,literature,non-fiction,novels,plays,poetry,reference,romance,school,short-stories,teen,theatre,unfinished,young-adult"
10138501,1156909732,"Water Resources by Country: Water Resources Management by Country, Water Resources Management in Chile",9781156909737,,,,ES,2011/7/26,"Books LLC, Wiki Series",,false,1,10138501,0,0,0,0,,,,0,0,0,0,0,0.00,,Paperback,,0,0,Source Wikipedia,,,,,,,0,,
10139001,1589988809,Applause: The Patron Saint Poems,,,,,ES,2010/1/1,Pudding House Publications,,false,1,10139001,3,15,3,0,2010/1/1,,book,3,0,0,0,0,5.00,,,,3,0,Sara E. Lamers,,,,,,,0,,
10140001,9607919343,Ο δρόμος του φεγγαριού,9789607919342,,,,ES,1999/6/1,Εμπειρία Εκδοτική,gre,false,3,10140001,342,840,226,18,1999/6/1,,book,72,61,62,19,12,3.72,208,Paperback,,218,17,"Omiros Avramidis,Όμηρος Αβραμίδης",,,,,,68,3,2,"chick-lit,drama,historical-fiction,novels,romance"
10140501,,Bibliotheque du The,2940030732343,,,,ES,,,,true,4,10140501,0,0,0,0,,,,0,0,0,0,0,0.00,,,,0,0,Louis Ce,,,,,,,0,,
10141001,1845023161,"Shearer Wonderland: The Autobiography. Duncan Shearer, Paul Smith",9781845023164,,,,ES,2010/10/1,Black & White Publishing,eng,false,2,10141001,9,24,6,2,2010/10/1,,,1,4,1,0,0,4.00,256,Paperback,,6,2,Duncan Shearer,,,,,,1,0,,autobiography
10142001,,Merrick's Eleventh Hour (Silhouette Romantic Suspense),,B001LWV49W,,,ES,,,,true,6,5213585,40,54,17,1,2008/8/1,Merrick's Eleventh Hour (Silhouette Romantic Suspense),book,1,7,5,2,2,3.18,,,,0,0,Wendy Rosnau,,,,,,14,1,1,"harlequin,romance,suspense"
10142501,,Crisis in the Eurozone: Transatlantic Perspectives,,B00475AT4G,,,ES,,,en-GB,true,2,10142501,2,2,1,0,2010/9/24,,,0,0,0,1,0,2.00,,,,1,0,"Charles A. Kupchan,Fraser Cameron,Kathleen R. McNamara,Katinka barysch,Mary Elise Sarotte,Stewart M. Patrick",,,,,,1,0,,
10143001,0470681748,Classics in Cartography: Reflections on Influential Articles from Cartographica,9780470681749,,,,ES,2011/1/25,Wiley,,false,7,16332215,0,0,0,0,2010/12/10,,,0,0,0,0,0,0.00,408,Hardcover,,0,0,,,,Martin Dodge,,,,0,,
10144001,1157537642,"Online Music Stores: Amazon.Com, Kazaa, Magnatune, iTunes Store, Zune, Amie Street, Musicstation, Allofmp3, Sellaband",9781157537649,,,,ES,2011/8/31,"Books LLC, Wiki Series",,false,1,10144001,0,0,0,0,2011/8/31,,,0,0,0,0,0,0.00,,Paperback,,0,0,Source Wikipedia,,,,,,,0,,
10144501,0882821792,Viropause,9780882821795,,,,ES,1999/11/8,New Horizon Press,eng,false,1,10144501,0,0,0,0,1999/11/8,,,0,0,0,0,0,0.00,200,Paperback,,0,0,Aubrey Hill,,,,,,,0,,
10145001,007162533X,"What's Your Body Telling You?: Listening to Your Body's Signals to Stop Anxiety, Erase Self-Doubt and Achieve True Wellness",9780071625333,,,,ES,2009/7/6,McGraw-Hill Education,,true,4,6552411,116,123,35,6,2009/6/1,"What's Your Body Telling You? Listening To Your Body's Signals to Stop Anxiety, Erase Self-Doubt and Achieve True Wellness",,6,11,14,3,1,3.51,240,ebook,,0,0,Steve Sisgold,,,,,,63,2,8,"health,personal-development,psychology,self-help"
10145501,,The Complete Father Brown,,,,,ES,2010/8/1,eBooks@Adelaide,eng,true,119,541803,15717,27597,6784,366,1951/1/1,The Father Brown Omnibus,book,2666,2446,1251,309,112,4.07,,ebook,,1,1,G.K. Chesterton,,,,,,5826,15,1896,"adult,adult-fiction,adventure,amazon,british-literature,christian,christian-fiction,christianity,classic-literature,classics,collections,cozy-mystery,crime,detective,english-literature,faith,fiction,historical,historical-fiction,literature,mystery,mystery-thriller,novels,philosophy,religion,school,short-stories,thriller,unfinished,young-adult"
10146001,0415885671,Engendering Curriculum History,9780415885676,,,,ES,2011/3/29,Routledge,,false,8,10146000,10,21,5,0,2011/1/1,,,3,1,0,1,0,4.20,272,Paperback,,2,0,Petra Hendry,,,,,,3,0,1,
10147001,,Sea of Bath,,B0042JU7NK,,,ES,,,en-GB,true,6,8620018,110,306,82,18,2010/9/12,,book,17,35,22,7,1,3.73,,,,1,0,Bob  Logan,,,,,,13,16,,"childrens,fantasy,fiction,picture-books,school"
10147501,3835306421,Was Ist Schön? Begleitbuch zur Ausstellung,9783835306424,,,,ES,,Wallstein Verlag,ger,false,1,10147501,1,0,0,0,2010/1/1,,book,0,0,0,0,0,0.00,248,Paperback,,0,0,Sigrid Walther,,,"Gisela Staupe,Thomas Macho",,,,0,,
10148001,,Chance in Chains: A Story of Monte Carlo,2940024239605,,,,ES,,,,true,9,22629825,0,0,0,0,2010/3/25,,,0,0,0,0,0,0.00,,,,0,0,Guy Thorne,,,,,,,0,,
10148501,0253111331,"International Change and the Stability of Multiethnic States: Yugoslavia, Lebanon, and Crises of Governance",9780253111333,,,,ES,2005/2/1,Indiana University Press,,true,1,10148501,0,0,0,0,2005/2/1,,,0,0,0,0,0,0.00,321,ebook,,0,0,Badredine Arfi,,,,,,,0,,
10149001,1406581739,The Hunted Woman,9781406581737,,,,ES,2007/12/7,Dodo Press,,false,89,1835953,91,147,40,5,1915/1/1,The Hunted Woman,book,8,15,13,4,0,3.67,272,Paperback,Illustrated Edition,0,0,"Frank B. Hoffman,James Oliver Curwood",,,,,,34,2,6,"adventure,classics,fiction,romance"
10149501,,"The Farthingale Feud (Farthingale, #3)",,,,,ES,1957/1/1,Thomas Nelson,,false,1,10149501,3,0,0,0,1957/1/1,,book,0,0,0,0,0,0.00,211,Hardcover,,0,0,Mary Gervaise,A.H. Watson,,,,,3,0,,
10150501,,Saint Elizabeth Ann Seton,,B0040SXRAI,,,ES,,,,true,3,10150501,4,13,3,0,2010/8/24,,book,2,0,1,0,0,4.33,,,,3,0,"Bob Lord,Penny Lord",,,,,,1,0,,
10151001,,"CIMA Official Learning System Fundamentals of Financial Accounting, Fifth Edition (CIMA Certificate Level 2008)",,B001MS6OPE,,,ES,,,eng,true,2,10151001,0,0,0,0,2008/9/24,"CIMA Official Learning System Fundamentals of Financial Accounting, Fifth Edition (CIMA Certificate Level 2008)",,0,0,0,0,0,0.00,,,,0,0,Henry Lunt,,,,,,,0,,
10151501,0594123003,"The Spark: The 28-Day Breakthrough Plan for Losing Weight, Getting Fit, and Transforming Your Life",9780594123002,,,,ES,,,,false,2,6921303,2446,4922,1337,119,2009/12/29,,book,324,469,383,116,45,3.68,,,,0,0,Chris Downie,,,,,,720,18,144,"cooking,food,health,non-fiction,personal-development,self-help,unfinished"
10153001,1441777520,"Timescape (Dreamhouse Kings, #4)",9781441777522,,,,ES,2011/1/13,Blackstone Publishing,,false,14,5962744,4558,10199,2379,106,2009/7/7,"Timescape: Dreamhouse Kings, Book #4 (Dreamhouse Kings)",book,1167,802,346,54,10,4.29,,Audio CD,,0,0,"Joshua Swanson,Robert Liparulo",,,,,,1584,9,41,"action,adventure,christian,christian-fiction,fantasy,fiction,horror,juvenile,magic,middle-grade,mystery,mystery-thriller,novels,paranormal,science-fiction,suspense,teen,thriller,time-travel,young-adult"
10153501,,"Recitative and Aria: Dogni pieta m ispoglio perfidae, No. 13 from ""Lucio Silla"", Act 2 (Full Score)",2940000611395,,,,ES,,,,true,1,10153501,0,0,0,0,,,,0,0,0,0,0,0.00,,,,0,0,Wolfgang Amadeus Mozart,,,,,,,0,,
10154501,0321727010,Organic Chemistry,9780321727015,,,,ES,2010/5/5,Prentice Hall,,false,60,1062204,809,1130,292,25,1995/1/1,Organic Chemistry,book,116,77,56,31,12,3.87,1440,Unbound,,2,2,Paula Yurkanis Bruice,,,,,,95,3,7,"reference,school,science,textbooks"
10155001,1554077982,Fifty Plants That Changed the Course of History,9781554077984,,,,ES,2011/1/25,Firefly Books,eng,false,13,10155001,2291,1488,405,60,2010/11/1,Fifty Plants that Changed the Course of History,book,101,134,120,37,13,3.67,223,Hardcover,,343,51,Bill Laws,,,,,,1548,11,37,"food,historical,history,nature,non-fiction,reference,science"
10155501,,Le Secret de L'Echafaud,2940012007643,,,,ES,,,,true,9,19476846,3,7,2,0,1888/1/1,,book,0,1,1,0,0,3.50,,,,0,0,Villiers de L'Isle-Adam,,,,,,1,0,,"classics,fiction"
10156001,,Farsa Do Juiz Da Beira,,B003LN1YAS,,,ES,,,por,true,1,10156001,9,14,4,0,2010/5/9,Farsa do Juiz da Beira,book,1,1,1,1,0,3.50,,,,4,0,Gil Vicente,,,,,,2,0,,literature
10157001,4092905149,はみだしインディアンのホントにホントの物語,9784092905146,,,,ES,2010/2/28,小学館,jpn,false,5,693208,342342,830709,202024,22095,2007/9/12,The Absolutely True Diary of a Part-Time Indian,book,83585,74227,31531,8602,4079,4.11,349,Hardcover,,3,1,Sherman Alexie,Ellen Forney,,,Yumiko Sakuma,,111812,736,4318,"american,biography,childrens,classics,comedy,contemporary,cultural,death,family,fiction,funny,high-school,humor,literature,memoir,middle-grade,non-fiction,novels,realistic-fiction,school,sports,teen,young-adult"
10157501,8807104180,La conoscenza e la ricchezza delle nazioni: Una storia dell'indagine economica,9788807104183,,,,ES,,,ita,false,6,115595,848,891,230,24,2006/1/1,Knowledge and the Wealth Of Nations: A Story of Economic Discovery,book,57,107,49,14,3,3.87,,Paperback,,0,0,David Warsh,,,,Pietro Anelli,,513,9,19,"business,economics,education,history,non-fiction,philosophy,science,society,technology"
10158001,517024519X,The Blood of Elves.,9785170245192,,,,ES,2008/1/1,ACT,rus,false,116,6043781,74279,194209,46089,1939,1994/1/1,Krew elfów,book,19714,18120,6874,1156,225,4.21,416,Mass Market Paperback,,354,18,Andrzej Sapkowski,,,,,,15434,223,4497,"action,adult,adventure,epic,epic-fantasy,fantasy,fiction,high-fantasy,magic,novels,romance,science-fiction-fantasy,speculative-fiction,supernatural,war"
10158501,3871444847,Atombau Und Spektrallinien,9783871444845,,,,ES,,,ger,false,4,10158524,1,0,0,0,1929/1/1,,book,0,0,0,0,0,0.00,,,,0,0,Arnold Sommerfeld,,,,,,1,0,,
10159501,094046277X,World's Best Golf Jokes,9780940462779,,,,ES,,,,false,1,10159501,2,4,1,0,2005/7/28,,,0,1,0,0,0,4.00,,,,1,0,"Bill Reilly,Jack Kreismer,Russ Edwards",,,,,,,0,,
10160001,,The Sovereignty of the States,,,,,ES,,The Confederate Reprint Company,eng,false,13,10160001,1,4,1,0,1910/1/1,,book,0,1,0,0,0,4.00,143,Paperback,,1,0,Walter Neale,,,,,,1,0,,
10163001,,"Report of proceedings of the American Mining Congress, Thirteenth annual session, Los Angeles, Cal., Sept. 26-Oct. 1, 1910",2940027515409,,,,ES,,,,true,3,10163001,0,0,0,0,2010/1/28,,,0,0,0,0,0,0.00,,,,0,0,American Mining Congress,,,,,,,0,,
10163501,1848368895,The Rough Guide to Cambodia,9781848368897,,,,ES,2011/8/1,Rough Guides,,false,4,10163501,41,100,24,3,2011/7/18,,,9,10,5,0,0,4.17,360,Paperback,,20,3,Beverley Palmer,,,,,,9,0,3,"reference,travel"
10165001,093841044X,12 Million Black Voices: Photo Essay with Text,9780938410447,,,,ES,1993/1/21,Basic Books,,false,5,305688,959,1222,302,23,1969/2/1,12 Million Black Voices,,116,109,59,11,7,4.05,160,Paperback,,3,1,"Edwin Rosskam,Richard Wright",,,,,,563,10,12,"academic,art,classics,historical-fiction,history,literature,non-fiction,poetry,school,sociology"
10165501,0836206762,Formula Book Two,9780836206760,,,,ES,,,,false,1,10165501,0,0,0,0,1976/9/1,,,0,0,0,0,0,0.00,,,,0,0,Norman Stark,,,,,,,0,,
10166001,,Finland 12 points!: Suomen Euroviisut,9789518511062,,,,ES,2007/1/1,Teos,fin,false,1,10166001,4,7,2,0,2007/1/1,Finland 12 points!: Suomen Euroviisut,book,0,1,1,0,0,3.50,255,Hardcover,,2,0,Asko Murtomäki,,,,,,2,1,,"music,non-fiction"
10166501,,"In His Own Defense (Lawyers in Love, #1)",,B003100U6K,,,ES,2009/11/1,Ellora's Cave,en-US,true,2,6697989,446,470,153,9,2003/1/1,In His Own Defense,book,12,45,55,24,17,3.07,157,,,38,1,Ann Jacobs,,,,,,218,17,6,"contemporary,erotica,romance"
10168001,,"Digest of opinions of the Judge Advocate General of the Army: comprising bulletins, War Department, 1917, Nos. 26, 34, 42, 49, 54, 67, 72, and 75, together with digests of certain other opinions published in Opinions of Judge Advocate General, vol. 1, 19",2940030671277,,,,ES,,,,true,1,10168001,0,0,0,0,,,,0,0,0,0,0,0.00,,,,0,0,United States Army Office of the Judge Advocate General,,,,,,,0,,
10168501,0970133499,Life Skills 101: A Practical Guide to Leaving Home and Living on Your Own,9780970133496,,,,ES,2013/8/3,Stonewood Publications,,false,5,1480500,151,110,29,2,2001/3/1,Life Skills 101: A Pracitcal Guide to Leaving Home and Living on Your Own,,10,7,8,4,0,3.79,183,Paperback,,8,0,Tina Pestalozzi,,,,,,83,3,3,"economics,education,health,non-fiction,self-help,spirituality"
10169501,1905264771,Mandela's Way: Lessons on Life,9781905264773,,,,ES,2010/4/1,Virgin Books,en-GB,false,33,7571082,4190,8117,2004,250,2009/1/1,,book,703,814,391,77,19,4.05,256,Hardcover,,17,1,Richard Stengel,,,,,,435,9,43,"autobiography,biography,biography-memoir,cultural,history,inspirational,leadership,memoir,non-fiction,personal-development,philosophy,politics,relationships,self-help"
10170001,9163068559,Gemini,,,,,ES,,Cell,,false,1,10170001,3,7,2,1,,,book,0,1,1,0,0,3.50,237,,,2,1,"Johan Sjöberg,Stefan Ljungqvist",,,,,,,0,,fantasy
10171001,1589613937,Third Right,9781589613935,,,,ES,,,,false,3,10782420,29,52,13,1,2005/7/28,,book,6,3,2,2,0,4.00,,,,0,0,Henry D. Smith,,,,,,10,1,2,mystery
10172001,1445008254,I Shall Wear Midnight,9781445008257,,,,ES,2010/12/1,ISIS Audio Books,,false,19,7576115,65435,176589,40486,2038,2010/1/1,I Shall Wear Midnight,book,20994,14007,4759,588,138,4.36,,Audiobook,,0,0,Terry Pratchett,,,,,,17105,146,528,"action,adult,adventure,childrens,comedy,fantasy,fiction,funny,high-fantasy,humor,juvenile,magic,novels,romance,science,science-fiction,science-fiction-fantasy,speculative-fiction,supernatural,teen,witches,young-adult"
10172501,,SOULS OF TERROR - A New Age Thriller,2940011153020,,,,ES,,,,true,4,21363512,1,1,1,0,2010/9/28,,,0,0,0,0,1,1.00,,,,0,0,Anthony P. Norse,,,,,,,0,,
10173001,1934559849,Nursing Practice in Multiple Sclerosis,9781934559840,,,,ES,,,,true,9,10173001,8,10,2,0,2006/1/1,,,2,0,0,0,0,5.00,,,,0,0,"Colleen Harris,June Halper,Kathleen Costello",,,,,,2,0,1,
10173501,0547581351,The Inquisitor’s Apprentice (Inquisitor's Apprentice #1),9780547581354,,,,ES,2011/10/4,Harcourt Children’s Books,en-US,false,6,10173501,3357,3415,958,205,2011/1/1,The Inquisitor’s Apprentice,book,156,391,279,102,30,3.56,348,Hardcover,,845,187,Chris Moriarty,Mark Edward Geyer,,,,,2122,20,37,"adventure,childrens,crime,fantasy,fiction,historical,historical-fiction,juvenile,magic,middle-grade,mystery,paranormal,science-fiction,science-fiction-fantasy,speculative-fiction,steampunk,supernatural,teen,unfinished,urban-fantasy,witches,young-adult"
10174001,0851794076,The Lights of Cobb and Co.: The Story of the Frontier Coaches 1854-1924,9780851794075,,,,ES,1975/1/1,Seal Books,eng,false,1,10174001,2,3,1,1,1975/1/1,,book,0,0,1,0,0,3.00,,Paperback,,1,1,K.A. Austin,,,,,,,0,,
10174501,5425040717,"Два квадрата (Числа и знаки, #1)",9785425040718,,,,ES,,Азбука-классика,rus,true,3,6563833,21,55,16,0,2000/1/1,Два квадрата,book,4,2,8,1,1,3.44,,,,0,0,Юрий Бурносов,,,,,,4,0,,"crime,fiction"
10175001,,Il Medioevo - 1. Alto Medioevo. Storia,,,,,ES,2009/1/1,Gruppo Editoriale L'Espresso,ita,false,1,10175001,10,8,2,0,2009/1/1,,book,0,2,0,0,0,4.00,708,Hardcover,La Repubblica e L'Espresso presentano Il Medioevo,2,0,Various,,,,,,5,0,,
10177001,0549565051,An examination of factors impacting the quality of music education in the urban environment.,9780549565055,,,,ES,,,,false,1,10177001,0,0,0,0,,,,0,0,0,0,0,0.00,,,,0,0,Kiera Elizabeth Johnson,,,,,,,0,,
10177501,185782086X,Tom Cruise: Unauthorised,9781857820867,,,,ES,1996/3/1,Blake Publishing,,false,3,2390206,13,18,5,0,1996/1/1,Tom Cruise: Unauthorized,,1,1,3,0,0,3.60,,Hardcover,,0,0,Wensley Clarkson,,,,,,3,0,,
10178501,,The Complete Fairy Tales,,B000FC22W2,,,ES,,,eng,true,86,163716,23853,44367,10225,262,1891/1/1,The Happy Prince and Other Tales; A House of Pomegranates,book,5464,3150,1305,226,80,4.34,,,,23,0,Oscar Wilde,,,,,,12114,34,211,"anthologies,british-literature,childrens,classic-literature,classics,english-literature,fairy-tales,fantasy,fiction,horror,juvenile,literature,magic,novels,short-stories,victorian,young-adult"
10179001,1602836450,Alexandria (Marcus Didius Falco Series #19),9781602836457,,,,ES,,,,false,23,5600341,3559,8731,2198,195,2009/2/5,Alexandria,book,664,938,486,91,19,3.97,,,,5,1,"Christian Rodska,Lindsey Davis",,,,,,837,4,20,"adult-fiction,adventure,crime,cultural,detective,fiction,funny,historical,historical-fiction,history,humor,murder-mystery,mystery,novels"
10179501,0935278001,Mother Pletsch's Painless Sewing with Pretty Pati's Perfect Pattern Primer,9780935278002,,,,ES,1979/12/1,Palmer/Pletsch Publishing,,false,4,509439,72,88,21,2,1979/1/28,Mother Pletsch's Painless Sewing: With Pretty Pati's Perfect Pattern Primer and Ample Annie's Awful but Adequate Artwork,book,11,6,2,1,1,4.19,135,Paperback,,0,0,"Pati Palmer,Susan Pletsch",,,,,,28,1,,"art,reference"
10180001,1556357672,"A Handy Concordance of the Septuagint: Giving Various Readings from Codices Vaticanus, Alexandrinus, Sinaiticus, and Ephraemi",9781556357671,,,,ES,2008/1/1,Wipf & Stock Publishers,,false,1,10180001,0,0,0,0,2008/1/28,,,0,0,0,0,0,0.00,284,Paperback,,0,0,,,,,,,,0,,
10180501,0061745669,How to Treat a Lady,9780061745669,,,,ES,2009/10/13,HarperCollins e-books,,true,13,885145,2101,4467,1132,40,2003/1/1,How to Treat a Lady (St. John Brothers),book,358,431,277,56,10,3.95,384,ebook,,3,0,Karen Hawkins,,,,,,603,18,8,"adult,crime,fiction,historical,historical-fiction,love,mystery,regency,romance"
10181001,0516231448,Jazz Dancing,9780516231440,,,,ES,2001/3/1,Children's Press(CT),,false,2,9335701,2,4,1,0,2001/3/1,,book,0,1,0,0,0,4.00,24,Hardcover,,0,0,Mark   Thomas,,,,,,,1,,
10181501,0594040043,Dune Road,9780594040040,,,,ES,,,,false,36,6054190,20588,43250,12602,883,2009/6/16,,book,2207,3729,4502,1629,535,3.43,,,,0,0,Jane Green,,,,,,411,99,150,"adult,adult-fiction,chick-lit,contemporary,fiction,novels,relationships,romance"
10182001,1616134089,Mutts,9781616134082,,,,ES,2010/9/1,Checkerboard Books,,false,3,10182001,3,10,2,0,2010/9/1,,,2,0,0,0,0,5.00,24,Hardcover,,2,0,Heidi Mathea,,,,,,,0,,
10182501,,"Hadrian, the builder of the Roman wall: a paper read at the monthly meeting of the Society of antiquaries, Newcastle-upon-Tyne, 4. Aug. 1852, in reply to The Roman wall: An attempt to substantiate the claims of Severus to the authorship of the Roman wall",2940020086579,,,,ES,,,,true,1,10182501,0,0,0,0,,,,0,0,0,0,0,0.00,,,,0,0,John Collingwood Bruce,,,,,,,0,,
10183001,,Australia Shepherd Secrets: How to Raise Happy and Healthy Australia Shepherds,2940011984648,,,,ES,,,,true,1,10183001,2,0,0,0,2011/1/1,,,0,0,0,0,0,0.00,,,,0,0,Stanley Richardson,,,,,,2,0,,
10184001,5992207449,Приключения Шерлока Холмса; Записки о Шерлоке Холмсе,9785992207446,,,,ES,2010/1/1,Альфа-книга,rus,false,2,10184001,21,58,13,0,1992/1/1,The Adventures of Sherlock Holmes; The Memoirs of Sherlock Holmes,book,9,2,1,1,0,4.46,608,Hardcover,,9,0,Arthur Conan Doyle,,,,,,3,0,1,
10184501,0879238054,A warning to the curious: The ghost stories of M.R. James,9780879238056,,,,ES,,,,false,16,540246,520,762,200,19,1987/1/1,A Warning to the Curious: The Ghost Stories of M.R. James,book,63,60,56,18,3,3.81,,,,4,0,M.R. James,,,,,,264,11,5,"adult,british-literature,classics,fantasy,fiction,ghosts,gothic,horror,literature,short-stories,supernatural"
10186001,3907509617,Georg Baselitz,9783907509616,,,,ES,1987/3/2,,,false,4,1733235,12,17,4,0,,Georg Baselitz,,2,1,1,0,0,4.25,300,Paperback,,0,0,Georg Baselitz,,,,,,7,0,,art
10186501,053845377X,Macroeconomics: A Contemporary Introduction,9780538453776,,,,ES,2011/1/1,South Western Educational Publishing,,false,30,1770288,55,81,22,0,1988/6/1,Microeconomics (with Aplia ITS Card),book,4,11,4,2,1,3.68,476,Paperback,,2,0,William A. McEachern,,,,,,19,0,2,"business,economics,non-fiction,textbooks"
10187001,8811367549,Mandragola,9788811367543,,,,ES,2008/1/1,,ita,false,81,850030,1080,8972,2529,105,1524/1/1,La Mandragola,book,499,814,850,305,61,3.55,,Paperback,,31,1,Niccolò Machiavelli,,,,,,1266,11,23,"academic,classic-literature,classics,college,comedy,drama,fiction,grad-school,history,humor,literature,novels,philosophy,plays,poetry,politics,school,textbooks,theatre"
10187501,078655505X,"By Order Of The President (Presidential Agent, #1)",9780786555055,,,,ES,2004/12/1,Penguin Audio,,false,28,644449,12408,31146,7617,237,2004/12/29,By Order of the President,book,3064,2754,1352,307,140,4.09,,Audio,,3,1,W.E.B. Griffin,,,,,Dennis Boutsikaris,3383,13,187,"action,adventure,american,fiction,historical-fiction,mystery,mystery-thriller,novels,politics,suspense,thriller,war"
10188001,8875201005,Kammerspiel,9788875201005,,,,ES,2008/5/28,Alet,ita,false,1,10188001,15,23,6,1,2008/5/28,Kammerspiel,book,2,2,1,1,0,3.83,280,Paperback,Perieli,6,1,Paolo Colagrande,,,,,,3,0,1,
10188501,0395276810,Broderick,9780395276815,,,,ES,1969/9/1,Houghton Mifflin,,false,4,1550960,36,54,15,3,1969/9/1,Broderick,book,6,2,4,1,2,3.60,,Hardcover,,1,0,"Edward Ormondroyd,John M. Larrecq",,,,,,10,2,,"fiction,picture-books"
10189001,1158081928,"Roads in Kansas: Historic Trails and Roads in Kansas, Interstate Highways in Kansas, Kansas Road Stubs, Road Accident Deaths in Kansas",9781158081929,,,,ES,2011/9/1,"Books LLC, Wiki Series",,false,1,10189001,0,0,0,0,2011/9/1,,,0,0,0,0,0,0.00,,Paperback,,0,0,Source Wikipedia,,,,,,,0,,
10189501,0398079153,Personality Assessment in Police Psychology: A 21st Century Perspective,9780398079154,,,,ES,2010/7/19,Charles C. Thomas Publisher,,false,3,10189501,7,9,2,0,2010/1/1,,,1,1,0,0,0,4.50,384,Paperback,,2,0,,,Peter A. Weiss,,,,4,0,,
10190001,1741109663,Shoes Stick Notes,9781741109665,,,,ES,2010/5/10,New Holland Publishing Australia Pty Ltd,,false,1,10190001,0,0,0,0,,,,0,0,0,0,0,0.00,,,,0,0,,,,,,,,0,,
10190501,,King Arthur and His Knights of the Round Table (Puffin Classics),,B002RI9XLK,,,ES,,,en-US,true,40,93273,10264,16803,4287,259,1953/1/1,King Arthur and His Knights of the Round Table,book,1415,1490,1077,232,73,3.92,,,,77,1,Roger Lancelyn Green,,,,,,4451,55,254,"adventure,childrens,classic-literature,classics,english-literature,fairy-tales,fantasy,fiction,historical,historical-fiction,history,juvenile,literature,magic,medieval,middle-grade,mythology,novels,retellings,school,short-stories,young-adult"
10191501,8838433526,Il signore di Troia,9788838433528,,,,ES,2007/1/1,Piemme Pocket,ita,false,47,257149,22096,48916,11345,498,2005/1/1,Lord of the Silver Bow,book,5712,3876,1419,257,81,4.31,479,Paperback,,32,4,David Gemmell,,,,Luciana Crepax,,8798,54,214,"action,adult,adult-fiction,adventure,classics,epic,epic-fantasy,fantasy,fiction,historical,historical-fiction,history,mythology,novels,retellings,romance,speculative-fiction,war,young-adult"
10192001,1616814659,The New Woman: A Staggerford Novel,9781616814656,,,,ES,,,,false,10,141544,477,1066,295,52,2005/1/1,The New Woman: A Staggerford Novel,book,52,112,102,23,6,3.61,,,,0,0,Jon Hassler,,,,,,131,7,6,"adult,classics,contemporary,fiction,literature"
10192501,1118011341,"The Ultimate Money Guide for Bubbles, Busts, Recession and Depression",9781118011348,,,,ES,2011/2/8,Wiley,,false,7,10192501,33,62,19,2,2011/1/19,,,2,5,9,2,1,3.26,288,Hardcover,,15,2,Martin D. Weiss,,,,,,9,0,2,business
10193501,,Unknown Book 10193501,,,,,ES,,,,false,1,10193501,2,2,1,0,,,,0,0,0,1,0,2.00,,,,1,0,Unknown,,,,,,,0,,
10195001,1157701310,"FC Seoul: FC Seoul Managers, FC Seoul Players, FC Seoul Seasons, FC Seoul Transfers, 2010 FC Seoul Season, 2011 FC Seoul Season",9781157701316,,,,ES,2011/7/6,"Books LLC, Wiki Series",,false,1,10195001,0,0,0,0,,,,0,0,0,0,0,0.00,,Paperback,,0,0,Source Wikipedia,,,,,,,0,,
10197501,9500822776,Volver A Soñar (Spanish Edition),9789500822770,,,,ES,,,spa,false,6,1520302,76,133,38,2,1998/3/2,Birthday Girls,book,6,13,14,4,1,3.50,355,,,2,0,Jean Stone,,,,,,16,4,3,romance
10198001,,Mansfield Park,,B003CT390E,,,ES,2010/3/17,Editorial Medí,spa,true,1876,45032,431205,986470,256110,8222,1814/1/1,Mansfield Park,book,75414,93337,66135,16423,4801,3.85,563,,,8,0,Jane Austen,,,,,,134812,955,6513,"adult,adult-fiction,british-literature,chick-lit,classic-literature,classics,drama,english-literature,fiction,historical,historical-fiction,literary-fiction,literature,novels,regency,romance,school,victorian"
10199001,0333356713,Stands To Reason: A Guide To Argument Assessment,9780333356715,,,,ES,,,,false,2,10199001,2,0,0,0,1980/1/1,Stands to Reason: A Guide to Argument Assessment,,0,0,0,0,0,0.00,,,,0,0,Gillian M. Hibbins,,,,,,1,0,,
10200001,0217673090,The Bacchae of Euripides,9780217673099,,,,ES,2012/8/9,Rarebooksclub.com,eng,false,286,380609,21637,47009,12184,506,-405/1/1,Βάκχαι,book,3698,4305,3159,800,222,3.86,,Paperback,,0,0,Euripides,,,,,,6683,88,154,"adult,canon,classic-literature,classics,college,drama,fantasy,fiction,historical,historical-fiction,history,horror,literature,mythology,non-fiction,philosophy,plays,poetry,religion,school,theatre,tragedy"
10200501,,"And It Is Beautiful (Pleasure Houses of Nyph, #1)",9781615816484,,,,ES,2010/1/1,"Dreamspinner Press, LLC",eng,true,1,10200501,17,24,7,2,2010/1/1,,book,1,3,2,0,1,3.43,42,ebook,,7,2,K.R. Foster,,,,,,4,1,,"fantasy,speculative-fiction"
10201501,0982661061,Everything Erotic Volume IV,9780982661062,,,,ES,2011/1/1,RH Publishing,,true,2,10201501,32,38,8,0,2011/1/6,,book,7,0,1,0,0,4.75,,ebook,,7,0,"Boone Brux,Greta Goddard,M.K. Elliott,Nickie Asher,Scarlett Jameson,Whitley Gray",,,,,,21,0,,
10203001,1453503706,RE-ELECT NO ONE,9781453503706,,,,ES,,,,true,2,9380379,2,0,0,0,2010/5/18,,,0,0,0,0,0,0.00,,,,0,0,Carlton Laird,,,,,,1,0,,
10204001,0981229727,Risk of Diabetes - One in Two Are at Risk of Diabetes,9780981229720,,,,ES,2009/6/27,Natural Medicine Centre - Publishing,,false,1,10204001,0,0,0,0,2009/6/27,,,0,0,0,0,0,0.00,41,Paperback,,0,0,Rivkah Roth,,,,,,,0,,
10205001,,The Dead Path,,,,,ES,2010/5/10,Bolinda Publishing Pty Ltd,,false,24,8362315,7271,8310,2229,325,2009/1/1,The Dead Path,book,599,748,622,197,63,3.73,,Audiobook,,5,1,Stephen M. Irwin,,,,,Michael Carman,4725,38,54,"adult-fiction,contemporary,dark,fantasy,fiction,ghosts,horror,magic,magical-realism,mystery,mystery-thriller,paranormal,speculative-fiction,supernatural,suspense,thriller,urban-fantasy,witches"
10205501,1452084440,"Bad Blood: Lyndon B. Johnson, Robert F. Kennedy, and the Tumultuous 1960s",9781452084442,,,,ES,2010/12/1,Authorhouse,,true,6,10235803,35,60,16,0,2010/11/24,,,4,5,6,1,0,3.75,,ebook,,0,0,Jeffrey K. Smith,,,,,,11,1,3,non-fiction
10207501,0077073142,Incredible Bosses: The Challenge of Managing People for Incredible Results,9780077073145,,,,ES,1991/9/1,McGraw-Hill Companies,,false,2,10207501,5,3,1,0,1991/9/15,Incredible Bosses: The Challenge of Managing People for Incredible Results,,0,0,1,0,0,3.00,244,Hardcover,,0,0,David Freemantle,,,,,,3,1,,
10208001,0061736902,"Weddings From Hell (Includes: Night Huntress #2.5; Brotherhood of Blood, #3.5; Nicki Styx, #2.5)",9780061736902,,,,ES,2009/3/17,HarperCollins e-books,,true,10,2168861,7644,13786,3533,156,2008/5/27,Weddings from Hell,book,1139,1188,979,175,52,3.90,384,ebook,,2,0,"Jeaniene Frost,Kathryn Smith,Maggie Shayne,Terri Garey",,,,,,3378,28,30,"adult,adult-fiction,anthologies,contemporary,fantasy,fiction,funny,ghosts,magic,mystery,novella,paranormal,romance,short-stories,supernatural,suspense,urban-fantasy,vampires,witches"
10208501,,The Knight's Vow,,B0015V9DMY,,,ES,,,eng,true,12,3969252,51,74,22,0,2012/7/1,The Knight's Vow,book,3,8,7,2,2,3.36,,,,3,0,Catherine March,,,,,,17,4,,"fiction,harlequin,historical,historical-fiction,medieval,relationships,romance"
10209501,,Daemon,2940000836521,,,,ES,,,,true,1,10209501,5,5,1,0,2009/8/6,,book,1,0,0,0,0,5.00,,,,1,0,M. King,,,,,,1,0,,
10210501,1571746455,The Myth of the Great Ending: Why We've Been Longing for the End of Days Since the Beginning of Time,9781571746450,,,,ES,2011/3/1,Hampton Roads Publishing,,false,3,10210501,46,47,12,4,2011/3/1,,book,6,2,1,3,0,3.92,276,Paperback,,11,4,Joseph M. Felser,,,,,,27,0,5,non-fiction
10211001,1156300037,"Singular Integrals: Hilbert Transform, Singular Integral, Riesz Transform, Newtonian Potential, Riesz Potential, Bessel Potential",9781156300039,,,,ES,2010/9/15,Books LLC,,false,1,10211001,0,0,0,0,2010/9/15,,,0,0,0,0,0,0.00,42,Paperback,,0,0,,,,Books LLC,,,,0,,
10211501,0415566460,Modern Brazilian Portuguese Grammar Workbook,9780415566469,,,,ES,2010/11/30,Routledge,,false,2,9414820,114,154,36,4,2010/8/24,,,18,13,3,1,1,4.28,188,Paperback,,5,0,John Whitlam,,,,,,44,0,24,language
10212501,8424115090,Diccionario Practico de Locuciones Y Frases Hechas,9788424115098,,,,ES,,,,false,1,10212501,2,4,1,1,1999/1/28,,,0,1,0,0,0,4.00,,,,1,1,Everest,,,,,,,0,,reference
10213501,2265015024,"Vas-y, Béru !",9782265015029,,,,ES,,,fre,false,4,1866264,40,98,25,1,1965/1/1,"Vas-y, Béru !",book,9,7,7,2,0,3.92,,,,0,0,"Frédéric Dard,San-Antonio",,,,,,7,0,,
10214001,8408071793,La fantástica niña pequeña y la cigüeña pedigüeña,9788408071792,,,,ES,,,spa,false,1,10214001,5,13,3,1,,La fantástica niña pequeña y la cigüeña pedigüeña,book,2,0,1,0,0,4.33,,,,3,1,Lucía Etxebarria,,,,,,2,0,,
10216501,0715319612,Making Money From Photography,9780715319611,,,,ES,,,eng,false,7,2585655,19,19,7,1,2006/1/1,Making Money from Photography in Every Conceivable Way,,1,0,3,2,1,2.71,,,,1,0,Steve Bavister,,,,,,7,0,,art
10217001,1158563485,"Amtrak Stations in Alameda County, California: Oakland Coliseum Amtrak-Bart Station, Fremont-Centerville, Emeryville, Hayward",9781158563487,,,,ES,2010/10/14,Books LLC,,false,1,10217001,0,0,0,0,2010/10/14,,,0,0,0,0,0,0.00,26,Paperback,,0,0,,,,Books LLC,,,,0,,
10217501,185566187X,Desintegracion y Justicia En El Cine Argentino Contemporaneodesintegracion y Justicia En El Cine Argentino Contemporaneodesintegracion y Justicia En El Cine Argentino Contemporaneo,9781855661875,,,,ES,2009/11/15,Tamesis Books,,false,1,10217501,0,0,0,0,2009/10/15,,,0,0,0,0,0,0.00,194,Hardcover,,0,0,Gabriela Copertari,,,,,,,0,,
10218501,1452078572,A Generation 'Bloodied But Unbowed': We Will Not Acquiesce Ignobly!,9781452078571,,,,ES,2010/11/24,Authorhouse,,false,3,10218501,0,0,0,0,2010/11/24,,,0,0,0,0,0,0.00,244,Paperback,,0,0,Owen Collins,,,,,,,0,,
10219001,1433941732,Moments in History: Why Did the Holocaust Happen?,9781433941733,,,,ES,2010/8/8,Gareth Stevens Publishing,,false,2,9442825,17,13,3,2,2010/1/8,Moments in History: Why Did the Holocaust Happen?,book,1,2,0,0,0,4.33,48,Paperback,,0,0,Sean Sheehan,,,,,,11,0,,
10219501,8870787958,Il Sé sinaptico. Come il nostro cervello ci fa diventare quelli che siamo,9788870787955,,,,ES,,,ita,false,16,151132,12020,17862,4506,68,2002/1/1,Synaptic Self: How Our Brains Become Who We Are,book,1777,1349,953,295,132,3.96,,Paperback,,8,1,Joseph E. LeDoux,,,,"A. Ranieri,M. Longoni",,7321,35,164,"academic,education,mental-health,music,non-fiction,philosophy,psychology,reference,science"
10220001,,Flight,,,,,ES,,Fanfiction.net,,true,1,10220001,1,0,0,0,,,book,0,0,0,0,0,0.00,,ebook,,0,0,M.Rig,,,,,,,0,,
10220501,9861203265,Too Big to Fail: The Inside Story of How Wall Street and Washington Fought to Save the Financial System--And Themselves,9789861203263,,,,ES,2010/9/1,Jing Ji Xin Chao She/Tsai Fong Books,eng,false,30,6687247,65975,130415,31704,1261,2008/1/1,Too Big to Fail: The Inside Story of How Wall Street and Washington Fought to Save the Financial System from Crisis - and Lost,book,12397,12412,5390,1107,398,4.11,656,Paperback,,1,0,Andrew Ross Sorkin,,,,,,31194,58,1388,"american,american-history,business,economics,fiction,historical,history,non-fiction,politics,unfinished"
10222001,,"Manual for Noncommissioned Officers and Privates of Infantry of the Army of the United States, 1917",2940011996832,,,,ES,,,,true,4,6054016,8,10,2,0,2004/8/1,"Manual for Noncommissioned Officers and Privates of Infantry of the Army of the United States, 1917To be used by Engineer companies (dismounted) and Coast ... for Infantry instruction and training",,2,0,0,0,0,5.00,,,,0,0,U.S. Department of War,,,,,,5,1,,
10223001,1608444449,A Common Place for All: A History of the Passaic Public Library,9781608444441,,,,ES,2010/10/4,Dog Ear Publishing,,false,1,10223001,0,0,0,0,2010/10/4,,,0,0,0,0,0,0.00,200,Paperback,,0,0,James D. Bordone,,,,,,,0,,
10224001,,The Focused Puppy,,,,,ES,2010/1/1,Clean Run Productions LLC,eng,false,2,10224001,78,137,32,3,,,book,16,10,5,1,0,4.28,208,Paperback,,20,2,"Deborah Jones,Judy Keller",,,,,,26,4,3,non-fiction
10225501,0307777847,The Children's Jewish Holiday Kitchen: 70 Ways to Have Fun with Your Kids and Make Your Family's Celebrations Special,9780307777843,,,,ES,2011/1/12,Schocken,,true,6,1681784,78,160,40,7,1987/1/13,The Children's Jewish Holiday Kitchen,,14,15,9,1,1,4.00,176,ebook,,0,0,Joan Nathan,,,,,,12,-1,4,"cookbooks,cooking,food,non-fiction,religion"
10226501,,The Mystery of Cloomber  ,,B0028AEP2Y,,,ES,,,eng,true,163,76122,969,1592,445,52,1888/1/1,The Mystery of Cloomber,book,90,147,152,42,14,3.58,,,,0,0,Arthur Conan Doyle,,,,,,392,9,31,"classics,crime,fantasy,fiction,gothic,historical-fiction,horror,mystery,mystery-thriller,novels,paranormal,short-stories,thriller,victorian"
10227501,,Arctic Explorations Vol I The Second Brinnell Expedition In Search Of Sir John Franklin 1853 54 55,2940023980232,,,,ES,,,,true,12,25321443,0,0,0,0,2006/3/31,,book,0,0,0,0,0,0.00,,,,0,0,Elisha Kent Kane,,,,,,,0,,
10228001,1845592980,Special Deception,9781845592981,,,,ES,2006/5/1,Soundings,,false,7,10227998,209,612,153,2,1989/1/1,,book,61,47,32,10,3,4.00,,Audio CD,,0,0,Alexander Fullerton,,,,,,11,0,29,thriller
10229001,9510306851,"Enkelit ja demonit (Robert Langdon, #1)",9789510306857,,,,ES,2005/1/1,WSOY,fin,false,361,960,2951312,9145477,2356477,27032,2000/5/1,Angels & Demons,book,797602,809741,505625,158119,85390,3.88,518,Hardcover,,218,10,Dan Brown,,,,Pirkko Biström,,465472,195,11607,"action,adult,adult-fiction,adventure,american,classics,contemporary,crime,detective,drama,fantasy,fiction,historical,historical-fiction,history,literature,movies,murder-mystery,mystery,mystery-thriller,novels,religion,romance,science-fiction,suspense,thriller"
10230001,,O pomorskoj sili Hrvata za dobe narodnih vladara: S uvodom o rimskim liburnama,2940038543750,,,,ES,,,,true,1,10230001,0,0,0,0,,,,0,0,0,0,0,0.00,,,,0,0,Bare Poparic,,,,,,,0,,
10230501,1852302321,The Divine Plotism,9781852302320,,,,ES,1991/8/5,Element Books,eng,false,2,10230501,9,9,3,0,1986/6/26,,,1,0,1,0,1,3.00,288,Paperback,,3,0,A.T. Mann,,,,,,5,0,1,
10231501,1406328030,The Sky Is Everywhere,9781406328035,,,,ES,2011/6/2,Walker,eng,false,74,6604794,213666,328181,81664,8733,2010/3/9,The Sky Is Everywhere,book,32467,26896,15651,4659,1991,4.02,320,Paperback,,548,139,Jandy Nelson,,,,,,121331,1029,1697,"chick-lit,contemporary,death,drama,family,fiction,high-school,love,mental-health,music,novels,poetry,realistic-fiction,romance,teen,young-adult"
10233501,1935661833,Bridge to Happiness,9781935661832,,,,ES,,,,true,6,10177235,1560,1857,520,57,2008/11/3,,book,107,174,169,49,21,3.57,,,,5,1,Jill Barnett,,,,,,801,18,57,"amazon,chick-lit,contemporary,family,fiction,romance"
10234001,4062813912,チベットの生と死の書 [Chibetto no sei to shi no sho],9784062813914,,,,ES,,,jpn,false,76,40383078,58390,92518,21946,592,1992/1/1,The Tibetan Book of Living and Dying,book,10586,6892,3385,782,301,4.22,,,,0,0,Sogyal Rinpoche,,,,,,19153,60,1509,"classics,death,health,inspirational,non-fiction,personal-development,philosophy,psychology,reference,religion,self-help,spirituality,theology,unfinished"
10235001,8842910406,Leslie Blount il Messaggero,9788842910404,,,,ES,1998/4/1,Nord,ita,false,8,2272097,128,145,45,8,1973/1/1,The Men Inside,book,4,16,13,10,2,3.22,,Brossura,Cosmo Argento #288,1,0,Barry N. Malzberg,,,,Roberta Rambelli,,36,6,,"fantasy,fiction,science,science-fiction"
10236501,,"The Name of the Wind (The Kingkiller Chronicle, #1)",,,,,ES,2007/3/27,DAW Books,eng,false,142,186074,946929,2643519,581406,35402,2007/3/27,The Name of the Wind,book,402523,121894,37381,11577,8031,4.55,662,Hardcover,First edition,162,44,Patrick Rothfuss,,,,,,384141,2377,25618,"adult,adult-fiction,adventure,epic,epic-fantasy,fantasy,fiction,high-fantasy,magic,novels,romance,science-fiction,science-fiction-fantasy,unfinished,young-adult"
10239001,0831763833,Wild Flowers Of North America,9780831763831,,,,ES,,,eng,false,2,3704804,12,17,5,0,,Wild Flowers of North America,book,1,1,2,1,0,3.40,,,,0,0,"Pamela Forey,Pamela Forney",,,,,,4,0,,"nature,non-fiction,reference"
10240501,0199727945,"Slavery in the Cities: The South, 1820-1860",9780199727940,,,,ES,,,,true,3,2871168,57,89,23,2,1967/1/1,Slavery in the Cities: The South 1820-1860 (Galaxy Books),,4,12,7,0,0,3.87,,,,0,0,Richard C. Wade,,,,,,26,2,,"grad-school,history,non-fiction"
10241001,1616689641,"Superparamagnetic Iron Oxide Nanoparticles: Synthesis, Surface Engineering, Cytotoxicity And Biomedical Applications",9781616689643,,,,ES,2011/2/16,Nova Science Publishers,eng,false,1,10241001,2,0,0,0,2011/5/1,,,0,0,0,0,0,0.00,225,Hardcover,,0,0,"Abbas Milani,Ali S. Arbab,Pirter Stroeve",,Morteza Mahmoudi,,,,2,0,,
10244001,8817872768,Intelligenza visiva. Il sesto senso che abbiamo dimenticato,9788817872768,,,,ES,2003/1/1,Rizzoli,ita,false,6,2498456,42,46,14,0,2003/2/3,The Mind's Eye,,0,6,6,2,0,3.29,320,Hardcover,Saggi,3,0,"Ian H. Robertson,Stefano Galli",,,,,,21,0,,non-fiction
10244501,1159499446,"Huit Immortels: Lu Dongbin, Zhang Guolao, Zhongli Quan, Liu Hai, Han Xiangzi, Tieguai Li, He Xiangu, LAN Caihe, Cao Guojiu",9781159499440,,,,ES,2010/7/29,Books LLC,,false,1,10244501,0,0,0,0,2010/7/28,,,0,0,0,0,0,0.00,42,Paperback,,0,0,,,,Livres Groupe,,,,0,,
10245501,1848822022,Complications in Knee and Shoulder Surgery: Management and Treatment Options for the Sports Medicine Orthopedist,9781848822023,,,,ES,2009/8/1,Springer,,false,3,10245501,0,0,0,0,2009/8/1,,,0,0,0,0,0,0.00,280,Hardcover,,0,0,"Robert J. Meislin,Robert J. Meislin",,,,,,,0,,
10247001,030752969X,Half and Half,9780307529695,,,,ES,2008/12/18,Yearling,,true,8,496179,486,849,252,41,2003/1/1,Half and Half,,31,89,83,40,9,3.37,144,ebook,,0,0,Lensey Namioka,,,,,,158,11,8,"childrens,contemporary,cultural,family,fiction,middle-grade,realistic-fiction"
10247501,9040090262,Het Jaren 50 Boek,9789040090264,,,,ES,,Uitgeverij Waanders,nl,false,1,10247501,9,6,2,0,,,book,0,0,2,0,0,3.00,,,,2,0,"Ch.C.M. de Mooij,Charles de Mooij",,,"Erik Somers,René Kok",,,2,0,,
10248001,,عشق و لجن,,,,,ES,,,per,true,1,10248001,79,111,34,5,,,book,6,8,11,7,2,3.26,83,ebook,,34,5,امین منصوری,,,,,,30,0,2,
10249501,091119892X,The Current in Criticism: Essays on the Present and Future of Literary Theory,9780911198928,,,,ES,1987/9/1,Purdue University Press,eng,false,1,10249501,1,4,1,0,1987/9/1,,,0,1,0,0,0,4.00,371,Paperback,,1,0,"LOKKE,Virgil Lokke",,,"Clayton Koelb,Clayton Koelb,Virgil L. Lokke",,,,0,,"art,cultural,essays"
10250001,0151930961,After Moondog,9780151930968,,,,ES,1992/7/1,Harcourt Brace Jovanovich,,false,2,632240,62,69,25,2,1992/7/1,After Moondog,book,0,6,10,6,3,2.76,323,Hardcover,,0,0,Jane Shapiro,,,,,,25,0,1,"adult-fiction,fiction"
10250501,1156788218,"Patsy Cline Albums: Patsy Cline Discography, The Patsy Cline Story, Patsy Cline's Greatest Hits, Remembering Patsy Cline & Jim Reeves",9781156788219,,,,ES,,,eng,false,1,10250501,4,0,0,0,,,,0,0,0,0,0,0.00,,,,0,0,Books Group,,,,,,4,0,,
10252001,1606831208,Discover the Keys to Staying Full of God,9781606831205,,,,ES,,,,true,4,4452251,316,467,101,4,2008/4/15,Discover the Keys to Staying Full of God,book,73,20,7,0,1,4.62,,,,0,0,Andrew Wommack,,,,,,191,1,18,"christian,christianity"
10252501,0943688051,An Entrance to the Tree of Life of Rabbi Isaac Luria,9780943688053,,,,ES,1977/12/1,Kabbalah Publishing,eng,false,1,10252501,6,9,2,0,1977/12/1,,book,1,1,0,0,0,4.50,,Hardcover,,2,0,Philip S. Berg,,,,,,1,0,,spirituality
10253501,0549792074,The Abbott ruling in New Jersey: Did anyone ask the teachers?,9780549792079,,,,ES,,,,false,1,10253501,0,0,0,0,2011/9/3,,,0,0,0,0,0,0.00,,,,0,0,Timber Dove Washington,,,,,,,0,,
10254001,0892655550,Teaching Students Not Lessons,9780892655557,,,,ES,2009/7/1,Randall House Publications,eng,false,3,10254001,6,4,1,0,2009/7/1,,,0,1,0,0,0,4.00,76,Paperback,,1,0,Jonathan N. Thigpen,,,,,,5,0,,
10254501,9264075585,Jobs for Youth/Des Emplois Pour Les Jeunes Jobs for Youth/Des Emplois Pour Les Jeunes: Poland 2009,9789264075580,,,,ES,2009/11/23,Organization for Economic Cooperation & Devel,,false,1,10254501,0,0,0,0,2009/11/28,,,0,0,0,0,0,0.00,126,Paperback,,0,0,Organisation for Economic Co-operation and Development,,,,,,,0,,
10255001,0802480225,The Missionary Call: Find Your Place in God's Plan for the World,9780802480224,,,,ES,2008/7/1,Moody Publishers,,true,2,19228542,54,106,24,0,2008/7/1,,,17,2,4,0,1,4.42,256,ebook,,1,0,Michael Sills,,,,,,13,1,6,"christian,non-fiction,theology"
10256001,1452006555,The Angel Chronicles: Book One: Angel in the Darkness,9781452006550,,,,ES,2010/4/21,Authorhouse,,false,5,10255999,0,0,0,0,2010/4/22,,,0,0,0,0,0,0.00,672,Hardcover,,0,0,G.D. Thompson Sr.,,,,,,,0,,
10256501,1455803367,Small as an Elephant,9781455803361,,,,ES,2011/3/8,Candlewick on Brilliance Audio,,false,17,9327053,12586,25486,6428,939,2011/3/1,Small as an elephant,book,2111,2489,1418,311,99,3.96,,Audio CD,,0,0,Jennifer Richard Jacobson,,,,,,4943,27,240,"adult,adventure,animals,chapter-books,childrens,contemporary,family,fiction,juvenile,mental-health,mental-illness,middle-grade,novels,realistic-fiction,relationships,school,survival,teen,young-adult"
10257501,0553386662,The American Academy of Pediatrics New Mother's Guide to Breastfeeding,9780553386660,,,,ES,2011/7/26,Bantam,eng,false,14,445995,612,1394,377,60,2002/1/1,The American Academy of Pediatrics New Mother's Guide to Breastfeeding (American Academy of Pediatrics),book,86,137,115,32,7,3.70,272,Paperback,,19,5,"American Academy of Pediatrics,Joan Younger Meek,Winnie Yu",,,,,,97,13,19,"adult,family,health,non-fiction,parenting,self-help"
10258001,2868080235,"Desert, Vol. 1",9782868080233,,,,ES,1995/10/28,,,false,1,10258001,3,7,2,0,1995/10/28,,,0,1,1,0,0,3.50,234,,,2,0,Pierre Loti,,,,,,1,0,,fiction
10259501,,People Will Always Be Kind,,,,,ES,1973/1/1,Dell,,false,2,3075985,33,34,10,2,1973/1/1,People Will Always Be Kind,book,2,3,2,3,0,3.40,,Mass Market Paperback,,1,1,Wilfrid Sheed,,,,,,18,0,1,
10260001,1155662059,"Cincinnati Royals Draft Picks: Oscar Robertson, Jerry Lucas, Rod Hundley, Nate Archibald, Herm Gilliam, Larry Siegfried, Leo Byrd, Bob Boozer",9781155662053,,,,ES,2011/8/17,"Books LLC, Wiki Series",,false,1,10260001,1,0,0,0,2011/8/17,,,0,0,0,0,0,0.00,,Paperback,,0,0,Source Wikipedia,,,,,,1,0,,
10261501,006180116X,"Kisscut (Grant County, #2)",9780061801167,,,,ES,2009/10/13,HarperCollins e-books,eng,true,82,21719,43369,115264,28050,1329,2002/1/1,Kisscut,book,10407,11510,5127,802,204,4.11,512,ebook,,75,13,Karin Slaughter,,,,,,7304,149,473,"abuse,adult,adult-fiction,american,contemporary,crime,dark,detective,fiction,horror,murder-mystery,mystery,mystery-thriller,romance,suspense,thriller"
10263001,1872167446,What Price Cod?: Tugmaster's View Of The Cod Wars,9781872167442,,,,ES,,,eng,false,1,10263001,1,4,1,0,,,,0,1,0,0,0,4.00,,,,1,0,Norman Storey,,,,,,,0,,
10263501,8874351267,Apologia del taoismo,9788874351268,,,,ES,,,ita,false,2,10263501,24,37,10,0,1924/1/1,Apologia del taoismo,book,2,3,5,0,0,3.70,,Paperback,,8,0,Giuseppe Tucci,,,,,,6,0,,"non-fiction,philosophy"
10264001,1406560367,Comfort Pease and Her Gold Ring,9781406560367,,,,ES,2007/10/12,Dodo Press,,false,13,19191950,10,11,3,0,2007/10/12,,book,1,0,2,0,0,3.67,48,Paperback,,0,0,Mary E. Wilkins Freeman,,,,,,7,0,,"american,classics,fiction,short-stories,social"
10265501,,صناعة نجوم الحياة,9789990699418,,,,ES,2010/1/1,شركة الإبداع الفكري,ara,false,1,10265501,263,150,37,5,2010/1/1,صناعة نجوم الحياة,book,21,5,5,4,2,4.05,216,Paperback,الطبعة الأولى,37,5,هبة جمال حريري,,,,,,200,0,8,self-help
10266001,0130421391,"Sociology / Study Guide, (Canadian Edition)",9780130421395,,,,ES,,,,false,1,10266001,1,3,1,0,2002/2/1,,,0,0,1,0,0,3.00,,,,1,0,"Gerald V. Booth,Heather E. Metcalfe,John J. Macionis",,,,,,,0,,
10266501,,How the Other Half Lives,9781611240580,,,,ES,2011/2/6,Amber Allure,eng,true,4,33871449,591,1091,304,67,2011/2/5,,book,52,112,110,23,7,3.59,59,ebook,,225,33,Clare London,,,,,,209,16,4,"adult,contemporary,erotica,fiction,funny,gay,humor,lgbt,novella,romance,short-stories"
10267001,8889145498,I libri della Giungla,9788889145494,,,,ES,2004/11/24,La biblioteca di Repubblica ,ita,false,281,41684,116751,318459,79300,977,1894/1/1,The Jungle Books,book,28764,28128,18128,3463,817,4.02,373,Hardcover,"Ottocento, #49",28,1,Rudyard Kipling,,,,Carlo Pagetti,,29550,106,834,"adventure,animals,british-literature,childrens,classic-literature,classics,english-literature,fairy-tales,fantasy,fiction,historical,historical-fiction,juvenile,literature,middle-grade,nature,novels,poetry,school,short-stories,unfinished,victorian,young-adult"
10267501,0789209845,Baby Animals,9780789209849,,,,ES,2009/10/13,Abbeville Kids,,false,1,10267501,1,0,0,0,2009/10/13,,,0,0,0,0,0,0.00,6,Board Book,,0,0,,,,,,,,0,,
10268001,1579214673,Batons: For the Runners in the Race,9781579214678,,,,ES,2002/12/10,Winepress Publishing,,false,1,10268001,0,0,0,0,2002/12/10,,,0,0,0,0,0,0.00,109,Paperback,,0,0,Valerie J. Klerk,,,,,,,0,,
10268501,1582551022,Professional's Handbook of Drug Therapy for Pain,9781582551029,,,,ES,2001/2/1,Lippincott Williams & Wilkins,,false,1,10268501,0,0,0,0,2001/2/28,,,0,0,0,0,0,0.00,624,Paperback,,0,0,Lippincott Williams & Wilkins,,,,,,,0,,
10270001,1609410149,Fed Up!: Our Fight to Save America from Washington,9781609410148,,,,ES,2010/11/15,"Little, Brown & Company",,false,11,9644188,367,697,203,36,2010/1/1,,book,45,58,60,20,20,3.43,,Audiobook,,0,0,"Ric Reitz,Rick Perry",,,,,,106,6,10,"history,non-fiction,politics"
10271501,2819928056,Codex Junius 11,9782819928058,,,,ES,,,,true,10,8188802,25,23,8,2,2007/8/1,,book,0,3,2,2,1,2.88,,,,0,0,Unknown,,,,,,11,0,3,"non-fiction,poetry"
10273501,9501127095,El pequeno tigre / The Little Tiger: Busca a su mama / Search for His Mom (Fabrazos / Hugs) (Spanish Edition),9789501127096,,,,ES,,,,false,1,10273501,0,0,0,0,2010/1/30,,,0,0,0,0,0,0.00,,,,0,0,Daniela Feoli,Kait Eaton,,,,,,0,,
10274001,1425544282,"Arabula; Or, the Divine Guest. Containing a New Collection of Gospels. by Andrew Jackson Davis.",9781425544287,,,,ES,2006/9/13,University of Michigan Library,,false,7,10274001,3,0,0,0,2006/9/28,,,0,0,0,0,0,0.00,,Paperback,,0,0,Andrew Jackson Davis,,,,,,3,0,,
10275001,0914710133,Hungary Between Wilson and Lenin,9780914710134,,,,ES,1976/10/15,East European Monographs,,false,2,3333714,6,15,4,1,1976/12/28,Hungary Between Wilson and Lenin: The Hungarian Revolution of 1918-1919 and the Big Three,,0,3,1,0,0,3.75,191,Hardcover,,0,0,Peter Pastor,,,,,,1,0,,history
10276001,,"Rook (Allie's War, #1)",,B004IK8JN8,,,ES,2011/1/9,White Sun Press,eng,true,13,34941889,2747,2255,615,156,2011/1/9,"Rook: Allie's War, Book One",book,185,193,132,57,48,3.67,,Kindle Edition,,53,30,J.C. Andrijeski,,,,,,1434,26,413,"action,aliens,amazon,dark,dystopia,fantasy,fiction,magic,new-adult,paranormal,romance,science-fiction,speculative-fiction,suspense,urban-fantasy"
10276501,8849825528,Bioetica senza dogmi,9788849825527,,,,ES,2009/12/1,Rubbettino,ita,false,1,10276501,3,6,2,0,2009/12/1,,book,0,1,0,1,0,3.00,357,Paperback,,2,0,Luisella Battaglia,,,,,,1,0,,
10277001,,Primitive Baptist Faith and Practice,,,,,ES,1979/1/1,Primitive Baptist Library,eng,false,1,10277001,3,0,0,0,1979/1/1,,book,0,0,0,0,0,0.00,114,Hardcover,,0,0,W.S. Craig,,,,,,2,0,,
10278001,,The fright,2940018852735,,,,ES,,,,true,9,10278001,0,0,0,0,,,,0,0,0,0,0,0.00,,,,0,0,Ellen Pickering,,,,,,,0,,
10278501,0226764605,Modeling the Distribution and Intergenerational Transmission of Wealth,9780226764603,,,,ES,,,,true,3,3458886,0,0,0,0,1980/12/1,"Modeling the Distribution and Intergenerational Transmission of Wealth (National Bureau of Economic Research - Studies in Income and Wealth, Volume 46)",,0,0,0,0,0,0.00,,,,0,0,James D. Smith,,,,,,,0,,
10279501,0205797989,Mycommunicationlab Student Access Code: Essentials of Human Communication (Standalone),9780205797981,,,,ES,2010/1/1,Allyn & Bacon,,false,44,1335913,264,265,74,4,1993/1/1,Essentials of Human Communication,book,22,20,18,7,7,3.58,384,,,0,0,Joseph A. DeVito,,,,,,40,1,8,"education,language,psychology,reference"
10280001,849607109X,El Tejedor,9788496071094,,,,ES,,,spa,false,23,176381,2246,3411,898,111,1992/1/1,The Long-Legged Fly,book,203,395,228,60,12,3.80,,,,1,0,James Sallis,,,,,,1221,12,21,"adult,american,crime,detective,fiction,mystery,mystery-thriller,novels,suspense,thriller"
10280501,1453538011,Journey to the Beginning,9781453538012,,,,ES,2010/7/16,Xlibris Corporation,eng,false,3,9977023,0,0,0,0,2010/7/16,,,0,0,0,0,0,0.00,96,Hardcover,,0,0,Almia de los Santos,,,,,,,0,,
10281001,0600366278,Thrilling Detection and Mystery Stories,9780600366270,,,,ES,1995/12/31,Hamlyn,eng,false,2,10281001,6,11,4,0,1995/12/31,,book,0,1,2,0,1,2.75,192,Hardcover,,3,0,,,,Leonard Matthews,,,1,0,,
10281501,906305002X,Oude liefde roest niet,9789063050023,,,,ES,2002/1/1,Archipel,nl,false,20,181378,1754,3013,867,47,2001/1/1,The Boy Next Door,book,155,258,323,106,25,3.48,269,Paperback,,25,1,"Emlyn Rees,Josie Lloyd",,,,Esther Ottens,,587,16,14,"adult,chick-lit,contemporary,fiction,humor,love,modern,romance,young-adult"
10282001,1177990830,The Tenth Man: A Tragic Comedy in Three Acts,9781177990837,,,,ES,2010/8/29,Nabu Press,,false,19,10282001,22,21,6,3,1913/1/1,The Tenth Man: A Tragic Comedy in Three Acts,book,0,3,3,0,0,3.50,230,Paperback,,3,2,W. Somerset Maugham,,,,,,13,0,,"british-literature,classics,comedy,drama,english-literature,fiction,humor,plays,tragedy"
10283001,,The Burning Bridge,2940011877278,,,,ES,,,,true,29,5970483,170,321,92,13,1960/1/1,The Burning Bridge,book,12,30,44,3,3,3.49,,,,1,0,"Poul Anderson,Van Dongen",,,,,,52,8,6,"fiction,science-fiction,short-stories"
10283501,0803735812,"Good Night, Sleep Tight: A Book About Bedtime",9780803735811,,,,ES,2011/4/14,Dial Books,eng,false,1,10283501,73,139,40,4,2011/4/14,,,6,12,17,5,0,3.48,24,Board Book,,40,4,Emma Quay,Anna Walker,,,,,10,7,1,"childrens,picture-books"
10284501,,"Alien Mate 3 (Alien Mate, #3)",,B004K1EZR4,,,ES,2011/1/19,Amira Press,en-GB,true,7,10219948,2337,5487,1419,46,2011/1/14,,book,443,498,352,98,28,3.87,74,,,110,3,Eve Langlais,,,,,,654,14,19,"adult,aliens,erotica,fantasy,fiction,funny,novella,paranormal,romance,science-fiction"
10285001,0719555566,Arms For Spain: The Untold Story Of The Spanish Civil War,9780719555565,,,,ES,1998/9/17,John Murray Publishers Ltd,eng,false,3,3472556,60,53,14,2,1998/1/1,Arms for Spain: The Untold Story of the Spanish Civil War,,4,4,5,1,0,3.79,365,Hardcover,,2,1,Gerald Howson,,,,,,34,1,3,history
10286001,0143018566,Swim,9780143018568,,,,ES,2003/1/1,Penguin Books (New Zealand),,false,1,10286001,10,10,4,1,2003/1/1,,book,0,0,2,2,0,2.50,260,Paperback,,4,1,Jackie Davis,,,,,,5,1,,fiction
10286501,,"Full Guide To Becoming A Real Wizard, Witch Or Necromancer",2940011961281,,,,ES,,,,true,3,8635771,168,67,14,1,2009/12/6,,book,11,3,0,0,0,4.79,,,,1,0,Osari the Wise,,,,,,100,0,8,
10288501,0679844147,The Berenstain Bears Get in a Fight,9780679844143,,,,ES,1992/10/27,Random House Video,,false,18,514346,5295,15763,3893,68,1982/4/1,The Berenstain Bears Get in a Fight,book,1701,1001,943,177,71,4.05,0,Multimedia,,0,0,"Jan Berenstain,Stan Berenstain",,,,,,483,34,9,"animals,childrens,classics,family,fiction,picture-books"
10289001,0333266919,Organizational Change: The Managerial Dilemma,9780333266915,,,,ES,,,,false,1,10289001,1,0,0,0,,,,0,0,0,0,0,0.00,,,,0,0,Edmund Brooks,,,,,,,0,,
10289501,,Hříšná touha,,,,,ES,2006/12/1,Víkend,cze,false,1,10289501,80,153,48,1,2006/1/1,,book,8,10,17,9,4,3.19,286,Hardcover,Čtení pro dívky,48,1,Lenka Lanczová,,,,,,2,1,,"teen,young-adult"
10290001,,In Charge: Finding the Leader Within You,,B001ILBE8C,,,ES,,,eng,true,8,4463381,451,250,57,8,2008/10/17,In Charge: Finding the Leader Within You,,34,15,4,4,0,4.39,,,,3,1,Myles Munroe,,,,,,341,3,14,"business,christian,leadership,self-help,spirituality"
10290501,0199553645,Humanism: A Very Short Introduction,9780199553648,,,,ES,2011/2/11,"Oxford University Press, USA",eng,false,5,10290501,1125,1059,293,53,2010/3/1,Humanism: A Very Short Introduction,book,54,123,75,31,10,3.61,150,Paperback,,199,35,Stephen Law,,,,,,699,12,36,"history,non-fiction,philosophy,religion,textbooks"
10291001,1859094643,Ella Fitzgerald / Forever Ella,9781859094648,,,,ES,1994/10/1,International Music Publications,,false,1,10291001,10,0,0,0,1994/10/1,,,0,0,0,0,0,0.00,76,Paperback,,0,0,Ella Fitzgerald,,,,,,8,1,,music
10292001,1453210903,Talking to Strange Men,9781453210901,,,,ES,2010/12/28,Open Road Media,eng,true,33,918932,1295,2445,659,55,1987/1/1,Talking to Strange Men,book,141,256,203,48,11,3.71,280,ebook,,0,0,Ruth Rendell,,,,,,384,16,44,"adult,british-literature,crime,fiction,mystery,mystery-thriller,suspense,thriller"
10293501,,"Fifty Bab ballads, much sound and little sense",2940019059812,,,,ES,,,,true,67,1069493,90,144,39,6,1884/1/1,Bab Ballads,book,8,18,6,7,0,3.69,,,,0,0,W.S. Gilbert,,,,,,34,5,6,"classics,comedy,humor,poetry"
10294501,2845471130,Gunji,9782845471139,,,,ES,2005/10/1,H&O manga,fre,false,2,10294501,225,215,52,2,2005/1/1,,book,25,12,13,1,1,4.13,206,,,39,2,Gengoroh Tagame,,,,,,138,4,10,"art,bdsm,comics,gay,lgbt,manga,queer"
10295001,,Sonata in C major (K225/P202/L351),2940000544969,,,,ES,,,,true,1,10295001,0,0,0,0,,,,0,0,0,0,0,0.00,,,,0,0,Domenico Scarlatti,,,,,,,0,,
10295501,1609280962,The Reluctant Prince,9781609280963,,,,ES,2011/5/3,Samhain Publishing,eng,false,5,40967463,148,245,62,18,2010/6/15,,book,15,31,14,2,0,3.95,272,Paperback,,0,0,Candice Gilmer,,,,,,66,3,3,"adult,contemporary,romance"
10296001,0670446831,Madeline and the Bad Hat,9780670446834,,,,ES,1959/9/11,Viking Children's Books,,false,28,1027760,19621,74062,17319,141,1956/1/1,Madeline and the Bad Hat,book,9277,4417,2934,516,175,4.28,64,Hardcover,,0,0,Ludwig Bemelmans,,,,,,1496,33,8,"childrens,classics,fantasy,fiction,france,international,picture-books,poetry,young-adult"
10297001,031258721X,America Now: Short Readings from Recent Periodicals [with VideoCentral for English Access Code],9780312587215,,,,ES,2011/2/18,Bedford/St. Martin's,,false,88,10296997,967,282,76,3,2007/3/28,,book,26,19,21,3,7,3.71,,Paperback,Ninth Edition,0,0,Robert Atwan,,,,,,570,7,31,"fiction,language,non-fiction,reference,teaching,textbooks,unfinished"
10298001,,A Estação das Bruxas,9789722516488,,,,ES,2008/1/1,Bertrand Editora,por,false,26,20601441,5965,8716,2343,434,2007/1/1,Season of the Witch,book,614,828,612,209,80,3.72,398,Paperback,,22,2,Natasha Mostert,,,,,,3113,34,54,"adult,adult-fiction,contemporary,crime,dark,detective,drama,fantasy,fiction,gothic,historical-fiction,horror,magic,magical-realism,mystery,mystery-thriller,non-fiction,paranormal,romance,science-fiction,supernatural,suspense,thriller,urban-fantasy,witches"
10298501,9022323935,De Boeboeks van het Biezebos,9789022323939,,,,ES,2009/6/1,Standaard Uitg Alg Uitgave & Import,nl,false,1,10298501,135,262,75,0,2009/6/1,De Boeboeks van het Biezebos,book,9,26,33,7,0,3.49,471,Perfect Paperback,,75,0,Marc de Bel,S. Dhondt,,,,,9,2,,"childrens,fiction,young-adult"
10299501,1615072438,Blind Revenge,9781615072439,,,,ES,2010/7/26,CrossBooks Publishing,,false,2,21128905,1,1,1,0,2010/7/20,,,0,0,0,0,1,1.00,256,Paperback,,0,0,Fred Horrell,,,,,,,0,,
10300001,,Topics in Finance: A Guide for the Financially Perplexed,,B0006XC05O,,,ES,1975/1/1,Variety Publising ,eng,false,2,10297369,2,9,2,1,1975/1/1,,book,1,1,0,0,0,4.50,153,Paperback,First,1,0,"H. Harry Friedman,Steven Katz",,,,,,,0,,
10300501,1884008011,The Solid Waste Mess: What Should We Do with the Garbage?,9781884008016,,,,ES,,,,false,1,10300501,0,0,0,0,1997/7/1,,,0,0,0,0,0,0.00,,,,0,0,Gloria Danziger,,,,,,,0,,
10301001,1443766615,Cosmos a Sketch of the Physical Description of the Universe Volume III,9781443766616,,,,ES,2008/10/21,Grizzell Press,,false,29,7694020,21,3,1,0,2004/10/1,,book,0,0,1,0,0,3.00,220,Paperback,,0,0,Alexander von Humboldt,,,,,,16,1,,"nature,science"
10302001,,The Origins of the Slavic Nations,,B000SRGFS6,,,ES,,,eng,true,7,4875571,234,187,43,8,2006/1/1,"The Origins of the Slavic Nations: Premodern Identities in Russia, Ukraine, and Belarus",book,25,12,3,2,1,4.35,,,,7,2,Serhii Plokhy,,,,,,173,3,6,"history,non-fiction,philosophy"
10302501,,Double the Pleasure: Volume #1,2940011154416,,,,ES,,,,true,3,10302501,0,0,0,0,2010/12/18,,book,0,0,0,0,0,0.00,,,,0,0,Lillian Snow,,,,,,,0,,
10303501,,Geological observations on the volcanic islands and parts of South America visited during the voyage of H.M.S. Beagle,2940018291848,,,,ES,,,,true,48,10208067,28,0,0,0,2011/3/16,,book,0,0,0,0,0,0.00,,,,0,0,Charles Darwin,,,,,,19,1,,
10304501,1441704701,The Everlasting Man,9781441704702,,,,ES,2010/11/1,Blackstone Audiobooks,,false,152,112760,21114,25720,6128,479,1925/1/1,The Everlasting Man,book,2966,1901,894,237,130,4.20,,Audio CD,,1,0,"G.K. Chesterton,Thomas Whitworth",,,,,,13097,33,907,"adult,anthropology,british-literature,christian,christianity,classics,education,english-literature,essays,faith,fiction,historical,history,literature,non-fiction,novels,philosophy,religion,spirituality,theology,unfinished"
10305001,,Het Oude Liedje. Scènette voor 3 heeren en 3 dames.,,,,,ES,1902/1/1,Gebroeders Poot,nl,false,1,10305001,1,2,1,0,1902/1/1,,book,0,0,0,1,0,2.00,19,Board book,,1,0,Louise Stratenus,,,,,,,0,,
10305501,,"Annales Ingolstadiensis Academiae: Emendavit, auxit, continuavit et codicem ...",2940039177886,,,,ES,,,,true,1,10305501,0,0,0,0,,,,0,0,0,0,0,0.00,,,,0,0,Johann Engerd Valentin Rotmar,,,,,,,0,,
10308001,0553028812,Run For The Trees,9780553028812,,,,ES,,,eng,false,2,10308001,68,80,20,2,1968/1/1,,book,7,7,5,1,0,4.00,,,,17,2,James S. Rand,,,,,,36,1,1,thriller
10308501,0802853919,Images of God for Young Children,9780802853912,,,,ES,2010/12/9,Eerdmans Books for Young Readers,,false,2,10308501,115,223,52,10,2010/12/9,,book,24,19,9,0,0,4.29,96,Unknown Binding,,52,10,Marie-Hélène Delval,Barbara Nascimbeni,,,,,37,6,2,"childrens,christian,christianity,picture-books,religion,spirituality,theology"
10310501,1412784352,Go for the Gold!,9781412784351,,,,ES,2007/1/1,Publications International,,false,2,7333207,1,0,0,0,2007/1/1,,,0,0,0,0,0,0.00,,Hardcover,,0,0,"Shawn Currie,Warner McGee",,,,,,1,0,,
10311501,088254795X,The Artificial Face,9780882547954,,,,ES,1983/5/1,Hippocrene Books,,false,4,6186538,17,17,5,1,1973/1/1,The Artificial Face: a History of Cosmetics,,1,2,1,0,1,3.40,220,Paperback,,0,0,Fenja Gunn,,,,,,10,0,-1,non-fiction
10312501,0738501662,Saint John West:: Volume II,9780738501666,,,,ES,1999/6/8,Arcadia Publishing,eng,false,1,10312501,1,0,0,0,1999/6/8,,,0,0,0,0,0,0.00,128,Paperback,,0,0,David Goss,,,,,,,0,,
10313501,1158627653,"Gardens in Val-D'Oise: Domaine of Villarceaux, Royaumont Abbey, Chateau D'Ambleville, Arboretum de La Roche-Guyon",9781158627653,,,,ES,2010/9/15,Books LLC,,false,1,10313501,0,0,0,0,,,,0,0,0,0,0,0.00,,Paperback,,0,0,,,,Books LLC,,,,0,,
10314501,0525663819,Phoebe's Family,9780525663812,,,,ES,,,eng,false,2,5100941,5,3,2,0,1974/1/1,Phoebe's family,book,0,0,0,1,1,1.50,,,,0,0,Pamela Sykes,,,,,,2,0,,
10315501,,The Mistress of Spices,,B002OTKEOM,,,ES,,,en-US,true,54,94669,22816,40399,11603,915,1997/1/1,The Mistress of Spices,book,2161,3674,3846,1438,484,3.48,,,,132,5,Chitra Banerjee Divakaruni,,,,,,8680,14,271,"adult,adult-fiction,chick-lit,contemporary,cultural,drama,fantasy,fiction,food,literary-fiction,literature,magic,magical-realism,novels,paranormal,romance,science-fiction-fantasy,speculative-fiction,unfinished,urban-fantasy"
10316001,1848829388,Topics in Physical Mathematics,9781848829381,,,,ES,2010/8/20,Springer,,false,6,10316001,7,4,1,0,2010/1/1,,,0,1,0,0,0,4.00,442,Hardcover,,1,0,Kishore Marathe,,,,,,4,0,,
10316501,1435836715,The Dingo,9781435836716,,,,ES,2003/1/1,PowerKids Press,,false,2,1098534,4,12,3,1,2003/1/1,The Dingo (The Library of Wolves and Wild Dogs),,1,1,1,0,0,4.00,26,Paperback,,0,0,Janice Koler-Matznick,,,,,,,0,,
10317001,,"A Midsummer-Night's Dream, Act. III. Scene I",2940038034456,,,,ES,,,,true,1,10317001,0,0,0,0,,,,0,0,0,0,0,0.00,,,,0,0,Robert Graham Cochrane Levens,,,,,,,0,,
10317501,1450064019,Bring It to Pass,9781450064019,,,,ES,,,,true,4,9590244,0,0,0,0,2010/4/13,,,0,0,0,0,0,0.00,,,,0,0,Polly B. Berry,,,,,,,0,,
10319001,,Tuomas Piispa,9789516926936,,,,ES,2008/1/1,BTJ,fin,false,2,6884015,1,3,1,0,1901/1/1,Tuomas piispa,book,0,0,1,0,0,3.00,191,Paperback,,0,0,Santeri Ingman,,,,,,,0,,
10320001,1573446599,The Handsome Prince,9781573446594,,,,ES,2011/6/1,Cleis Press,eng,false,7,10320001,267,318,89,23,2011/4/8,,book,17,31,31,6,4,3.57,244,Paperback,,71,17,,,"Aaron Michaels,Bonnie Dee,Fox  Lee,Gregory L. Norris,Heidi Champa,J.L. Merrow,Janine Ashbless,Jay Starre,Josephine Myles,Michael Bracken,Red Morgan,Rob Rosen,S.A. Garcia",Neil S. Plakcy,,,127,7,3,"anthologies,bdsm,contemporary,erotica,fairy-tales,fantasy,historical-fiction,lgbt,medieval,romance,short-stories"
10320501,0521190983,Space and Time in Ancient Greek Narrative,9780521190985,,,,ES,2010/4/1,Cambridge University Press,,false,3,10320501,10,13,3,0,2010/3/22,,,1,2,0,0,0,4.33,273,Hardcover,,3,0,Alex C. Purves,,,,,,5,0,1,"academic,research"
10321001,1898594856,Two Great Danes: Or What Were We Thinking Of?,9781898594857,,,,ES,2009/11/1,Parapress,eng,false,1,10321001,1,0,0,0,2009/11/1,,,0,0,0,0,0,0.00,112,Paperback,,0,0,Angela Mitchell,Steve Tyler,,,,,1,0,,
10321501,3887037081,Erlebnis Der Gegenwart,9783887037086,,,,ES,,,ger,false,2,10321501,2,5,2,0,,,,0,0,1,1,0,2.50,,,,1,0,Albert Schug,,,,,,,0,,art
10322001,0575044519,The Ultimate Enemy,9780575044517,,,,ES,,,eng,false,10,1808189,592,1038,274,10,1979/9/1,"The Ultimate Enemy (Berserker, #5)",book,67,98,96,10,3,3.79,,,,1,0,Fred Saberhagen,,,,,,206,13,2,"fantasy,fiction,science,science-fiction,science-fiction-fantasy,short-stories"
10322501,,Ten Years Later,,B002KE4GY0,,,ES,,,,true,130,70032,5073,9096,2297,56,1847/1/1,,book,777,818,554,129,19,3.96,,,,0,0,Alexandre Dumas,,,,,,2072,16,106,"adventure,classic-literature,classics,fantasy,fiction,france,historical,historical-fiction,history,literature,mystery,novels,romance,thriller"
10323001,0442025483,Developing Products in One-Tenth the Time,9780442025489,,,,ES,1997/9/1,International Thomson Publishing Services,,false,10,134501,378,416,103,5,1991/1/15,"Developing Products in Half the Time: New Rules, New Tools, 2nd Edition",,33,46,19,5,0,4.04,298,Hardcover,,1,0,"Donald G. Reinertsen,Preston G. Smith",,,,,,214,14,7,"business,non-fiction,reference,research,technology"
10323501,0415488508,Mary Douglas Collected Works: Volume IV : Rules and meanings,9780415488501,,,,ES,2008/12/1,Routledge,,false,7,1022930,52,26,7,0,1977/5/26,Rules and Meanings: The Anthropology of Everyday Knowledge (Penguin modern sociology readings),,0,5,2,0,0,3.71,319,Paperback,,0,0,Mary Douglas,,,,,,30,2,2,"anthropology,non-fiction,sociology"
10325001,1442937106,Lizzie Leigh,9781442937109,,,,ES,2006/1/1,ReadHowYouWant,,true,60,1227206,552,771,232,23,1850/1/1,Lizzie Leigh,book,28,66,96,37,5,3.32,,ebook,,0,0,Elizabeth Gaskell,,,,,,266,17,5,"british-literature,classics,drama,english-literature,fiction,historical-fiction,realistic-fiction,short-stories,victorian"
10326501,8882370119,Détective: Le più belle pagine,9788882370114,,,,ES,2001/1/1,Meridiano Zero,ita,false,1,10326501,7,4,2,0,2001/1/1,,book,0,0,0,2,0,2.00,,Paperback,,2,0,,,,Renato Poletti,,,2,0,,true-crime
10328001,,Sıradan ve Sahici,,,,,ES,,,tur,false,2,10328001,10,8,3,1,,Sıradan ve Sahici,book,0,0,2,1,0,2.67,,,,3,1,Melih Pekdemir,,,,,,3,0,,
10329501,,Meet Me at Taylor Park,,B004L623QI,,,ES,2011/1/27,,,true,4,10329501,241,221,65,7,2011/1/24,,book,10,22,23,4,6,3.40,228,Kindle Edition,,62,7,,,,,,,142,11,2,"adult,amazon,chick-lit,contemporary,fiction,romance"
10330001,1439103186,My Infamous Life: The Autobiography of Mobb Deep's Prodigy,9781439103180,,,,ES,,,en-US,false,13,10330001,1517,2713,668,63,2011/4/1,,book,255,241,132,38,2,4.06,,,,527,55,"Albert   Johnson,Laura Checkoway",,,,,,663,12,58,"autobiography,biography,biography-memoir,memoir,music,non-fiction,novels,sociology,young-adult"
10330501,,Niityltä pois,,,,,ES,1951/1/1,WSOY,fin,false,2,10330501,21,38,13,0,1951/1/1,Niityltä pois,book,0,3,7,2,1,2.92,61,,,13,0,Eila Kivikk'aho,,,,,,3,2,,"fiction,poetry"
10331001,,Boy Meets Girl,,B004KZOX18,,,ES,2011/1/25,,eng,true,8,11254452,43,62,14,0,2011/1/25,,book,8,4,2,0,0,4.43,279,,,0,0,"Elaine Babich,H.T. Night",,,,,,27,2,1,"fiction,romance,young-adult"
10332501,,Leaflets of Philippine botany,2940018833505,,,,ES,,,,true,1,10332501,0,0,0,0,2009/12/16,,,0,0,0,0,0,0.00,,,,0,0,Adolph Daniel Edward Elmer,,,,,,,0,,
10333001,1429992840,"The Demon Trapper's Daughter (The Demon Trappers, #1)",9781429992848,,,,ES,2011/2/1,St. Martin's Griffin,eng,true,25,8534899,64366,70632,17681,1485,2011/9/1,The Demon Trapper's Daughter,book,6894,5801,3486,1000,500,3.99,368,ebook,,195,57,Jana Oliver,,,,,,10674,74,27,"angels,death,demons,dystopia,fantasy,fiction,love,magic,mythology,novels,paranormal,post-apocalyptic,romance,supernatural,teen,urban-fantasy,witches,young-adult,zombies"
10333501,,Kurt Cobain,,,,,ES,,,tur,false,1,10333501,24,4,2,0,,,book,0,0,0,2,0,2.00,,,,2,0,Güneş Roma,,,,,,21,0,,
10334501,0553614762,The Russia House,9780553614763,,,,ES,1990/12/1,Bantam Books,,false,106,270521,29530,80266,20525,351,1989/5/22,The Russia House,book,5819,8417,5159,896,234,3.91,,Paperback,,13,0,John le Carré,,,,,,6782,17,214,"adult,adventure,british-literature,classics,contemporary,crime,fiction,historical-fiction,literary-fiction,literature,mystery,mystery-thriller,novels,romance,suspense,thriller"
10335001,1852602791,Shotokan Karate: A Training Manual,9781852602796,,,,ES,,,eng,false,1,10335001,0,0,0,0,1991/1/1,,book,0,0,0,0,0,0.00,,,,0,0,David       Mitchell,,,,,,,0,,
10335501,0143066293,All That You Can't Leave Behind: Why We Can Never Do Without Cricket,9780143066293,,,,ES,2011/10/12,Penguin Global,,false,1,10335501,13,24,8,1,2011/4/26,,,0,3,2,3,0,3.00,144,Paperback,,8,1,Soumya Bhattacharya,,,,,,4,0,,"essays,non-fiction"
10336001,041548328X,"The Elementary Education System in India: Exploring Institutional Structures, Processes and Dynamics",9780415483285,,,,ES,2009/2/1,Routledge,eng,false,1,10336001,0,0,0,0,2009/2/1,,,0,0,0,0,0,0.00,368,Hardcover,,0,0,,,,"Sharma Rashmi,Vimala Ramachandran",,,,0,,
10337001,0739328980,Promise of the Wolves: Wolf Chronicles Book One,9780739328989,,,,ES,2008/6/3,Random House Audio,,false,36,2903595,10317,14701,3664,396,2008/6/3,Promise of the Wolves,book,1472,1155,732,220,85,4.01,0,Audio,,0,0,"Dorothy Hearst,Justine Eyre",,,,,,5832,35,117,"action,adult,adventure,american,animals,childrens,fantasy,fiction,historical,historical-fiction,history,nature,novels,paranormal,werewolves,young-adult"
10338001,0891960155,1950s,9780891960157,,,,ES,,,,false,2,10338001,2,5,1,0,,,,1,0,0,0,0,5.00,,,,1,0,E.M. Horsley,,,,,,,0,,
10339001,,Masters of Her Heart,,B004KNWQKU,,,ES,,,en-GB,true,3,9999512,562,1197,315,17,2010/12/1,,book,82,113,99,17,4,3.80,,,,56,0,Cooper McKenzie,,,,,,167,12,7,"adult,bdsm,contemporary,erotica,menage,romance,short-stories"
10339501,1453718796,Futbol Comics,9781453718797,,,,ES,2010/11/9,Createspace Independent Publishing Platform,,false,2,10339501,0,0,0,0,2010/11/9,,,0,0,0,0,0,0.00,58,Paperback,,0,0,Edgar G. Allegre,,,,,,,0,,
10342001,8055108455,Súdny deň sa dávno začal,9788055108452,,,,ES,2004/1/1,Ikar,slo,false,33,91206,994,1762,489,23,1995/1/1,Der jüngste Tag hat längst begonnen,book,129,138,146,51,25,3.60,229,,,0,0,Erich von Däniken,,,,,,372,6,18,"aliens,fantasy,history,humor,non-fiction,paranormal"
10342501,0226506282,Between Raphael and Galileo: Mutio Oddi and the Mathematical Culture of Late Renaissance Italy,9780226506289,,,,ES,2011/6/15,University of Chicago Press,eng,false,1,10342501,11,11,3,1,2011/6/15,,book,0,2,1,0,0,3.67,384,Hardcover,,3,1,Alexander Marr,,,,,,5,0,,"history,nature"
10343001,0613997093,Brotherman: The Odyssey of Black Men in America,9780613997096,,,,ES,1996/1/1,Turtleback Books,eng,false,4,1006983,133,155,36,5,1995/1/31,Brotherman: The Odyssey of Black Men in America--An Anthology,book,19,10,6,1,0,4.31,922,Hardcover,,3,0,,,,"Herb Boyd,Robert L. Allen",,,73,1,2,"anthologies,drama,essays,fiction,non-fiction"
10343501,0091252407,Britannia (Camden's Britannia),9780091252403,,,,ES,,,,false,6,7379703,11,3,1,0,1586/1/1,,book,0,0,1,0,0,3.00,,,,0,0,"Copley,William Camden",,,Gordon J. Copley,,,1,0,,
10344001,9185535753,Mediababe,9789185535750,,,,ES,2010/11/18,Kalla kulor förlag,swe,false,1,10344001,7,15,5,0,,,book,0,2,1,2,0,3.00,219,Paperback,,5,0,Jacqueline Kothbauer,,,,,,1,0,,
10344501,0984063013,Under One Fence: The Waggoner Ranch Legacy,9780984063017,,,,ES,,,,false,1,10344501,6,5,1,0,2010/11/16,,,1,0,0,0,0,5.00,,,,1,0,"Henry Chappell,Wyman Meinzer",,,,,,4,0,,
10345001,9067183237,"For Profit And Prosperity: The Contribution Made By Dutch Engineers To Public Works In Indonesia, 1800 2000",9789067183239,,,,ES,2008/1/1,Brill,eng,false,2,6411693,18,18,4,1,2008/1/1,"For Profit and Prosperity: The Contribution Made by Dutch Engineers to Public Works in Indonesia, 1800-2000",book,3,0,1,0,0,4.50,564,Hardcover,,0,0,Wim Ravesteijn,,,Jan Kop,,,14,0,,
10345501,9682901383,Los Recuerdos del Porvenir (Lecturas Mexicanas Segunda Serie # 3),,,,,ES,1985/1/1,Joaquin Mortiz SEP,spa,false,19,2514766,3180,4897,1157,110,1963/1/1,Los recuerdos del porvenir,book,556,374,176,42,9,4.23,296,Paperback,,10,0,Elena Garro,,,,,,1766,13,78,"classics,fiction,historical-fiction,magical-realism,novels,romance"
10346001,5289025448,"Корабль Альвандера (Кристалл Альвандера, #2)",9785289025449,,,,ES,2007/1/1," Лениздат, Ленинград",rus,false,2,10346001,14,47,13,0,2007/1/1,Корабль Альвандера,book,3,5,3,1,1,3.62,544,Hardcover,,13,0,Сергей Садов,,,,,,,1,,"fantasy,fiction"
10346501,2702903177,"La Respiration. Contrôle du souffle, manières et art de respirer. L'Art de vibrer à l'unisson du tout suivi de ""Mes maîtres"" et du ""Récit de deux expériences""",9782702903179,,,,ES,1995/6/20,Courrier du livre,fre,false,1,10346501,0,0,0,0,1995/6/20,,,0,0,0,0,0,0.00,263,Paperback,,0,0,Roger Clerc,,,,,,,0,,
10347501,,Sparkles of light,2940011090011,,,,ES,,,,true,2,10347501,0,0,0,0,2010/8/21,,,0,0,0,0,0,0.00,,,,0,0,Laura Redmond,,,,,,,0,,
10349001,3453013840,Die Mission: Roman,9783453013841,,,,ES,,,ger,false,5,6149788,33,34,9,0,1982/1/1,The Mission,,3,3,2,0,1,3.78,,,,1,0,Hans Habe,,,,,,18,0,1,"fiction,historical-fiction"
10349501,,Der Geburtstag oder die Partikularisten,,B003ZUY9FE,,,ES,,,ger,true,5,10349501,5,10,3,1,1873/1/1,,book,0,1,2,0,0,3.33,,ebook,,3,1,Wilhelm Busch,,,,,,,0,,"classics,graphic-novels-comics"
10350001,1423369459,Steinbeck's Ghost,9781423369455,,,,ES,2008/9/8,Brilliance Audio,ger,false,16,3346938,634,1126,309,98,2008/9/2,Steinbeck's Ghost,book,71,102,96,35,5,3.64,,Audio CD,,0,0,Lewis Buzbee,,,,,,251,11,11,"adventure,childrens,classics,fantasy,fiction,historical-fiction,juvenile,magical-realism,middle-grade,mystery,paranormal,young-adult"
10350501,,De l'harmonie entre l',2940030395975,,,,ES,,,,true,1,10350501,0,0,0,0,,,,0,0,0,0,0,0.00,,,,0,0,Drach Paul Louis Bernard Drach,,,,,,,0,,
10351001,1450259235,No Simple Highway,9781450259231,,,,ES,2010/10/22,iUniverse,,false,4,9859127,2,0,0,0,2010/10/22,,,0,0,0,0,0,0.00,344,Hardcover,,0,0,Michael Altman,,,,,,2,0,,
10352001,0613766997,Loyola Kids Book of Heroes: Stories of Catholic Heroes and Saints Throughout His,9780613766999,,,,ES,2003/10/1,Turtleback Books,eng,false,3,293728,108,186,45,3,2003/1/1,Loyola Kids Book of Heroes: Stories of Catholic Heroes and Saints Throughout History,book,21,11,11,2,0,4.13,,Hardcover,,0,0,Amy Welborn,,,,,,35,1,16,faith
10352501,8835954436,Lo Stato Seduttore: Le Rivoluzioni Mediologiche Del Potere,9788835954439,,,,ES,,,ita,false,5,4927992,21,29,7,1,1993/1/1,,book,2,4,1,0,0,4.14,,,,1,0,Régis Debray,,,,,,6,0,1,
10353001,,Moo Pie in the Moonlight,,,,,ES,2011/1/1,Peach Juice Publishing,,false,1,10353001,12,34,7,4,2011/1/1,,book,6,1,0,0,0,4.86,,,,7,4,Beth Olmo,,,,,,4,0,,
10354001,,The Sugarless Plum,,B002SVQE2C,,,ES,,,eng,true,12,6618889,602,781,208,48,2009/1/1,The Sugarless Plum,book,48,77,68,14,1,3.75,,,,5,0,Zippora Karz,,,,,,353,11,3,"adult,autobiography,biography,history,medical,memoir,music,non-fiction,sports,young-adult"
10354501,1563112396,11th Bomb Group (H): The Grey Geese,9781563112393,,,,ES,1996/6/15,Turner,eng,false,2,24823759,0,0,0,0,1996/6/15,,book,0,0,0,0,0,0.00,128,Hardcover,,0,0,,,,,,,,0,,
10355001,8878870161,Guida Completa A Frank Sinatra,9788878870161,,,,ES,,,rum,false,2,556647,55,113,28,2,2005/8/1,The Rough Guide to Frank Sinatra (Rough Guides Reference Titles),,10,12,3,3,0,4.04,,,,4,0,Chris Ingham,,,,,,19,1,,"biography,movies,music,non-fiction,reference"
10355501,9137136364,"Döden på en blek häst (Maja Grå, #2)",9789137136363,,,,ES,2011/1/1,Bokförlaget Forum,swe,false,3,10355501,219,514,154,8,2011/1/1,Döden på en blek häst,book,12,58,58,22,4,3.34,314,Hardcover,,146,7,Amanda Hellberg,,,,,,41,9,1,"crime,fantasy,fiction,ghosts,horror,mystery,paranormal,school,supernatural,suspense"
10356001,8834716272,"Il sentiero dei pugnali (La Ruota del Tempo, #8)",9788834716274,,,,ES,2010/8/1,Fanucci,ita,false,8,140974,135807,363678,92915,1655,1998/10/20,The Path of Daggers,book,30714,31812,23275,5921,1193,3.91,709,Paperback,TIF Extra,15,3,Robert Jordan,,,,Nello Giugliano,,20057,277,1547,"adult,adult-fiction,adventure,american,epic,epic-fantasy,fantasy,fiction,high-fantasy,magic,novels,romance,science-fiction,science-fiction-fantasy,speculative-fiction,war"
10356501,,Larkin housewives' cook book: good things to eat and how to prepare them: five hundred and forty-eight recipes ...,2940024396971,,,,ES,,,,true,16,31989543,1,3,1,0,2008/10/27,,book,0,0,1,0,0,3.00,,,,0,0,Larkin Housewives,,,,,,,0,,non-fiction
10357001,0849949564,Cure for the Common Life,9780849949562,,,,ES,2011/5/3,Thomas Nelson Publishers,,false,34,74173,6675,12276,3055,263,2005/1/1,Cure for the Common Life,book,1092,1112,699,119,33,4.02,,Audio CD,,2,1,Max Lucado,,,,,,2418,27,357,"adult,christian,christianity,faith,inspirational,leadership,non-fiction,personal-development,psychology,religion,self-help,spirituality"
10357501,1569014779,Spirit of the Northwest,9781569014776,,,,ES,1996/2/1,Northwest Pub,eng,false,1,10357501,2,0,0,0,1996/2/1,,,0,0,0,0,0,0.00,191,Paperback,,0,0,Charlotte Fox,,,,,,1,0,,romance
10358501,0982051891,The Way of Joy,9780982051894,,,,ES,2009/6/21,Wyatt-MacKenzie Publishing,,false,1,10358501,2,2,1,0,2009/6/21,,,0,0,0,1,0,2.00,312,Paperback,,1,0,Vicki Dello Joio,,,,,,1,0,,
10359501,,بيت الحكمة: كيف أسس العرب لحضارة الغرب,,,,,ES,2010/1/1, الدار العربية للعلوم ناشرون، مركز البابطين للترجمة ,ara,false,18,6006458,4156,2900,754,98,2008/12/23,The House of Wisdom: How the Arabs Transformed Western Civilization,book,234,266,180,52,22,3.85,278,Paperback,First,33,10,Jonathan Lyons,,,,,,3063,15,95,"historical,history,medieval,non-fiction,philosophy,politics,religion,science"
10360501,0439851157,Shonen Jump's Yu-GI-Oh!: Ultimate Episode Guide,9780439851152,,,,ES,2006/12/31,Scholastic,,false,1,10360501,17,25,5,0,2006/1/1,,book,5,0,0,0,0,5.00,70,Paperback,,5,0,"Kazuki Takahashi,Tracey West",,,,,,11,0,,manga
10362501,8850201109,Poesie erotiche (Il fromboliere entusiasta),9788850201105,,,,ES,2002/1/1,TEA,ita,false,4,10362501,79,164,46,6,1933/1/1,,,9,15,17,3,2,3.57,76,Paperback,,26,0,Pablo Neruda,,,,Roberta Bovaia,,14,1,3,poetry
10363001,1405826886,Language Leader: Intermediate (Language Leader),9781405826884,,,,ES,,,dan,false,3,10363001,34,18,4,0,2008/1/1,,,2,2,0,0,0,4.50,,,,4,0,"David Cotton,David Falvey,John Hughes,Simon Kent",,,,,,6,1,1,textbooks
10363501,8842085774,Un'etica senza Dio,9788842085775,,,,ES,2009/1/1,Laterza,ita,false,7,9706224,72,96,27,0,2007/1/1,,book,3,12,10,1,1,3.56,124,Paperback,Economica Laterza [463],4,0,Eugenio Lecaldano,,,,,,18,1,1,philosophy
10364501,9709890026,Metanoia. El valor sagrado de nuestra vida (Colección Psicología Esencial),9789709890020,,,,ES,2006/1/1,Editorial Atman,spa,false,1,10364501,4,0,0,0,2006/1/1,,book,0,0,0,0,0,0.00,243,Paperback,1st edition,0,0,Emeterio Pinedo Rojas,,,,,,1,0,1,
10365001,,A Handbook for Today's Disciples in the Christian Church (Disciples of Christ),,B004GGU34M,,,ES,,,eng,true,6,1744714,30,56,15,2,1981/6/1,A Handbook for Today's Disciples in the Christian Church (Disciples of Christ,,3,6,5,1,0,3.73,,,,1,0,D. Duane Cummins,,,,,,9,0,,"christian,religion"
10367001,0970842295,The Cubs Chronology,9780970842299,,,,ES,2003/11/20,Stellar Press,,false,1,10367001,0,0,0,0,2003/11/14,,,0,0,0,0,0,0.00,272,Paperback,,0,0,Tim Steele,,,,,,,0,,
10368501,,The Stretch (Stephen Leather Thrillers),,B002V092UG,,,ES,,,en-US,true,10,1260988,947,2730,662,16,2000/11/2,The Stretch,book,279,219,137,21,6,4.12,,,,430,8,Stephen Leather,,,,,,128,5,46,"adult-fiction,chick-lit,crime,fiction,mystery,thriller"
10369001,0306424304,Current Mammalogy: Volume 1,9780306424304,,,,ES,1987/4/30,Springer,,false,1,10369001,0,0,0,0,1987/4/30,,,0,0,0,0,0,0.00,520,Hardcover,,0,0,,,,Hugh H. Genoways,,,,0,,
10369501,,"Personal Narrrative of Travels to the Equinoctial Regions of America During the Years 1799-1804, volume 2 of 3",2940000780305,,,,ES,,,,true,21,19308424,57,37,11,0,1820/1/1,Reise in die Aequinoctial-Gegenden des neuen Continents. Band 2,book,2,1,7,1,0,3.36,,,,0,0,Alexander von Humboldt,,,,,,31,-1,4,nature
10371501,8841827513,Andiamo a cavallo,9788841827512,,,,ES,,De Agostini,ita,false,1,10371501,1,3,1,1,,,,0,0,1,0,0,3.00,,Hardcover,,1,1,"Catherine Saunders,David Handley",,,,L. Comandini,,,0,,
10372001,145265106X,Minding Ben: A Novel,9781452651064,,,,ES,2011/4/19,Tantor Media,hun,false,10,8580680,960,1766,557,133,2011/4/1,,book,44,162,221,105,25,3.17,0,Audio CD,,0,0,Victoria    Brown,,,,,Joyce Bean,277,15,10,"adult,chick-lit,contemporary,drama,family,fiction,literature,social,social-issues,survival,unfinished"
10372501,,The marvelous land of Oz; being an account of the further adventures of the Scarecrow and Tin Woodman ... a sequel to the Wizard of Oz,2940020857858,,,,ES,,,,true,461,179565,30782,63689,16649,1250,1904/1/1,The Marvelous Land of Oz,book,4472,6011,5086,947,133,3.83,,,,2,0,L. Frank Baum,,,,,,8122,129,1526,"adventure,american,childrens,classic-literature,classics,fairy-tales,fantasy,fiction,humor,juvenile,literature,magic,middle-grade,novels,science-fiction-fantasy,witches,young-adult"
10373001,0759524866,The Diary of V: The Affair,9780759524866,,,,ES,2001/6/1,Vision,,true,11,940310,242,521,137,14,2001/1/1,The Diary of V: The Affair (Diary of V),,48,33,40,13,3,3.80,,ebook,,1,0,Debra Kent,,,,,,56,4,3,"chick-lit,fiction,romance"
10374001,,Madame Bovary,,B004INHX2S,,,ES,,,fre,true,363,2175,410432,790681,215928,8932,1856/1/1,Madame Bovary,book,54274,72618,59301,21201,8534,3.66,,,,18,0,Gustave Flaubert,,,,,,142512,1185,10546,"adult,adult-fiction,classic-literature,classics,college,drama,feminism,fiction,france,high-school,historical,historical-fiction,literary-fiction,literature,love,novels,romance,school,unfinished"
10374501,1453598413,Fading Away,9781453598412,,,,ES,2010/12/16,Xlibris Corporation,,false,4,10374501,0,0,0,0,2010/12/16,,,0,0,0,0,0,0.00,164,Hardcover,,0,0,Carolina Woloszyn,,,,,,,0,,
10375001,,Burn Factor,,B0049B1VR2,,,ES,,,en-US,true,15,361344,1742,3612,975,73,2001/4/3,Burn Factor,book,214,377,286,78,20,3.70,,,,134,4,Kyle Mills,,,,,,326,12,32,"adventure,fiction,mystery,mystery-thriller,suspense,thriller"
10375501,,Fangboy,,,,,ES,2011/4/1,Delirium Books,eng,false,10,10375501,516,847,219,34,2011/3/28,,book,72,73,52,17,5,3.87,237,Hardcover,signed limited to 150 numbered copies,141,25,Jeff Strand,,,,,,232,15,14,"adventure,fantasy,fiction,gothic,horror,humor,novels,speculative-fiction,teen,young-adult"
10376501,0198027761,A House Built on Sand: Exposing Postmodernist Myths about Science,9780198027768,,,,ES,,,,true,6,239489,156,140,33,2,1998/1/1,A House Built on Sand: Exposing Postmodernist Myths About Science,book,13,16,3,1,0,4.24,,,,0,0,Noretta Koertge,,,,,,98,2,2,"anthologies,criticism,non-fiction,philosophy,science"
10377001,0263204715,A Christmas Wish,9780263204711,,,,ES,2008/8/1,Ulverscroft,,false,23,2065881,459,923,230,18,1994/1/1,,book,81,82,58,7,2,4.01,284,Hardcover,Mills &amp; Boon Large Print,1,0,Betty Neels,,,,,,98,14,40,"christmas,contemporary,fiction,harlequin,romance"
10377501,1557732329,"Ole Devil's Hands and Feet (Floating Outfit, #51)",9781557732323,,,,ES,,,eng,false,3,10377501,76,81,20,1,1983/12/8,,book,8,7,3,2,0,4.05,,,,18,1,J.T. Edson,,,,,,47,1,,
10378001,8673480612,Ne gubite živce zbog malih stvari,,,,,ES,1999/1/1,Beograd: Esotheria,bos,false,111,170548,120713,294100,74159,1606,1997/12/16,Don't Sweat the Small Stuff,book,25843,25601,17967,3832,916,3.97,235,,,3,1,Richard Carlson,,,,,,38649,56,2184,"adult,business,classics,health,humor,inspirational,leadership,mental-health,non-fiction,personal-development,philosophy,psychology,reference,relationships,self-help,spirituality"
10379001,1109237316,Effects of virtual manipulatives with open-ended versus structured questions on students' knowledge of slope.,9781109237313,,,,ES,,,,false,1,10379001,0,0,0,0,,,,0,0,0,0,0,0.00,,,,0,0,Mustafa Fatih Demir,,,,,,,0,,
10379501,0451093437,AN Hour Before Midnight,9780451093431,,,,ES,1980/8/5,Signet,eng,false,3,1645249,49,75,21,1,1978/1/1,The Hour Before Midnight,book,5,4,10,2,0,3.57,192,Paperback,,0,0,Velda Johnston,,,,,,13,1,,"gothic,mystery,romance"
10380001,0671546082,Loving Longest,9780671546083,,,,ES,1986/1/1,,eng,false,1,10380001,21,16,4,0,,,book,2,0,2,0,0,4.00,,,Tapestry Romance #79,4,0,Jacqueline Marten,,,,,,13,0,,
10380501,1452810435,Danger In Deep Space: A Tom Corbett Space Cadet Adventure (Volume 2),9781452810430,,,,ES,,,ita,false,51,723787,186,396,112,11,1953/1/1,Danger in Deep Space,book,16,44,38,12,2,3.54,,,,2,0,Carey Rockwell,,,,,,37,7,6,"adventure,fiction,science,science-fiction,young-adult"
10383001,1432938614,River Food Chains,9781432938611,,,,ES,2010/9/1,Heinemann Educational Books,,false,4,10383001,5,0,0,1,2010/7/1,,,0,0,0,0,0,0.00,48,Hardcover,,0,1,Rachel Lynette,,,,,,4,0,,science
10383501,,We Could Hear the Howls of the ADHD Boys,,,,,ES,,,eng,true,1,10383501,1,4,1,0,,,book,0,1,0,0,0,4.00,,ebook,,1,0,Tom Darling,,,,,,,1,,fantasy
10384001,0470635231,The Excellent Online Instructor: Strategies for Professional Development,9780470635230,,,,ES,2011/2/22,John Wiley & Sons,,false,7,10384001,68,122,30,4,2011/1/11,,,10,12,8,0,0,4.07,176,Paperback,,24,4,"Keith Pratt,Rena M. Palloff",,,,,,7,1,3,"education,non-fiction,teaching,technology"
10384501,,Kritische er,2940033565719,,,,ES,,,,true,1,10384501,0,0,0,0,,,,0,0,0,0,0,0.00,,,,0,0,Octavius Clason,,,,,,,0,,
10386501,0899420184,Lectionary - Weekday Mass (Vol. II),9780899420189,,,,ES,2001/10/1,Catholic Book Publishing Corp,,false,12,10844633,9,7,2,0,1999/6/1,,,1,0,0,1,0,3.50,,Hardcover,,0,0,The Catholic Church,,,,,,4,0,,
10387001,0596553404,DNS and Bind: Help for System Administrators,9780596553401,,,,ES,2006/5/26,O'Reilly Media,,true,9,302680,1362,2440,616,22,1996/12/1,DNS and BIND,book,223,209,138,29,17,3.96,642,ebook,,2,0,"Cricket Liu,Paul Albitz",,,,,,403,8,57,"business,non-fiction,reference,technology"
10387501,1857924983,How Did Jesus Feel?,9781857924985,,,,ES,2001/1/1,Christian Focus Publications,eng,false,1,10387501,1,3,1,0,2000/5/11,,,0,0,1,0,0,3.00,177,Paperback,,1,0,Jim Mayhew,,,,,,,0,,
10388501,1611730643,A Billion Reasons Why,9781611730647,,,,ES,2011/5/1,Center Point,,false,5,8508737,3042,5819,1590,195,2011/1/12,,book,415,475,502,140,58,3.66,,Hardcover,Large Print,3,1,Kristin Billerbeck,,,,,,1107,42,27,"adult,chick-lit,christian,christian-fiction,college,contemporary,fiction,inspirational,romance"
10389001,,Through the Glass Wall: A Therapist's Lifelong Journey to Reach the Children of Autism,,B000XUDHAC,,,ES,,,en-US,true,6,932038,114,238,61,10,2004/2/3,Through the Glass Wall: Journeys Into the Closed-Off Worlds of the Autistic,book,19,21,17,4,0,3.90,,,,4,0,Howard Buten,,,,,,43,2,5,"autobiography,non-fiction,psychology"
10389501,,Of the Imitation of Christ,2940012564283,,,,ES,,,,true,159,851393,36828,70657,16842,712,1418/1/1,De Imitatione Christi,book,8456,4690,2593,735,368,4.20,,,,0,0,Thomas à Kempis,,,,,,15873,65,2123,"christian,christianity,classics,faith,history,inspirational,literature,medieval,non-fiction,philosophy,reference,religion,spirituality,theology,unfinished"
10390001,1456816527,The Bramble Maze,9781456816520,,,,ES,2010/12/7,Xlibris Corporation,eng,false,4,14364276,0,0,0,0,2010/12/7,,,0,0,0,0,0,0.00,226,Hardcover,,0,0,Stephen Bolger,,,,,,,0,,
10391501,,Midnight Lady,2940012173850,,,,ES,,,,true,7,5901506,52,61,19,0,1994/1/1,"MIDNIGHT LADY (Loveswept, No 670)",book,1,7,7,3,1,3.21,,,,0,0,"Linda Wisdom,Rae Monet",,,,,,28,1,,"fantasy,magic"
10392501,,Surogat de iluzii,9789975993418,,,,ES,2006/1/1,Phoenix,rum,false,1,10392501,4,9,2,0,2002/1/1,Surogat de iluzii,book,1,1,0,0,0,4.50,288,,II,2,0,Steliana Grama,Adrian Grigorescu,,,,,1,0,,
10393001,,"Gascoyne, the Sandal-Wood Trader",2940012558046,,,,ES,,,,true,70,6267504,65,122,30,1,,,book,8,16,6,0,0,4.07,,,,0,0,R.M. Ballantyne,,,,,,27,2,1,"childrens,classics,fiction,historical-fiction,juvenile"
10393501,1846880912,Thinking Aloud: A Collection Of Aphorisms,9781846880919,,,,ES,2009/1/1,Alma Books,en-GB,false,1,10393501,9,15,4,0,2009/1/1,,book,0,3,1,0,0,3.75,161,Hardcover,Revised Edition,4,0,Simon May,,,,,,4,0,,
10394001,1849969418,The Amateur Astronomer,9781849969413,,,,ES,2010/10/13,Springer,,false,12,7104071,34,63,18,1,1957/1/1,,,3,5,8,2,0,3.50,293,Paperback,,0,0,Patrick Moore,,,,,,6,0,,"non-fiction,science"
10395001,1441533575,The Unicorn,9781441533579,,,,ES,2009/7/22,Xlibris,,false,1,10395001,1,0,0,0,2009/7/22,,,0,0,0,0,0,0.00,66,Paperback,,0,0,Cari P. Adams,,,,,,1,0,,
10395501,,The secret battle,2940023086194,,,,ES,,,,true,53,3419954,227,339,82,12,1919/1/1,The Secret Battle,book,30,37,11,4,0,4.13,,,,0,0,A.P. Herbert,,,,,,66,5,14,"amazon,biography,classics,fiction,historical,historical-fiction,non-fiction,school,war"
10396001,,من رأى رؤيا فكانت كما رأى,,,,,ES,,,ara,false,1,10396001,43,30,8,1,,من رأى رؤيا فكانت كما رأى,book,5,0,0,2,1,3.75,,Paperback,,8,1,إبراهيم بن عبد الله الحازمي,,,,,,30,0,2,
10396501,0064632253,Shorthand,9780064632256,,,,ES,,,,false,2,15137779,6,8,2,1,1992/8/1,,,1,0,1,0,0,4.00,,,,0,0,John Comstock Evans,,,,,,3,0,,
10397501,0786170832,Love You Madly,9780786170838,,,,ES,2006/5/1,Blackstone Audiobooks,,false,2,720769,303,658,176,25,2006/1/1,Love You Madly (Daytime Mysteries),book,37,69,59,9,2,3.74,,Audio CD,,1,1,"Celeste Lawson,Linda  Palmer",,,,,,78,3,2,"cozy-mystery,humor,mystery,romance,supernatural"
10398001,8434228254,Me llamo... Marie Curie,9788434228252,,,,ES,2010/6/1,Parramon,eng,false,2,10398001,14,23,5,0,2008/2/1,,book,3,2,0,0,0,4.60,,Paperback,,5,0,Lluís Cugota,,,,,,2,0,,
10398501,1932800034,Economic Thought and Ideology in Seventeenth-Century England,9781932800036,,,,ES,2004/1/1,Figueroa Press,,false,3,1098047,21,31,7,0,1978/6/1,"Economic Thought and Ideology in Seventeenth Century England (Studies of the Russian Institute, Columbia University)",,3,4,0,0,0,4.43,301,Paperback,,0,0,Joyce Appleby,,,,,,12,1,,"economics,history"
10401001,,The Eustace Diamonds,2940012022936,,,,ES,,,,true,174,73954,7021,14338,3632,275,1873/1/1,The Eustace Diamonds,book,1146,1421,836,187,42,3.95,,,,0,0,Anthony Trollope,,,,,,2652,34,150,"adult-fiction,british-literature,classic-literature,classics,crime,english-literature,fiction,historical,historical-fiction,humor,literary-fiction,literature,love,mystery,novels,politics,romance,victorian"
10402501,,I Hate Christmas: A Manifesto for the Modern Day Scrooge,,B004CVK6AC,,,ES,,,eng,true,4,882823,62,83,27,6,2005/10/15,I Hate Christmas: A Manifesto for the Modern Day Scrooge,,4,6,9,4,4,3.07,,,,2,0,Daniel Blythe,,,,,,25,3,,"childrens,christmas,holiday,humor,non-fiction"
10405001,1611520681,Calvin's Cowboy (Calvin's Cowboy #1),9781611520682,,,,ES,2011/2/5,JMS Books,eng,true,5,10405001,829,1459,416,67,2011/1/1,,book,70,141,153,34,18,3.51,228,ebook,1st Edition,365,63,Drew Hunt,,,,,,289,27,4,"adult,contemporary,erotica,family,fiction,gay,romance"
10406001,,Zlomená žena,,,,,ES,1970/1/1,Svoboda,,false,96,141421,19988,28907,7225,564,1967/1/1,La femme rompue,book,2371,2923,1571,287,73,4.00,178,Hardcover,,7,2,Simone de Beauvoir,,,,,,10314,32,569,"classics,contemporary,drama,feminism,fiction,france,literary-fiction,literature,modern-classics,non-fiction,novels,philosophy,short-stories"
10408001,081087797X,Pope Pius XII on the Economic Order,9780810877979,,,,ES,2011/6/7,Scarecrow Press,eng,false,1,10408001,4,5,1,0,2011/6/7,,,1,0,0,0,0,5.00,277,Hardcover,,1,0,Rupert Ederer,,,,,,2,0,,
10408501,1607063581,Poseurs,9781607063582,,,,ES,2011/4/19,Image Comics,,false,2,10408501,77,136,48,9,2011/3/15,,,4,6,20,14,4,2.83,149,Paperback,,48,9,"Deborah Vankin,Rick Mays",,,,,,16,3,,"american,comics,crime,fiction,graphic-novels,romance,young-adult"
10409501,,The Unknown Citizen: Shmoop Poetry Guide,2940000710050,,,,ES,,,,true,3,10409501,1,0,0,0,2009/11/3,,,0,0,0,0,0,0.00,,,,0,0,Shmoop,,,,,,1,0,,
10410501,1423495055,Glee: Instrumental Play-Along for Trumpet,9781423495055,,,,ES,,,eng,false,1,10410501,1,0,0,0,2010/8/1,,,0,0,0,0,0,0.00,,,,0,0,Anonymous,,,,,,1,0,,
10411001,1413792014,Finding Medical Cures in Unusual Places,9781413792010,,,,ES,,,,false,1,10411001,0,0,0,0,2005/10/24,,,0,0,0,0,0,0.00,,,,0,0,Richard Edges Otc  Cst,,,,,,,0,,
10415001,,"New, A Hammer story: The Two of Swords",2940043323736,,,,ES,,,,true,4,8031215,346,758,204,7,2010/4/1,,book,44,79,62,17,2,3.72,,,,4,0,Sean Michael,,,,,,9,13,3,"adult,bdsm,christmas,contemporary,erotica,fiction,gay,short-stories"
10415501,3837074803,Besinnungslos,9783837074802,,,,ES,2008/12/9,Bod,,false,1,10415501,0,0,0,0,2008/12/9,,,0,0,0,0,0,0.00,202,Paperback,,0,0,Matthias Nibler,,,,,,,0,,
10416001,,"King's Justice (Knights of Breton Court, #2)",,B004J4WJSO,,,ES,,,eng,true,9,8714521,304,158,52,17,2010/8/5,,book,6,15,13,11,7,3.04,,,,3,0,Maurice Broaddus,,,,,,232,13,,"crime,fantasy,fiction,mythology,politics,urban-fantasy"
10417501,0446562467,House of Lies: How Management Consultants Steal Your Watch and Then Tell You the Time,9780446562461,,,,ES,2009/6/27,Business Plus,,true,13,885937,1590,2221,654,53,2005/5/5,House of Lies: How Management Consultants Steal Your Watch Then Tell You the Time,book,117,180,235,89,33,3.40,,ebook,,0,0,Martin Kihn,,,,,,775,7,55,"biography,business,crime,fiction,memoir,modern,non-fiction,politics,psychology"
10418501,0785269959,"Daily Guideposts, 2001: Spirit-Lifting Thoughts for Every Day of the Year",9780785269953,,,,ES,2000/10/20,Thomas Nelson,,false,1,10418501,14,34,7,3,2000/10/20,,,6,1,0,0,0,4.86,416,Hardcover,,7,3,Daily Guideposts,,,,,,3,1,,religion
10419001,0984284753,The Jeffrey Journey - 2010 Edition,9780984284757,,,,ES,,,,true,1,10419001,1,5,1,0,2010/2/27,,,1,0,0,0,0,5.00,,,,1,0,Helen Baldwin,,,,,,,0,,
10419501,8489884943,Bleda y Rosa: Memoriales,9788489884946,,,,ES,2011/8/31,Fabrica,,false,1,10419501,0,0,0,0,2011/8/31,,,0,0,0,0,0,0.00,65,Hardcover,,0,0,,,,,,,,0,,
10420001,1111519536,Race and Ethnicity in Society: The Changing Landscape,9781111519537,,,,ES,2011/1/25,Wadsworth Publishing Company,,false,4,10420001,129,103,28,3,2005/1/1,,,6,14,4,1,3,3.68,462,Paperback,,23,3,"Elizabeth Higginbotham,Margaret L. Andersen",,,,,,82,2,1,non-fiction
10421001,0061257354,The Proper Care and Feeding of Marriage,9780061257353,,,,ES,2007/1/2,HarperAudio,,false,30,56156,3817,8125,2107,314,2007/1/1,,book,661,775,458,133,80,3.86,,Audio,,2,0,"Laura Schlessinger,Lily Lobianco",,,,,,550,16,71,"faith,family,health,inspirational,marriage,non-fiction,personal-development,psychology,relationships,self-help"
10421501,0896583961,Seattle,9780896583962,,,,ES,1998/10/1,Voyageur Press (MN),,false,1,10421501,0,0,0,0,1998/10/1,,,0,0,0,0,0,0.00,96,Paperback,,0,0,"Barbara Sleeper,Mike Sedam",,,,,,,0,,
10423001,1578190584,Chol Hamoed: A Comprehensive Review of the Laws of the Intermediate Days of the Festivals,9781578190584,,,,ES,2005/1/1,"Mesorah Publications, Limited",,false,1,10423001,3,3,1,0,2005/1/28,,,0,0,1,0,0,3.00,221,Hardcover,,1,0,Dovid Zucker,,,,,,2,0,,
10423501,145570525X,"Critical Care, an Issue of Veterinary Clinics: Small Animal Practice",9781455705252,,,,ES,2011/7/28,Saunders,eng,false,1,10423501,1,0,0,0,2011/7/28,,,0,0,0,0,0,0.00,,Hardcover,,0,0,Tim Hackett,,,,,,1,0,,
10425001,8872261430,Canna/bis. Uso e abuso,9788872261439,,,,ES,1993/12/15,Stampa Alternativa,ita,false,2,10425001,31,31,8,0,1993/1/1,Canna/bis,book,2,4,1,1,0,3.88,60,Paperback,Millelire,7,0,Giancarlo Arnao,,,,,,4,0,,"essays,non-fiction,science"
10425501,,The Secret Passion of Twins,,,,,ES,2011/2/8,,eng,true,2,10425501,16,3,3,1,2011/2/8,The Secret Passion of Twins,book,0,0,0,0,3,1.00,,,,3,1,Jacqueline Howett,,,,,,2,6,,
10426001,0761352295,How Did Slaves Find a Route to Freedom?: And Other Questions about the Underground Railroad,9780761352297,,,,ES,2011/1/1,Lerner Publications (Tm),,false,4,10426001,26,42,10,3,2010/8/1,,,4,4,2,0,0,4.20,48,Hardcover,,9,3,Laura Hamilton Waxman,,,,,,10,0,,"biography,childrens,history"
10428001,9020205773,Kruiden Voor Lever En Gal (Ankertjes),9789020205770,,,,ES,,,swe,false,1,10428001,0,0,0,0,,,,0,0,0,0,0,0.00,,,,0,0,Jaap Huibers,,,,,,,0,,
10429501,0062084607,Teeth: Vampire Tales,9780062084606,,,,ES,2011/4/5,HarperCollins,,true,7,8428157,7536,6965,1932,231,2011/4/17,Teeth,book,506,533,593,224,76,3.61,480,ebook,,13,7,"Cassandra Clare,Catherynne M. Valente,Cecil Castellucci,Christopher Barzak,Delia Sherman,Ellen Kushner,Emma Bull,Garth Nix,Genevieve Valentine,Holly Black,Jeffrey Ford,Kaaron Warren,Kathe Koja,Lucius Shepard,Melissa Marr,Nathan Ballingrud,Neil Gaiman,Steve Berman,Suzy McKee Charnas,Tanith Lee",,,"Ellen Datlow,Terri Windling",,,1769,42,66,"adult,anthologies,fantasy,fiction,gothic,horror,magic,paranormal,romance,short-stories,speculative-fiction,supernatural,teen,urban-fantasy,vampires,young-adult"
10430501,,K,2940038260299,,,,ES,,,,true,1,10430501,1,5,1,0,,,,1,0,0,0,0,5.00,,,,1,0,Aurel Kecskemethy,,,,,,,0,,
10431001,,WikiBooks: United States Geography,2940012733535,,,,ES,,,,true,1,10431001,0,0,0,0,2010/12/19,,,0,0,0,0,0,0.00,,,,0,0,Wikimedia Foundation,,,,,,,0,,
10431501,1423138457,Fetching,9781423138457,,,,ES,2011/11/8,Disney-Hyperion,,false,4,9588163,616,946,255,50,2011/1/1,,book,70,84,67,25,9,3.71,304,Hardcover,,18,6,Kiera Stewart,,,,,,282,23,10,"animals,fiction,middle-grade,psychology,realistic-fiction,young-adult"
10432001,161581843X,Rocking the Boat,9781615818433,,,,ES,2011/2/28,"Dreamspinner Press, LLC",eng,false,3,10432022,766,1230,331,44,2011/2/28,,book,69,128,109,21,4,3.72,230,Paperback,,4,1,Christopher Koehler,,,,,,326,14,8,"college,contemporary,erotica,fiction,gay,romance,school,sports"
10432501,,Internal Anomaly,2940011074592,,,,ES,,,,true,1,10432501,3,5,2,0,2010/7/23,,,0,0,1,1,0,2.50,,,,2,0,Cheyenne Hunter,,,,,,1,0,,
10433501,,He's Back!,,B004H4XNGS,,,ES,,,eng,true,2,10433501,1,5,1,0,2010/12/1,,,1,0,0,0,0,5.00,,Kindle Edition,,1,0,Sharon Schenbeck,,,,,,,0,,
10434001,1421539357,"Claymore, Vol. 18: The Ashes of Lautrec (Claymore, #18)",9781421539355,,,,ES,2011/6/7,VIZ Media LLC,eng,false,11,10434001,1617,4551,1062,31,2010/7/2,クレイモア 18,book,504,386,145,25,2,4.29,191,Paperback,,1002,30,Norihiro Yagi,,,,,,235,28,2,"action,adult,adventure,comics,demons,fantasy,fiction,graphic-novels,horror,manga,mystery,romance,science-fiction,supernatural,thriller,young-adult"
10434501,0449211908,Faith Is the Answer,9780449211908,,,,ES,1981/6/12,Random House Publishing Group,eng,false,5,6506241,66,15,4,0,1955/1/1,Faith Is the Answer,book,1,2,0,1,0,3.75,0,Mass Market Paperback,,0,0,Norman Vincent Peale,,,,,,46,1,6,"non-fiction,psychology,self-help"
10437001,,O marquez de Pombal ,2940038409476,,,,ES,,,,true,1,10437001,0,0,0,0,,,,0,0,0,0,0,0.00,,,,0,0,Oliveira Lima Pamphlet Collection Oliveira Lima Li Angelina Vidal,,,,,,,0,,
10437501,,The Pink Room,,B004FPZ6D2,,,ES,,,en-GB,true,3,1962099,130,163,41,12,2005/11/22,The Pink Room,,14,18,5,2,2,3.98,,,,6,0,Mark Laflamme,,,,,,83,2,,"fiction,horror,literary-fiction,paranormal,supernatural"
10438001,,Notes from Underground,,,,,ES,1994/9/1,,eng,false,479,49455,132918,235988,56641,3605,1864/1/1,Записки из подполья,book,24897,19868,9037,2081,758,4.17,136,Paperback,First Vintage Classics Edition,8,0,Fyodor Dostoyevsky,,,,,,56309,247,4736,"adult-fiction,classic-literature,classics,dark,drama,fiction,historical,historical-fiction,literary-fiction,literature,novella,novels,philosophy,psychology,school,short-stories,unfinished"
10438501,,Grailblazers,,B002TZ3CKO,,,ES,2009/10/1,Orbit,en-US,true,9,1404044,1628,2939,804,22,1994/1/1,Grailblazers,book,159,302,268,57,18,3.66,,,,35,0,Tom Holt,,,,,,630,16,15,"adult,comedy,faith,fantasy,fiction,funny,humor,mythology,science-fiction,urban-fantasy"
10439501,,"Superfoods For Dummies®, Mini Edition",,B004MPRU2A,,,ES,,,eng,true,1,10439501,24,48,13,0,2010/12/7,,,5,1,6,0,1,3.69,,,,13,0,"Brent Agin,Shereen Jegtvig",,,,,,5,0,3,food
10440501,,The Eagle of the Ninth,,,,,ES,1954/1/1,Oxford University Press,eng,false,62,149405,17539,30978,7906,703,1954/1/1,The Eagle of the Ninth,book,2330,3222,1857,372,125,3.92,255,Hardcover,,1,0,Rosemary Sutcliff,,,,,,7856,51,236,"action,adventure,british-literature,childrens,classics,fantasy,fiction,historical,historical-fiction,history,juvenile,literature,middle-grade,mystery,novels,romance,school,teen,war,young-adult"
10443501,,"Some Days Are Diamonds, Some Are Murder! (The Carly McCloskey Mysteries)",,B004M8SYYK,,,ES,,,eng,true,1,10443501,13,5,1,1,2011/2/4,,book,1,0,0,0,0,5.00,,,,1,1,Sheri Gill,,,,,,11,0,,
10446501,1612420079,Ceres,9781612420073,,,,ES,2010/11/22,Phoenix Pick,,false,4,11080792,71,126,31,2,2009/7/1,,book,9,16,5,1,0,4.06,490,Paperback,,5,0,L. Neil Smith,,,,,,31,0,2,science-fiction-fantasy
10447001,,Tranny Temptations,2940011131455,,,,ES,,,,true,3,10447001,7,2,1,1,2009/6/8,,,0,0,0,1,0,2.00,,,,1,1,Blake Worthington,,,,,,6,0,,
10448001,0821721984,Passion's Angel,9780821721988,,,,ES,1987/10/1,Zebra,,false,2,10448001,87,152,36,1,1987/1/1,,book,19,9,5,3,0,4.22,,Paperback,,3,0,Betty Brooks,,,,,,19,1,7,romance
10449501,1843396521,Reducing Peak RDII Flow Rates: Case Studies and Protocol - Werf Report Collection Systems (99-Wwf-8),9781843396529,,,,ES,2004/4/1,IWA Publishing,,false,1,10449501,0,0,0,0,2004/4/28,,,0,0,0,0,0,0.00,127,Paperback,,0,0,S. Merrill,,,,,,,0,,
10450501,0578000830,"Tc, Key Lime Man",9780578000831,,,,ES,2010/8/8,S.C. Macdorman,eng,false,1,10450501,0,0,0,0,2010/8/8,,,0,0,0,0,0,0.00,108,Paperback,,0,0,S.C. MacDorman,,,,,,,0,,
10452001,6071601886,Jose Vasconcelos: Iconografia,9786071601889,,,,ES,,,,false,1,10452001,2,0,0,0,2010/4/22,,,0,0,0,0,0,0.00,,,,0,0,Rafael Vargas,,,,,,1,0,,
10452501,1453595732,Love of Souls,9781453595732,,,,ES,2010/11/22,Xlibris,,false,3,10452500,0,0,0,0,2010/11/22,,,0,0,0,0,0,0.00,70,Paperback,,0,0,Sandy Lee Thrasher,,,,,,,0,,
10454001,8877170301,Au Revoir FR 1998,9788877170309,,,,ES,,,,false,1,10454001,0,0,0,0,1999/2/8,,,0,0,0,0,0,0.00,,,,0,0,A. Heydari,,,,,,,0,,
10456501,8860735572,Cronologia di una scoperta,9788860735577,,,,ES,2009/3/1,Baldini Castoldi Dalai editore,ita,false,3,10456501,41,44,13,3,2009/3/1,Cronologia di una scoperta,book,3,1,8,0,1,3.38,194,Hardcover,I Saggi #385,13,3,Rita Levi-Montalcini,,,,,,17,0,1,science
10457501,8420490563,Las visiones de Lucrecia,9788420490564,,,,ES,,,,true,7,7328319,371,282,96,22,13/1/1,,book,6,19,42,21,8,2.94,,,,0,0,José María Merino,,,,,,84,3,-1,"drama,novels"
10458001,1567202896,Collective Entrepreneurship in a Globalizing Economy,9781567202892,,,,ES,1999/7/30,Praeger,,false,2,10458001,4,11,4,1,1999/7/1,,,1,1,0,0,2,2.75,168,Hardcover,,3,0,Panos Mourdoukoutas,,,,,,,0,,
10458501,0915520400,Ochre Robe an Autobiography,9780915520404,,,,ES,,,,false,1,10458501,0,0,0,0,1980/1/1,,,0,0,0,0,0,0.00,,,,0,0,Agahananda Bharati,,,,,,,0,,
10459501,1935155806,All in a Day's Work: Careers Using Science,,,,,ES,,,eng,false,4,5138791,1,0,0,0,2006/1/1,,,0,0,0,0,0,0.00,,,2nd Edition,0,0,Megan Sullivan,,,,,,1,0,,
10461001,096940770X,Natural Landscapes Of The Dundas Valley,9780969407706,,,,ES,,,eng,false,1,10461001,1,0,0,0,,,,0,0,0,0,0,0.00,,,,0,0,"Richard; Kosydar, Eleanore Kosydar",,,,,,1,0,,
10461501,1877950211,TAI CHI Fundamentals: For Healthcare Professionals and Instructors,9781877950216,,,,ES,,,,false,1,10461501,0,0,0,0,1999/10/28,,,0,0,0,0,0,0.00,,,,0,0,"David Braga,Tricia Yu",,,,,,,0,,
10462501,,The Far Horizon,2940023722627,,,,ES,,,,true,28,21222979,6,5,1,0,1907/1/1,,book,1,0,0,0,0,5.00,,,,0,0,Lucas Malet,,,,,,3,0,1,
10463501,1907294511,Chicken. the Adventures of a Chicken,9781907294518,,,,ES,,,,false,1,10463501,0,0,0,0,2010/4/5,,,0,0,0,0,0,0.00,,,,0,0,Andrey Obolensky,,,,,,,0,,
10464501,8835954215,L'assalto Al Cielo: Ascesa E Caduta Di Bipop Carire,9788835954217,,,,ES,2003/6/16,,ita,false,1,10464501,6,7,2,0,2003/1/1,,book,0,1,1,0,0,3.50,216,,,2,0,Gabriele Franzini,,,,,,1,0,0,
10465501,8806200534,Il potere delle immagini. Il mondo delle figure: reazioni e emozioni del pubblico,9788806200534,,,,ES,,,ita,false,6,1259369,299,301,77,2,1989/6/15,The Power of Images: Studies in the History and Theory of Response,book,22,32,18,4,1,3.91,,Paperback,Piccola biblioteca Einaudi. Nuova serie,2,0,David Freedberg,,,,Giovanna Perini,,154,2,13,"anthropology,art,christianity,criticism,essays,feminism,grad-school,history,non-fiction,philosophy,politics,psychology,religion,science"
10467501,1861630336,The Magical History of the Horse,9781861630339,,,,ES,1998/12/1,Capall Bann Publishing,,false,2,1602883,32,17,5,0,,The Magical History of the Horse,book,1,1,2,1,0,3.40,206,Paperback,,0,0,"Janet Farrar,Virginia Russell",,,,,,25,1,,
10468001,0028219597,Civics: Responsibilities+citizenship,9780028219592,,,,ES,1999/4/1,McGraw-Hill/Glencoe,,false,7,2703605,11,15,4,0,1992/12/1,Civics: Responsibilities and Citizenship,,2,1,0,0,1,3.75,,Unknown Binding,,1,0,David C. Saffell,,,,,,,0,1,
10469001,,The Watchman of Ephraim (Book Club Edition),2940012143983,,,,ES,,,,true,8,10769606,318,376,97,51,2011/1/1,,book,28,41,18,8,2,3.88,,,,0,0,Gerard de Marigny,,,,,,193,5,9,fiction
10469501,1604244836,The Miracle of Right Thought,9781604244830,,,,ES,2007/11/8,Book Jungle,eng,false,46,1928977,307,362,83,11,1910/1/1,"Miracle of Right Thought, The",book,44,26,12,1,0,4.36,376,Paperback,,3,2,Orison Swett Marden,,,,,,160,4,35,"business,health,philosophy,psychology,self-help"
10470001,201016606X,"Le Moyen Age: De Hugues Capet À Jeanne D'arc, 987 1460",9782010166068,,,,ES,,,tur,false,9,1071617,221,188,48,5,1987/1/1,"Histoire de France, Le Moyen Age",book,12,22,12,2,0,3.92,,,,1,0,Georges Duby,,,,,,131,3,4,"class,france,history,medieval,non-fiction"
10471001,1424115213,Carol's Precious Moments,9781424115211,,,,ES,2006/6/19,Publish America,,false,1,10471001,0,0,0,0,2006/6/30,,,0,0,0,0,0,0.00,64,Paperback,,0,0,Carol   Smith,,,,,,,0,,
10472001,8861238238,Un mondo migliore,9788861238237,,,,ES,2010/10/21,Edizioni BD,ita,false,13,5986331,12262,35035,8833,362,2009/1/1,Time of Your Life,book,3077,3078,2118,424,136,3.97,132,Paperback,Supersonic,6,0,"Jeph Loeb,Joss Whedon",,,,,,1987,117,21,"action,adult,adventure,american,comics,demons,fantasy,feminism,fiction,graphic-novels,graphic-novels-comics,horror,humor,magic,paranormal,romance,science-fiction,supernatural,teen,time-travel,urban-fantasy,vampires,witches,young-adult"
10473001,9603293512,"Παρενοχλήσεις (Καστράτο, #6)",9789603293514,,,,ES,2002/1/1,Γράμματα,gre,false,1,10473001,240,858,192,3,2002/1/1,Παρενοχλήσεις,book,113,58,20,0,1,4.47,63,Paperback,,192,3,"Arkas,Αρκάς",,,,,,14,5,,"comedy,comics,funny,graphic-novels,graphic-novels-comics,humor"
10473501,,From Housewife To Cuckoldress,,B004KPM1OO,,,ES,,,en-GB,true,2,12968900,37,31,10,2,2011/1/24,,,1,2,4,3,0,3.10,,Kindle Edition,,3,0,Alex Hathaway,,,,,,21,0,1,fiction
10474001,8886928742,Fanteria all'attacco. Dal fronte occidentale a Caporetto,9788886928748,,,,ES,2004/1/1,Libreria Editrice Goriziana,ita,false,26,250838,5975,9972,2369,90,1937/1/1,Infanterie greift an,book,1069,830,386,65,19,4.21,427,Paperback,,3,1,Erwin Rommel,,Fabio Mini,,Giorgio Cuzzelli,,3137,27,198,"autobiography,biography,biography-memoir,business,historical,history,leadership,memoir,non-fiction,philosophy,war"
10474501,0743536614,McNally's Bluff,9780743536615,,,,ES,2004/7/26,Simon & Schuster Audio,,false,14,135897,1290,2945,772,32,2004/7/26,McNally's Bluff,book,211,285,211,52,13,3.81,0,Audio,Abridged,1,0,"Boyd Gaines,Lawrence Sanders,Vincent Lardo",,,,,,235,12,30,"adult,fiction,mystery,mystery-thriller,suspense,thriller"
10475001,0752456105,Mother Country: Britain's Black Community on the Home Front 1939-45,9780752456102,,,,ES,2010/9/23,The History Press,en-GB,false,4,10475001,33,34,8,0,2010/9/23,,,3,4,1,0,0,4.25,160,Paperback,,8,0,Stephen    Bourne,,,,,,14,1,,"history,non-fiction,research"
10475501,,The Evolution of Sinn Fein,2940024165041,,,,ES,,,,true,6,20879442,6,13,3,0,2008/11/1,,,1,2,0,0,0,4.33,,,,0,0,Robert Mitchell Henry,,,,,,1,0,2,
10476501,1101484535,A Discovery of Witches,9781101484531,,,,ES,2011/2/8,Penguin Audio,eng,false,117,8667848,598406,1196071,299297,29874,2011/2/8,A Discovery of Witches,book,122746,94397,51497,19605,11052,4.00,,Audiobook,Unabridged,92,41,Deborah Harkness,,,,,Jennifer Ikeda,238341,1447,16223,"adult,adult-fiction,adventure,chick-lit,contemporary,demons,fantasy,fiction,ghosts,historical,historical-fiction,history,magic,magical-realism,mystery,novels,paranormal,romance,science-fiction,science-fiction-fantasy,supernatural,time-travel,unfinished,urban-fantasy,vampires,witches,young-adult"
10477001,,Immortal Ecstasy (Immortal Lovers #1),2940011171017,,,,ES,,,,true,3,10477001,20,33,10,1,2010/12/30,,book,2,2,4,1,1,3.30,,,,9,1,Lanette Curington,,,,,,7,0,,"chick-lit,fantasy,romance"
10477501,0415891442,Digital Governance: New Technologies for Improving Public Service and Participation,9780415891448,,,,ES,2011/9/27,Routledge,,false,9,10477502,6,9,2,0,2011/8/15,,,1,1,0,0,0,4.50,351,Paperback,,1,0,Michael E. Milakovich,,,,,,3,0,,
10479501,1449400256,"Making Words Dance: Reflections on Red Smith, Journalism, and Writing",9781449400255,,,,ES,2010/9/14,"Andrews McMeel Publishing, LLC",,true,3,8437662,16,19,5,1,2010/4/6,,,1,2,2,0,0,3.80,336,ebook,,1,1,"Robert Schmuhl,Terence Smith",,,,,,8,0,2,writing
10481001,054983883X,The impacts of an asset-building intervention on rural households in Sub-Saharan Africa.,9780549838838,,,,ES,,,,false,1,10481001,0,0,0,0,,,,0,0,0,0,0,0.00,,,,0,0,Gina Agnes Nyirenda Chowa,,,,,,,0,,
10481501,1452055645,Fox Elvensword and the Sword of Bhaal (Fox Elvensword #1),9781452055640,,,,ES,2010/11/24,Authorhouse,eng,false,5,10481501,8,24,5,1,2010/1/1,,book,4,1,0,0,0,4.80,412,Paperback,,2,1,George Allen Butler II,,,,,,2,0,1,
10482001,3866784678,"Just Like a Painting: Creators in the 21st Century. Texts, Susanne Burmester",9783866784673,,,,ES,2011/1/1,Kerber Verlag,eng,false,1,10482001,0,0,0,0,2011/1/1,,,0,0,0,0,0,0.00,,Hardcover,,0,0,"Gabriele Detterer,Kai Uwe Schierz,Ralf Hanselle",,,,,,,0,,
10482501,,"Calamity Jayne (Calamity Jayne, #1)",,B004LROPCM,,,ES,2011/1/31,,,true,8,264303,5924,11199,2981,295,2006/1/1,Calamity Jayne,book,806,1062,797,214,102,3.76,326,,,653,38,Kathleen Bacus,,,,,,2138,27,168,"adult,amazon,chick-lit,comedy,contemporary,cozy-mystery,crime,detective,fiction,funny,humor,modern,mystery,mystery-thriller,romance,suspense"
10484001,,Kate's Fan,,B002Z13UJ0,,,ES,,,,true,3,10484001,1,0,0,0,,,,0,0,0,0,0,0.00,,,,0,0,Elizabeth Silance Ballard,,,,,,,0,,
10484501,,A Bed of Sand,,B004ISKMAS,,,ES,2011/1/12,Harlequin K.K. / SOFTBANK Creative Corp.,eng,true,5,16081453,2565,945,243,13,2004/1/1,,book,99,59,56,17,12,3.89,,,,14,1,Laura Wright,Kyoko Sagara,,,,,340,10,24,"drama,graphic-novels,manga,romance"
10485001,161590347X,Figuras: Cuadrados (Shapes: Squares),9781615903474,,,,ES,2010/1/1,,,false,6,7913737,6,13,4,1,2007/8/1,Shapes Squares (Concepts),book,0,1,3,0,0,3.25,24,Paperback,,0,0,Esther Sarfatti,,,,,,,0,,"childrens,non-fiction"
10488001,1402010885,Making Forest Policy Work,9781402010880,,,,ES,2003/1/31,Springer,,false,1,10488001,0,0,0,0,2003/1/31,,,0,0,0,0,0,0.00,280,Hardcover,,0,0,Alastair I. Fraser,,,,,,,0,,
10488501,,"Purchase Valtrex, Order without prescription Valtrex",,,,,ES,,,eng,false,1,10488501,0,0,0,0,,,book,0,0,0,0,0,0.00,,,,0,0,Valtrex,,,,,,,0,,
10489501,1607789094,Travel South of France: Provence French Riviera and Languedoc-Roussillon - Illustrated Guide Phrasebook  Maps. Mobi Travel,9781607789093,,,,ES,2010/7/1,MobileReference,eng,true,3,20990501,8,10,4,0,,,,0,2,0,0,2,2.50,0,ebook,,0,0,MobileReference,,,,,,2,0,,
10490501,188812508X,Hunting: The Way It Was to Our Changing Alaska,9781888125085,,,,ES,,,,false,1,10490501,0,0,0,0,1997/5/1,,,0,0,0,0,0,0.00,,,,0,0,"Lenora Conckle,Lenora Conkle",,,,,,,0,,
10491001,0615408486,Daddy... why doesn't Santa use Elephants?,9780615408484,,,,ES,,,,false,1,10491001,1,3,1,0,2010/10/1,,,0,0,1,0,0,3.00,,,,1,0,BRB Publishing,,,,,,,0,,
10491501,0837302722,Foreman of Mechanics (Motor Vehicles),9780837302720,,,,ES,2014/1/1,National Learning Corp,,false,1,10491501,0,0,0,0,1994/12/28,,,0,0,0,0,0,0.00,,Paperback,,0,0,"Jack Rudman,National Learning Corporation",,,,,,,0,,
10492001,115732729X,"Intention: Behavior, Causes of Events, Planning, Theories of Political Behavior, Strategy, Quorum Sensing",9781157327295,,,,ES,2011/7/7,"Books LLC, Wiki Series",,false,1,10492001,0,0,0,0,,,,0,0,0,0,0,0.00,,Paperback,,0,0,Source Wikipedia,,,,,,,0,,
10492501,1611483271,Displaced Memories: The Poetics of Trauma in Argentine Women's Writing,9781611483277,,,,ES,2009/5/1,Bucknell University Press,eng,false,2,10349080,0,0,0,0,2009/5/1,,,0,0,0,0,0,0.00,202,Hardcover,,0,0,M. Edurne Portela,,,,,,,0,,
10493501,0099699508,Oriental Hotel,9780099699507,,,,ES,1994/4/27,Arrow Books Ltd,por,false,9,5563280,35,52,13,1,1985/1/1,Oriental Hotel,book,5,4,3,1,0,4.00,471,Paperback,,1,0,Janet Tanner,,,,,,10,0,2,historical-fiction
10494001,1452084041,Petrified Forest: Monster Hunters,9781452084046,,,,ES,2011/1/13,Authorhouse,,true,1,10494001,0,0,0,0,2010/11/29,,,0,0,0,0,0,0.00,,ebook,,0,0,James Ahlers Farson,,,,,,,0,,
10494501,1451296754,Truthfully Untold: Too Much Untold Continued,9781451296754,,,,ES,2010/4/19,America Star Books,,false,2,10676167,7,18,4,1,2009/1/1,,book,2,2,0,0,0,4.50,230,Paperback,,3,1,Dominique L. Watson,,,,,,3,0,,
10495501,1934056650,Living in the Excellence of Jesus! Workbook,9781934056653,,,,ES,2008/1/1,"Urban Ministries, Inc.",,false,1,10495501,0,0,0,0,2007/6/1,,book,0,0,0,0,0,0.00,60,Paperback,,0,0,Cheryl   Price,,,,,,,0,,
10498001,079183056X,BPVC Section III-Rules Construction Nuclear Facility Components-Div 1-Subsection ND-Class 3 Components,9780791830567,,,,ES,,,,false,1,10498001,0,0,0,0,2006/1/29,,,0,0,0,0,0,0.00,,,,0,0,American Society of Mechanical Engineers,,,,,,,0,,
10498501,1422476820,Evidence: Teaching Materials for an Age of Science and Statutes - 2010 Supplement,9781422476826,,,,ES,,,,false,2,10498501,0,0,0,0,1997/1/1,,,0,0,0,0,0,0.00,,,,0,0,Ronald L. Carlson,,,,,,,0,,
10500001,0760715238,Calm Technique: Meditation Without Magic or Mysticism,9780760715239,,,,ES,,,,false,9,1757191,205,237,71,8,1985/1/1,The Calm Technique: Meditation Without Magic or Mysticism,book,10,17,34,7,3,3.34,,,,0,0,Paul Wilson,,,,,,86,1,7,"health,inspirational,non-fiction,personal-development,self-help,spirituality"
10500501,0521744598,Objective Pet Pack (Student's Book and Pet for Schools Practice Test Booklet Without Answers with Audio CD): Pack for New Pet for Schools Exam,9780521744591,,,,ES,2009/9/14,Cambridge University Press,,false,1,10500501,1,0,0,0,2009/10/31,,,0,0,0,0,0,0.00,208,Unknown Binding,,0,0,"Barbara Thomas,Louise Hashemi",,,,,,,0,,
10503501,0739340875,Ladies' Man,9780739340875,,,,ES,2006/8/29,Random House Audio,eng,false,5,414644,2422,5372,1513,74,1997/7/1,Ladies' Man,book,300,472,537,169,35,3.55,0,Audio,,3,1,"Käthe Mazur,Suzanne Brockmann",,,,,,452,17,13,"adult-fiction,contemporary,fiction,mystery,romance,suspense"
10504001,1899003800,The Lord's Supper,9781899003808,,,,ES,,,eng,false,1,10504001,0,0,0,0,,,book,0,0,0,0,0,0.00,,,,0,0,John      Brown,,,,,,,0,,
10504501,084740868X,Bible Science and Creation:,9780847408689,,,,ES,,,,false,1,10504501,1,4,1,0,1992/9/28,,,0,1,0,0,0,4.00,,,,1,0,Henry M. Morris,,,,,,,0,,
10505001,0929730410,Special Effects,9780929730417,,,,ES,,,,false,1,10505001,1,0,0,0,1992/7/28,,,0,0,0,0,0,0.00,,,,0,0,David P. Gollub,,,,,,1,0,,
10506001,,"Notes and Queries, Index of Volume 2, May-December, 1850",2940011972805,,,,ES,,,,true,2,9310216,1,0,0,0,2010/5/15,,,0,0,0,0,0,0.00,,,,0,0,Various,,,,,,1,0,,
10506501,0201149141,Accents,9780201149142,,,,ES,,,,false,3,15252026,0,0,0,0,1985/1/28,,,0,0,0,0,0,0.00,,,,0,0,G. Mcconnell,,,,,,,0,,
10507501,9061406552,Geschroeide aarde,9789061406556,,,,ES,2000/1/1,De Groot Goudriaan,nl,false,2,6374654,23,41,11,0,1998/1/1,Groot Diuiwelsdood,book,1,7,2,1,0,3.73,406,Paperback,,1,0,Eleanor Baker,,,,Roelof Posthuma,,7,0,1,
10508001,1601515669,Ingenix University: Detailed Instruction for Appropriate ICD-10-CM Coding 2012,9781601515667,,,,ES,2011/7/1,Cengage Learning,,false,1,10508001,0,0,0,0,2011/6/1,,,0,0,0,0,0,0.00,,Paperback,,0,0,Ingenix,,,,,,,0,,
10511501,0143204793,The Power of One,9780143204794,,,,ES,2010/6/28,Penguin Australia,eng,false,86,122,116841,305491,70300,4930,1989/1/1,The Power of One,book,38384,21415,7770,1870,861,4.35,636,Paperback,Penguin Popular,53,8,Bryce Courtenay,,,,,,36835,88,1637,"adult,adult-fiction,adventure,classics,contemporary,cultural,drama,fiction,high-school,historical,historical-fiction,history,inspirational,literary-fiction,literature,memoir,non-fiction,novels,realistic-fiction,school,sports,unfinished,war,young-adult"
10514001,0495506125,Psychology,9780495506126,,,,ES,2008/1/25,,,false,20,3273153,37,54,15,0,2005/6/14,Psychology,book,5,3,4,2,1,3.60,672,Unbound,,0,0,James S. Nairne,,,,,,12,0,1,psychology
10514501,8374692774,Ksiega Snów,9788374692779,,,,ES,,,eng,false,26,417648,894,1462,380,31,1976/1/1,Libro de sueños,book,111,130,110,28,1,3.85,,,,8,0,Jorge Luis Borges,,,,,,163,7,14,"classics,fantasy,fiction,non-fiction"
10515001,0316175617,Stranger With My Face,9780316175616,,,,ES,2011/4/19,"Little, Brown Books for Young Readers",,true,27,838768,13976,32127,8241,511,1981/1/1,Stranger with My Face,book,2516,2965,2256,415,89,3.90,320,ebook,,15,1,Lois Duncan,,,,,,3690,60,101,"childrens,contemporary,fantasy,fiction,high-school,horror,juvenile,middle-grade,mystery,mystery-thriller,paranormal,realistic-fiction,romance,science-fiction,supernatural,suspense,teen,thriller,urban-fantasy,young-adult"
10516001,3442742323,Das letzte Kind,9783442742325,,,,ES,2011/4/11,,ger,false,51,5556466,57340,127034,30830,3936,2009/1/1,The Last Child,book,11507,13048,5037,958,280,4.12,448,Paperback,,15,2,John Hart,,,,,,21457,122,839,"abuse,adult,adult-fiction,contemporary,crime,detective,drama,fiction,literary-fiction,murder-mystery,mystery,mystery-thriller,novels,suspense,thriller"
10517501,0822597330,Connecticut,9780822597339,,,,ES,1996/9/1,Lerner Publishing Group,,false,6,4078184,5,6,2,1,1992/2/1,,,0,0,2,0,0,3.00,72,Paperback,,1,1,Amy Gelman,,,,,,2,1,,non-fiction
10519001,2020511509,La Rébellion française. Mouvements populaires et conscience sociale (1661-1789),9782020511506,,,,ES,2002/1/1,Le Seuil,fre,false,3,10518999,17,4,1,0,2002/1/1,,,0,1,0,0,0,4.00,609,Paperback,Collection: L'Univers historique.,1,0,Jean Nicolas,,,,,,3,0,,france
10519501,3875533682,Wandern Im Böhmerwald,9783875533682,,,,ES,,,ger,false,1,10519501,0,0,0,0,1990/1/1,,,0,0,0,0,0,0.00,,,,0,0,Gunther Fruth,,,,,,,0,,
10520001,1424209528,Picnic Day!,9781424209521,,,,ES,,,,false,2,1049687,7,3,1,0,2006/1/28,Picnic Day! (Ready-To-Read: Level 1),book,0,0,1,0,0,3.00,,,,0,0,"Artful Doodlers,Wendy Wax",,,,,,4,0,,
10520501,0764333666,"Long Branch, New Jersey: Reinventing a Resort",9780764333668,,,,ES,2009/10/30,Schiffer Publishing,,false,1,10520501,2,0,0,0,2009/11/20,,,0,0,0,0,0,0.00,128,Paperback,,0,0,Randall Gabrielan,,,,,,1,0,,
10521001,080699911X,Nostradamus and Beyond: 128 New Prophecies Based on His Techniques,9780806999111,,,,ES,1999/9/1,Sterling Publishing (NY),,false,1,10521001,4,2,1,0,1999/10/1,,,0,0,0,1,0,2.00,128,Paperback,,1,0,"Peter Lemeseurier,Peter Lemesurier",,,,,,1,0,,
10521501,0531284603,Temperature,9780531284605,,,,ES,2011/3/1,Scholastic,,false,5,4478120,7,9,2,1,2007/8/1,"Temperature (Blastoff! Readers, First Science)",,1,1,0,0,0,4.50,24,Paperback,,0,0,Kay Manolis,,,,,,3,1,,science
10522001,1120672414,Pelle the Conqueror: The Great Struggle (1917),9781120672414,,,,ES,2009/11/21,Kessinger Publishing,,false,6,13399447,24,50,13,1,1910/1/1,,,3,6,3,1,0,3.85,444,Paperback,,1,0,Martin Andersen Nexø,,,,,,-1,1,1,classics
10523501,2880466512,"The Best Tables, Chairs, Lights: Innovation and Invention in Design Products for the Home",9782880466510,,,,ES,2001/12/1,Rotovision,,false,1,10523501,1,0,0,0,1901/12/1,,,0,0,0,0,0,0.00,448,Hardcover,,0,0,"Clive Grinyer,Mel Byars",,,,,,,0,,
10524001,0761849947,Dostoyevsky's Stalker and Other Essays on Psychopathology and the Arts,9780761849940,,,,ES,2010/4/13,University Press of America,,true,4,7855886,14,0,0,0,2010/4/13,,,0,0,0,0,0,0.00,260,ebook,,0,0,Michael Sperber,,,,,,14,0,,non-fiction
10526001,1861563329,Essentials of Nursing Care: A Handbook for Nurse Practitioners,9781861563323,,,,ES,2008/4/21,Wiley,,false,1,10526001,0,0,0,0,2003/2/28,,,0,0,0,0,0,0.00,320,Paperback,,0,0,,,,Christopher Bassett,,,,0,,
10527001,,At The Old Writers Bar- That Damn Shakespeare (science fiction humor comedy),2940011172854,,,,ES,,,,true,1,10527001,0,0,0,0,2011/1/10,,,0,0,0,0,0,0.00,,,,0,0,James R. Coffey,,,,,,,0,,
10527501,3886184056,Nelles Guide: India South,9783886184057,,,,ES,1994/1/1,Nelles Verlag,,false,2,10527501,1,0,0,0,1994/1/1,,,0,0,0,0,0,0.00,,Paperback,,0,0,Robertson McCarta,,,,,,,0,,
10528501,0761301399,Making Shaped Books,9780761301394,,,,ES,1996/10/8,Millbrook Press,,false,2,6946648,1,0,0,0,,,,0,0,0,0,0,0.00,,Paperback,,0,0,"Gillian Chapman,Pam Robson",,,,,,1,0,,
10529001,1888998555,Bond Markets: Structures and Yield Calculations,9781888998559,,,,ES,1999/6/1,Global Professional Publishing,,false,3,4181311,1,4,1,0,1999/1/6,,book,0,1,0,0,0,4.00,120,Hardcover,,0,0,Patrick J. Brown,,,,,,,0,,
10529501,9021439050,De een zijn dood,9789021439051,,,,ES,2011/1/1,Querido,nl,false,2,10529501,255,457,142,11,2011/1/1,De een zijn dood,book,12,36,67,25,2,3.22,203,Paperback,,140,11,J. Bernlef,,,,,,62,5,3,"death,fiction,literature"
10530001,0140127623,Orson Welles,9780140127621,,,,ES,1989/11/1,Penguin Books,,false,15,1129670,607,957,245,16,1985/4/1,Orson Welles: A Biography,book,61,111,63,9,1,3.91,592,Paperback,,3,1,Barbara Leaming,,,,,,280,8,12,"biography,biography-memoir,film,historical,movies,non-fiction,school,unfinished"
10530501,9684300298,Juegos de Oto~no,9789684300293,,,,ES,,,rum,false,1,10530501,0,0,0,0,,,,0,0,0,0,0,0.00,,,,0,0,Aurora Marya Saavedra,,,,,,,0,,
10531501,0845126997,"Mechanisms of Action and Therapeutic Applications of Biologicals in Cancer and Immune Deficiency Disorders: Proceedings of a Hoffmann-La Roche-Smith Kline & French-UCLA Symposium, Held at Keystone, Colorado, April 23-30, 1988",9780845126998,,,,ES,1989/1/1,Alan R. Liss,,false,2,1247651,6,5,1,0,1989/1/1,Mechanisms of Action and Therapeutic Applications of Biologicals in Cancer and Immune Deficiency Disorders,,1,0,0,0,0,5.00,406,Hardcover,,0,0,"Charles H. Evans,David W. Golde",,Jerome Groopman,,,,5,0,,
10532001,,Lady Audley's Secret,,B002LLNS46,,,ES,,,lav,true,238,588747,42509,68088,18152,1023,1862/1/1,Lady Audley's Secret,book,4693,6593,5022,1341,503,3.75,,,,0,0,Mary Elizabeth Braddon,,,,,,22026,121,442,"adult,adult-fiction,british-literature,classic-literature,classics,college,crime,english-literature,fiction,gothic,grad-school,historical,historical-fiction,history,literary-fiction,literature,mystery,mystery-thriller,novels,romance,school,suspense,thriller,unfinished,victorian"
10532501,0226449351,Disease Maps: Epidemics on the Ground,9780226449357,,,,ES,2011/6/30,University of Chicago Press,en-GB,false,3,10532501,94,38,10,3,2011/5/30,,book,3,3,3,1,0,3.80,344,Hardcover,,10,3,Tom Koch,,,,,,72,1,1,"business,history,nature,non-fiction,science"
10533001,1403397236,Margaret and Sam: The Fantastical Adventure,9781403397232,,,,ES,,,eng,false,1,10533001,0,0,0,0,,,book,0,0,0,0,0,0.00,,,,0,0,Karen J. Hall,,,,,,,0,,
10534501,8875020264,Narcolepysy: a Dave McKean Retrospective,9788875020262,,,,ES,2003/1/1,"Beeld Beeld, Allen Spiegel Fine Arts, Hourglass",kor,false,3,4376461,117,183,41,0,2003/1/1,Narcolepsy (Retrospective tentoonstelling),book,24,12,5,0,0,4.46,,Paperback,,8,0,Dave McKean,,,,,,46,0,,"art,graphic-novels-comics"
10535001,1444650599,Adventures of a Young Naturalist,9781444650594,,,,ES,2009/7/24,Cullen Press,,false,17,10535002,8,11,3,0,2007/6/25,,,1,0,2,0,0,3.67,438,Paperback,,0,0,Lucien Biart,,,,,,3,0,,adventure
10535501,,Calamity Jane,,,,,ES,1935/1/1,Oxford University Press,,false,1,10535501,1,0,0,0,1935/1/1,,book,0,0,0,0,0,0.00,96,Hardcover,,0,0,Irene Arthur Lifford Plunket,E.E. Brier,,,,,,0,,
10536001,,Oracle's Legacy: Children of Sun (Book 1),2940011124853,,,,ES,,,,true,7,11552923,330,490,126,16,2008/9/8,Oracle's Legacy: Children Of Sun,book,39,46,32,6,3,3.89,,,,3,1,R.B. Holbrook,,,,,,168,11,6,"amazon,fantasy,fiction,science-fiction,urban-fantasy"
10536501,0516442163,Louis Pasteur: Enemy of Disease,9780516442167,,,,ES,1990/10/1,Children's Press(CT),,false,2,4698881,11,12,3,0,1990/10/1,Louis Pasteur: Enemy of Disease (Rookie Biographies),book,1,1,1,0,0,4.00,48,Paperback,,0,0,"Carol Greene,Steven Dobson",,,,,,4,2,,"biography,non-fiction,science"
10537501,141896414X,Rigby PM Plus: Leveled Reader Bookroom Package Red (Levels 3-5) Kitty Cat and Fat Cat,9781418964146,,,,ES,1999/9/1,Rigby,,false,1,10537501,5,3,1,0,1999/9/28,,book,0,0,1,0,0,3.00,,Paperback,,1,0,,,,,,,1,5,,picture-books
10538001,9264082026,Pisa Computer-Based Assessment of Student Skills in Science: Education and Skills (Pisa),9789264082021,,,,ES,2010/9/9,Organization for Economic Co-Operation & Development,,false,1,10538001,1,0,0,0,2010/9/9,,,0,0,0,0,0,0.00,132,Paperback,,0,0,,,,Organisation for Economic Co-operation and Development,,,1,0,,
10538501,0823623661,The Human Core: The Intrapsychic Base of Behavior,9780823623662,,,,ES,1990/9/1,International Universities Press,,false,2,10538501,3,0,0,0,1990/9/1,,,0,0,0,0,0,0.00,473,Hardcover,,0,0,Leo Rangell,,,,,,3,0,,
10539001,,Ang Lalaking Nagmahal Sa Akin: Blanca Dimagiba,,,,,ES,,Precious Pages Corporation,fil,false,1,10539001,71,53,11,0,,,book,9,2,0,0,0,4.82,,,,11,0,Vanessa (PHR),,,,,,58,0,2,
10539501,1158618921,"Former Cities in Missouri: Times Beach, Missouri, Bartonville, Missouri, Lutesville, Missouri, Santa Fe, Missouri, North Springfield, Missouri",9781158618927,,,,ES,2010/9/15,Books LLC,,false,1,10539501,0,0,0,0,,,,0,0,0,0,0,0.00,,Paperback,,0,0,,,,Books LLC,,,,0,,
10540001,115686531X,"Safavids: Safavid Dynasty, Safavid Conversion of Iran from Sunnism to Shiism, Abbas I of Persia, Ismail I, Tahmasp I, Ibrahim Mirza",9781156865316,,,,ES,2011/8/15,"Books LLC, Wiki Series",,false,1,10540001,4,0,0,0,2011/8/15,,,0,0,0,0,0,0.00,,Paperback,,0,0,Source Wikipedia,,,,,,2,0,,
10540501,0521225183,Child Language,9780521225182,,,,ES,1981/5/29,Cambridge University Press,,false,3,3772489,30,17,4,0,1981/3/24,Child Language (Cambridge Textbooks in Linguistics),,3,0,0,1,0,4.25,200,Hardcover,,0,0,Alison J. Elliot,,,,,,22,0,1,
10544501,0141189886,"Letters, 1945-59",9780141189888,,,,ES,2009/8/27,Penguin Classics,eng,false,10,23933,1027,1932,463,24,1993/7/27,The Letters of William S. Burroughs: Volume I: 1945-1959 ,book,206,154,81,21,1,4.17,434,Paperback,,14,2,William S. Burroughs,,,,,,431,5,9,"american,biography,biography-memoir,classics,essays,fiction,literature,non-fiction,poetry"
10545001,,Counting Christmas!,2940012056566,,,,ES,,,,true,2,10143121,0,0,0,0,2010/12/15,,,0,0,0,0,0,0.00,,,,0,0,"Casey Berna,Matthew McNamara",,,,,,,0,,
10546501,1849029180,Little Book of Eternal Wisdom,9781849029186,,,,ES,2009/11/28,Benediction Books,,false,25,18913141,64,41,10,0,1330/1/1,,book,4,3,3,0,0,4.10,166,Hardcover,,1,0,Henry Suso,,,,,,31,1,2,"christianity,faith,non-fiction,religion,spirituality,theology"
10547501,0897327403,"60 Hikes Within 60 Miles: New York City: Including Northern New Jersey, Southwestern Connecticut, and Western Long Island",9780897327404,,,,ES,2010/2/1,Menasha Ridge Press,,true,2,10547501,5,18,4,1,2010/2/1,,,3,0,1,0,0,4.50,402,ebook,,4,1,Christopher Brooks and Catherine Brooks,,,,,,1,0,,travel
10548001,1565610318,Fast Food Facts: Complete Nutrition Information on North America's,9781565610316,,,,ES,,,,false,8,6124139,15,12,3,0,1985/1/1,Fast food facts: Nutritive and exchange values for fast-food restaurants (Wellness & nutrition library),,1,1,1,0,0,4.00,,,,0,0,Marion J. Franz,,,,,,7,0,,
10548501,0263876756,Their Newborn Gift,9780263876758,,,,ES,,,eng,false,14,8239091,1844,3648,1022,75,2010/1/1,,book,244,303,312,117,46,3.57,,,,6,3,Nikki Logan,,,,,,351,18,23,"adult,chick-lit,contemporary,family,fiction,harlequin,romance"
10549001,,صاحب الأغاني أبو الفرج الأصفهاني,9789777044646,,,,ES,2011/1/1,الهيئة العامة لقصور الثقافة - القاهرة,ara,false,2,9435078,53,18,7,1,1962/1/1,,book,1,1,1,2,2,2.57,242,Paperback,الطبعة الرابعة - سلسلة ذاكرة الكتابة 125,1,0,محمد أحمد خلف الله,,,,,,38,0,1,
10549501,0451234871,"Last Breath (The Morganville Vampires, #11)",9780451234872,,,,ES,2011/11/1,NAL Hardcover,eng,false,22,10549501,42029,98974,22947,1249,2011/11/1,Last Breath,book,12046,6937,3259,514,191,4.31,335,Hardcover,,20882,1025,Rachel Caine,,,,,,13968,161,238,"action,college,contemporary,fantasy,fiction,ghosts,horror,magic,mystery,novels,paranormal,romance,supernatural,suspense,teen,urban-fantasy,vampires,young-adult"
10552501,,The Pixie Prince [A Twisted Tale from the Darkworld],2940043310194,,,,ES,,,,true,5,6666408,64,45,11,1,2009/7/3,The Pixie Prince (A Twisted Tale from the Darkworld),book,5,4,1,0,1,4.09,,,,2,0,Lex Valentine,,,,,,42,2,,"fantasy,paranormal,vampires"
10553001,1592599982,Cytochrome P450 Protocols,9781592599981,,,,ES,,,,true,9,1111325,1,0,0,0,1998/1/1,Cytochrome P450 Protocols,book,0,0,0,0,0,0.00,,ebook,NOOKstudy eTextbook,0,0,,,,"Elizabeth A. Shephard,Ian R. Phillips",,,,0,,
10554001,0205319297,Research Methods a Process of Inquiry,9780205319299,,,,ES,,,,false,22,6169635,138,157,46,2,1989/12/1,Research Methods: A Process of Inquiry,book,11,9,17,6,3,3.41,,,,0,0,Anthony M. Graziano,,,,,,56,3,5,"non-fiction,psychology"
10555001,1403499748,Frederick Douglass,9781403499745,,,,ES,2007/10/8,Heinemann Educational Books,,false,5,15487497,1,0,0,1,2007/1/1,,,0,0,0,0,0,0.00,24,Hardcover,,0,0,Cassie Mayer,,,,,,,0,,
10556001,1155145615,"1903 in England: 1903 Establishments in England, 1903 in London, University of Liverpool, Bradford City A.F.C., 1902-03 Football League",9781155145617,,,,ES,2011/7/4,"Books LLC, Wiki Series",,false,1,10556001,0,0,0,0,,,,0,0,0,0,0,0.00,,Paperback,,0,0,Source Wikipedia,,,,,,,0,,
10556501,0781296765,Palestine Dances! Folk Dances of Palestine: Music Book Index,9780781296762,,,,ES,,,,false,1,10556501,0,0,0,0,1993/3/28,,,0,0,0,0,0,0.00,,,,0,0,Corinne Chochem,,,,,,,0,,
10557001,0804818894,Instant Japanese,9780804818896,,,,ES,1993/6/15,Tuttle Publishing,eng,false,6,641900,146,133,41,4,1993/6/15,"Instant Japanese: How To Express 1,000 Different Ideas With Just 100 Key Words and Phrases!",book,4,14,13,8,2,3.24,120,Paperback,,0,0,Boyé Lafayette de Mente,,,,,,36,0,39,"cultural,language,non-fiction,travel"
10558001,1428867309,"Studyguide for Psychological Testing: History, Principles, and Applications by Gregory, ISBN 9780205468829",9781428867307,,,,ES,2009/4/23,Academic Internet Publishers,eng,false,1,10558001,2,0,0,0,2009/4/17,,,0,0,0,0,0,0.00,104,Paperback,,0,0,Cram101 Textbook Reviews,,,,,,1,0,,
10558501,0806999438,The Magnet Book,9780806999432,,,,ES,1997/12/31,Sterling,,false,2,10344222,2,4,1,1,1997/12/31,,,0,1,0,0,0,4.00,80,Hardcover,,0,0,"Leslie Johnstone,Shar Levine",,,,,,,0,,science
10559001,1440623937,Bridging the Gap: Raising a Child with Nonverbal Learning Disorder: Raising a Child with Nonverbal Learning Disorder,9781440623936,,,,ES,2002/4/1,Perigee Books,,true,1,10559001,1,0,0,0,2002/4/2,,,0,0,0,0,0,0.00,304,ebook,,0,0,Rondalyn Whitney,,,,,,1,0,,
10560001,1450716253,The Death Squad,9781450716253,,,,ES,2010/8/29,Trey Haynes,,false,1,10560001,0,0,0,0,2010/8/29,,,0,0,0,0,0,0.00,104,Paperback,,0,0,Trey Haynes,,,,,,,0,,
10560501,,10313 lubddhaagreisarachakravartiprahasanamu,2940039094428,,,,ES,,,,true,1,10560501,0,0,0,0,,,,0,0,0,0,0,0.00,,,,0,0,kaal'lakuurinaaraayand-a,,,,,,,0,,
10561501,1583880941,Studebaker Hawk: 1956-1964 Photo Archive,9781583880944,,,,ES,2003/7/13,Enthusiast Books,eng,false,2,10561501,0,0,0,0,2003/6/28,,,0,0,0,0,0,0.00,128,Paperback,,0,0,"Ed Reynolds,Shawn Glidden,Suzie Helberg",,,,,,,0,,
10562001,0812693531,Legalized Gambling: For and Against,9780812693539,,,,ES,1999/2/9,Open Court,eng,false,2,871240,1,4,1,0,1999/2/9,"Legalized Gambling: For and Against (For and Against, V. 2)",,0,1,0,0,0,4.00,320,Hardcover,,0,0,Mark E. Hance,,,Rod L. Evans,,,,0,,
10562501,080104751X,Reading the Lines: A Fresh Look at the Hebrew Bible,9780801047510,,,,ES,2002/7/1,Baker Academic,,false,1,10562501,3,14,3,0,2002/7/1,,,2,1,0,0,0,4.67,227,Hardcover,,3,0,Pamela Tamarkin Reis,,,,,,,0,,
10563001,0894950606,Write for Success: A Guide to Business and the Professions,9780894950605,,,,ES,,,,false,1,10563001,0,0,0,0,1986/6/1,,,0,0,0,0,0,0.00,,,,0,0,Gregory Allen Barnes,,,,,,,0,,
10565001,0307290778,Heart of Darkness,9780307290779,,,,ES,2006/1/1,Knopf Publishing Group,eng,false,2239,4900,583788,1226011,358472,11821,1899/1/1,Heart of Darkness,book,77911,103066,98428,49841,29226,3.42,110,Paperback,Premier Classics,38,2,Joseph Conrad,,,,,,151852,2333,11829,"adult,adult-fiction,adventure,british-literature,classic-literature,classics,college,drama,english-literature,fiction,high-school,historical,historical-fiction,history,horror,literary-fiction,literature,novella,novels,philosophy,school,travel,unfinished,victorian"
10565501,1842832212,Game to Miss Cowan,9781842832219,,,,ES,2002/1/1,Soundings,,false,3,5537374,3,3,1,0,2002/1/1,Game to Miss Cowan,,0,0,1,0,0,3.00,,Audio,,0,0,"Frances Paige,Lesley Mackie",,,,,,1,0,,
10566501,0061888397,"The Wild One (Phantom Stallion, #1)",9780061888397,,,,ES,2009/3/24,,,true,17,1271408,6163,15508,3753,122,2002/1/1,,book,1755,1016,750,187,45,4.13,224,ebook,,4,1,Terri Farley,,,,,,1041,20,35,"adventure,animals,childrens,contemporary,fiction,middle-grade,realistic-fiction,teen,young-adult"
10567001,0060419962,Mass Media and the National Experience: Essays in Communications History,9780060419967,,,,ES,,,,false,1,10567001,0,0,0,0,1971/1/1,,,0,0,0,0,0,0.00,,,,0,0,"John D. Stevens,Ronald T. Farrar",,,,,,,0,,
10569001,3899935810,Sanft Heilen Mit Ayurveda: Die Verschwenderische Kraft Der Ayurvedischen Küche,9783899935813,,,,ES,,,ger,false,1,10569001,1,0,0,0,2010/1/1,,,0,0,0,0,0,0.00,,,,0,0,Gudrun Glock,,,,,,,0,,
10569501,0873897897,Continuous Improvement in the History and Social Studies Classroom,9780873897891,,,,ES,2010/8/5,ASQ Quality Press,,false,1,10569501,0,0,0,0,2010/6/29,,,0,0,0,0,0,0.00,140,Hardcover,,0,0,Daniel R. McCaulley,,,,,,,0,,
10570001,,As mil e uma noites - volume 6,972420958X,,,,ES,1994/1/1,Círculo de Leitores,por,false,3,10570001,16,19,5,0,900/1/1,ألف ليلة وليلة / Alf layla wa-layla,book,2,1,1,1,0,3.80,485,Hardcover,,4,0,Anonymous,,,,"Joseph-Charles Mardrus,Manuel João Gomes",,7,0,,
10571001,081671942X,Freshwater Fishing: A Step-By-Step Guide,9780816719426,,,,ES,,,,false,1,10571001,0,0,0,0,1990/7/1,,,0,0,0,0,0,0.00,,,,0,0,Richard Smithsen,,,,,,,0,,
10572501,8537800821,Filmar o real: sobre o documentário brasileiro contemporâneo,9788537800829,,,,ES,2008/1/1,Zahar,por,false,1,10572501,13,20,6,0,2008/1/1,,book,0,2,4,0,0,3.33,94,,,6,0,"Cláudia Mesquita,Consuelo Lins",,,,,,2,0,,
10573001,9836209522,Alungei,9789836209528,,,,ES,1989/1/1,"Dewan Bahasa dan Pustaka, Kementerian Pendidikan Malaysia",msa,false,1,10573001,3,7,2,1,1989/1/1,,book,0,1,1,0,0,3.50,107,Paperback,,2,1,Abdul Manaff Ahmad Zainie,,,,,,1,0,,
10574001,,Comprehensive Collection of Civil War Classics,2940012281364,,,,ES,,,,true,1,10574001,3,0,0,0,2011/2/13,,book,0,0,0,0,0,0.00,,,,0,0,"Robert E.      Lee,Stephen Crane,Ulysses S. Grant,William A. Canfield",,,,,,3,0,,
10575001,006046108X,Stagflation: An Introduction to Traditional and Radical Macroeconomics,9780060461089,,,,ES,,,,false,1,10575001,3,4,1,0,1982/1/1,,,0,1,0,0,0,4.00,,,,1,0,Howard J. Sherman,,,,,,2,0,,economics
10575501,,Nymphomaniac: Book 3: Marked,2940043334275,,,,ES,,,,true,1,10575501,1,0,0,0,2009/9/28,,,0,0,0,0,0,0.00,,,,0,0,Sarah Masters,,,,,,1,0,,
10578001,6074151229,"Julio Verne II: 20,000 Leguas de Viaje Submarino/La Isla Misteriosa",9786074151220,,,,ES,2010/8/1,Tomo,,false,3,6265685,1501,4114,957,19,2003/1/1,"CAPTAIN NEMO: 20,000 Leagues Under the Sea and The Mysterious Island",book,469,342,116,23,7,4.30,571,Paperback,,136,7,Jules Verne,,,,,,332,13,26,"adventure,childrens,christian,classic-literature,classics,fantasy,fiction,science-fiction,speculative-fiction,travel"
10579501,412203230X,はだしのゲン 7,9784122032309,,,,ES,,,,false,1,10579501,3,6,2,0,,,,0,0,2,0,0,3.00,,,,2,0,"Keiji Nakazawa,中沢 啓治",,,,,,1,0,,
10581001,1156937450,"Villages in Hanumangarh District: Kalibangan, Jhansal, Birkali, Gogamedi, Dhadhela, Dablirathan, Ramrarh, Hanumangarh District, Dhaban, Fefana",9781156937457,,,,ES,2010/9/15,Books LLC,,false,1,10581001,0,0,0,0,,,,0,0,0,0,0,0.00,,Paperback,,0,0,,,,Books LLC,,,,0,,
10581501,0761945105,Inside Full-Service Community Schools,9780761945109,,,,ES,2002/5/24,Corwin Publishers,,false,5,905968,6,0,0,0,2002/5/17,Inside Full-Service Community Schools,,0,0,0,0,0,0.00,256,Hardcover,,0,0,"Joy G. Dryfoos,Sue Maguire",,,,,,2,0,,education
10582001,0739128396,Speaking of Teaching: Lessons from History,9780739128398,,,,ES,2008/9/1,Lexington Books,,false,5,9107843,2,3,1,0,2008/1/1,,,0,0,1,0,0,3.00,195,Hardcover,,0,0,Gabriel Moran,,,,,,1,0,,
10582501,0802787541,Parts,9780802787545,,,,ES,2001/5/1,Walker & Company,,false,2,3610293,11,27,8,5,2001/4/1,Parts,,1,3,2,2,0,3.38,,Hardcover,,0,0,Shelley Rotner,,,,,,2,1,,
10583501,,Funky Flower Pull Through Scarf Crochet Pattern,2940011896828,,,,ES,,,,true,2,10583501,2,0,0,0,2009/11/20,,,0,0,0,0,0,0.00,,,,0,0,Sharon Santorum,,,,,,2,0,,
10584501,,Guida al Rinascimento in Italia,,,,,ES,1974/1/1,Mondadori,ita,false,1,10584501,1,0,0,0,1974/1/1,,book,0,0,0,0,0,0.00,335,Hardcover,1st edition,0,0,Luciano Zeppegno,,,,,,,0,,
10586001,0516025724,"What to Do When Your Mom or Dad Says, ""Clean Yourself Up!""",9780516025728,,,,ES,,,,false,2,10586001,12,5,1,1,1981/4/1,,,1,0,0,0,0,5.00,,,,0,0,Joy Berry,,,,,,4,2,,
10586501,0964993600,Richland Crossing: A Portrait Of Texas Pioneers,9780964993600,,,,ES,,,,false,1,10586501,2,0,0,0,,,,0,0,0,0,0,0.00,,,,0,0,Walter Clay Dixson,,,,,,1,0,,
10587001,,The Case Files of Thomas Carney,2940012197436,,,,ES,,,,true,3,12069370,156,68,16,4,2011/1/23,,book,7,6,3,0,0,4.25,,,,1,1,Cleo Wolfe,,,,,,128,6,1,"fiction,humor,mystery,paranormal,supernatural,urban-fantasy,vampires"
10588001,0838402348,"Heinle's Complete Guide to the TOEFL Test, CBT Edition [With Practice CD-ROM]",9780838402344,,,,ES,,,,false,36,1934370,758,480,112,6,1991/1/1,The Complete Guide to the TOEFL Test iBT Edition,book,62,31,12,3,4,4.29,,,,1,0,Bruce Rogers,,,,,,497,1,25,"education,non-fiction"
10589001,157860477X,"Movie Confidential: Sex, Scandal, Murder and Mayhem in the Film Industry",9781578604777,,,,ES,2010/9/29,Clerisy Press,,true,1,10589001,0,0,0,0,2010/9/29,,,0,0,0,0,0,0.00,240,ebook,,0,0,Andrew Schanie,,,,,,,0,,
10590501,1439052344,Managerial Economics (Custom Package),9781439052341,,,,ES,,,,false,19,4913345,204,82,23,0,1983/1/1,Managerial Economics,book,7,6,6,1,3,3.57,,,,0,0,Mark Hirschey,,,,,,134,0,12,"education,non-fiction"
10591501,0711232490,Canal Walks,9780711232495,,,,ES,2011/3/1,,swe,false,1,10591501,30,58,15,0,2011/3/1,,,4,6,4,1,0,3.87,,,,15,0,Julia Bradbury,,,,,,12,0,,"non-fiction,travel"
10592501,,Fara vill,9789100123628,,,,ES,2010/1/8,Albert Bonniers förlag,swe,false,1,10592501,57,123,36,1,2010/1/8,,book,3,15,13,4,1,3.42,123,Hardcover,,36,1,Elin Ruuth,,,,,,19,0,,"adult,fiction,poetry"
10593001,,Making Chocolate 101,2940012103796,,,,ES,,,,true,1,10593001,0,0,0,0,2011/2/2,,book,0,0,0,0,0,0.00,,,,0,0,Anonymous,,,,,,,0,,
10593501,,Forgotten Books,,,,,ES,,,eng,false,1,10593501,2,3,1,1,,,book,0,0,1,0,0,3.00,,,,1,1,Various,,,,,,1,0,,
10595501,,[The complete works of Charles Dickens],2940022454086,,,,ES,,,,true,32,11523199,3288,5020,1139,11,1868/1/1,,book,697,281,111,28,22,4.41,,,,0,0,Charles Dickens,,,,,,1483,19,469,"classic-literature,classics,collections,drama,english-literature,fiction,historical,historical-fiction,history,literature,reference,victorian"
10597001,,Cuentos del Mayab para niños,,,,,ES,2008/3/1,Fondo Editorial del Honorable Ayuntamiento de Solidaridad,spa,false,1,10597001,1,0,0,0,2008/3/1,,book,0,0,0,0,0,0.00,79,Paperback,1st edition,0,0,Marta de Juana,,,,,,,0,,
10598501,1586031759,Action Based Collaboration Analysis for Group Learning,9781586031756,,,,ES,,IOS Press,,false,1,10598501,0,0,0,0,2001/3/28,,,0,0,0,0,0,0.00,190,Paperback,,0,0,Martin Muhlenbrock,,,,,,,0,,
10599501,1441591192,My Struggle from Crack to Christ!,9781441591197,,,,ES,2010/10/20,Xlibris Corporation,eng,false,1,10599501,0,0,0,0,2010/10/20,,,0,0,0,0,0,0.00,208,Paperback,,0,0,Ricardo Comfort,,,,,,,0,,
10600001,1460920147,The Girl Who Couldn't Come,9781460920145,,,,ES,2011/2/1,Createspace,eng,false,2,10600001,943,1832,454,55,2011/2/17,,book,154,184,95,20,1,4.04,88,Paperback,,388,46,Joey Comeau,,,,,,402,10,12,"adult-fiction,comedy,contemporary,dark,erotica,fantasy,fiction,funny,horror,lgbt,magical-realism,queer,romance,short-stories"
10600501,1456804235,Dying In Good Old Age,9781456804237,,,,ES,,,,true,2,10539042,0,0,0,0,2010/11/11,,,0,0,0,0,0,0.00,,,,0,0,Jedidiah ''Dee'' Duaya,,,,,,,0,,
10602501,,Freedom of Speech: The Supreme Court and Judicial Review,2940012280688,,,,ES,,,,true,5,19410832,7,11,3,0,2011/2/11,,,1,0,2,0,0,3.67,,,,0,0,Martin M. Shapiro,,,,,,1,1,,
10603001,5457010589,Zaveshhanie bessmertnogo (Russian edition),9785457010581,,,,ES,,,,true,1,10603001,0,0,0,0,2000/1/1,,,0,0,0,0,0,0.00,,,,0,0,Evgenij Georgievich Sanin,,,,,,,0,,
10603501,2012450105,Italie Du Sud,9782012450103,,,,ES,,,fre,false,1,10603501,2,4,1,0,2010/1/1,,book,0,1,0,0,0,4.00,,Paperback,,1,0,"Collectif,Pierre Josse",,,,,,1,0,,
10604001,,"The Silencers (Matt Helm, #4)",,,,,ES,1962/1/1,Fawcett,eng,false,5,2078938,671,1645,421,25,1962/1/1,The Silencers,book,115,170,121,12,3,3.91,144,Paperback,,13,3,Donald Hamilton,,,,,,132,9,13,"action,adventure,crime,fiction,mystery,mystery-thriller,novels,suspense,thriller"
10605001,0739135430,Powers and Principles: International Leadership in a Shrinking World,9780739135433,,,,ES,2009/5/1,Lexington Books,,false,2,10605001,9,10,2,0,2009/5/1,,,2,0,0,0,0,5.00,367,Hardcover,,0,0,David Shorr,,,Michael Schiffer,,,6,0,,
10606001,185648629X,Ceramics: Antiques at a Glance,9781856486293,,,,ES,2002/5/28,PRC Publishing,fre,false,1,10606001,0,0,0,0,2002/5/28,,,0,0,0,0,0,0.00,144,Hardcover,,0,0,James MacKay,,,,,,,0,,
10606501,0061923087,Baseball Great,9780061923081,,,,ES,2009/3/24,HarperCollins,,true,16,4836417,3933,9506,2248,200,2000/2/29,Baseball Great,book,1121,676,334,78,39,4.23,272,ebook,,1,0,Tim Green,,,,,,1313,19,106,"adventure,childrens,contemporary,family,fiction,funny,juvenile,middle-grade,realistic-fiction,school,sports,young-adult"
10607001,1601468148,The Chapter Leader�s Guide to Environment of Care: Practical Insight on Joint Commission Standards,9781601468147,,,,ES,2011/4/20,"HCPro, a division of BLR",,false,1,10607001,0,0,0,0,2011/4/1,,,0,0,0,0,0,0.00,148,Paperback,,0,0,Thomas Huser,,,,,,,0,,
10608501,5425085516,Derzhava Sveta (sbornik) (Russian Edition),9785425085511,,,,ES,,,,true,1,10608501,0,0,0,0,2000/1/1,,,0,0,0,0,0,0.00,,,,0,0,Nikolaj Konstantinovich Rerix,,,,,,,0,,
10609001,884402716X,"Creare Per Il Bebé: [L'attesa, L'arrivo, Il Suo Mondo]",9788844027162,,,,ES,,,ita,false,1,10609001,1,0,0,0,2003/1/1,,,0,0,0,0,0,0.00,,,,0,0,Mara Antonaccio,,,,,,,0,,
10611501,,Pedoman Membaca dan Menulis Bahasa Seko Padang,2940022806984,,,,ES,,,,true,1,10611501,0,0,0,0,,,,0,0,0,0,0,0.00,,,,0,0,Thomas Laskowske,,,,,,,0,,
10612001,,The Teahouse Fire,,B000W917VA,,,ES,,,eng,true,21,47633,8178,10885,3120,442,2000/1/1,The Teahouse Fire,book,578,1045,950,418,129,3.49,,,,33,2,Ellis Avery,,,,,,4484,23,111,"adult,adult-fiction,cultural,fiction,food,historical,historical-fiction,history,lgbt,literary-fiction,literature,novels,queer,romance,unfinished"
10612501,1441771611,The Mistress of Nothing,9781441771612,,,,ES,2011/3/1,Blackstone Audiobooks,eng,false,30,6427742,6202,12417,3479,587,2009/7/9,The Mistress of Nothing,book,488,1453,1159,309,70,3.57,,Audiobook,,2,0,Kate Pullinger,,,,,Rosalyn Landor,2073,49,54,"adult,adult-fiction,adventure,cultural,family,fiction,historical,historical-fiction,history,literary-fiction,love,relationships,romance,travel,victorian"
10613001,085170722X,American Movie Audiences: From the Turn of the Century to the Early Sound Era,9780851707228,,,,ES,1999/4/1,British Film Institute,,false,2,5037025,19,30,8,1,1999/4/1,American Movie Audiences: From the Turn of the Century to the Early Sound Era,,1,4,3,0,0,3.75,224,Hardcover,,0,0,,,,"Melvyn Stokes,Richard Maltby",,,4,0,,
10613501,8132104684,Challenging the Injustice of Poverty: Agendas for Inclusive Development in South Asia,9788132104681,,,,ES,2010/10/4,Sage Publications (CA),,false,4,31865842,9,4,1,0,2010/1/1,,,0,1,0,0,0,4.00,486,Hardcover,,0,0,Rehman Sobhan,,,,,,7,0,,
10614001,0333036735,Birdy swings North,9780333036730,,,,ES,1969/1/1,Macmillan,eng,false,3,10614001,1,0,0,0,1969/1/1,,,0,0,0,0,0,0.00,,,,0,0,E.W. Hildick,,,,,,,0,,
10615001,1603105220,Naked Sin,9781603105224,,,,ES,,,,true,4,8871796,8,2,1,0,2010/8/1,,,0,0,0,1,0,2.00,,,,0,0,Brenda Williamson,,,,,,4,0,,fantasy
10616501,1456456520,Grow Your Wealth Using Weekly Options Trading,9781456456528,,,,ES,2011/1/22,Createspace Independent Publishing Platform,eng,false,2,10616501,3,4,1,0,2011/1/22,,,0,1,0,0,0,4.00,172,Paperback,,1,0,Jon Schiller,,,,,,2,0,,
10617501,4896447328,Shijō Saikyō No Tetsugaku Nyūmon: Tetsugaku Ni Zasetsu Shita Subete No Hito Ni Sasagemasu,9784896447323,,,,ES,,,,false,3,13342187,12,30,6,0,2010/1/1,,,6,0,0,0,0,5.00,,,,0,0,Yamucha,,,,,,6,0,,philosophy
10618001,0727875515,Hitler Youth Attacks!,9780727875518,,,,ES,2006/12/1,Severn House Publishers,,false,2,2193654,18,18,4,1,2004/8/1,Hitler Youth Attacks! (Wotan),book,2,2,0,0,0,4.50,316,Hardcover,Large Print,0,0,Leo Kessler,,,,,,9,1,,"fiction,historical-fiction,unfinished"
10618501,0984552774,"Tangling with Tyrants: Managing the Balance of Power at Work: Effective Communication and Behavior Management for the Toxic Workplace Bad Boss, Bad Managers, Workplace Bullying",9780984552771,,,,ES,2009/2/13,Hr4change Press,,false,1,10618501,2,0,0,0,2009/2/28,,,0,0,0,0,0,0.00,132,Paperback,,0,0,Tony Deblauwe,,,,,,2,0,,
10619001,8478084401,"Reiki, Guia Practica Para el Sendero del Amor Curativo",9788478084401,,,,ES,2011/7/1,Editorial Sirio,,false,1,10619001,6,8,2,0,2011/7/1,,book,1,0,1,0,0,4.00,286,Paperback,,2,0,Walter Lübeck,,,,,,3,0,,
10620501,0073026972,Employment Law: Going Beyond Compliance to Engagement and Empowerment,9780073026978,,,,ES,2009/1/2,Irwin/McGraw-Hill,,false,1,10620501,7,8,2,0,2009/1/2,,,1,0,1,0,0,4.00,378,Hardcover,,2,0,Rosemarie Feuerbach Twomey,,,,,,,0,,
10621001,4863322097,バットマン イヤーワン/イヤーツー (Batman Year One + Year Two),9784863322097,,,,ES,2009/12/19,ヴィレッジブックス,jpn,false,2,10621001,26,48,12,2,1992/1/1,Batman Year One + Batman Year Two,book,3,6,3,0,0,4.00,268,Hardcover,,4,0,"Alan Davis,David Mazzucchelli,Frank Miller,Mike W. Barr,Todd McFarlane",,,,,,10,2,,
10621501,0120732505,Poly(Ethylene Oxide),9780120732500,,,,ES,,,,false,1,10621501,0,0,0,0,,,,0,0,0,0,0,0.00,,,,0,0,"F.E. Bailey Jr.,J.V. Koleske",,,,,,,0,,
10622501,,from Honeymoon to Hell,2940012076359,,,,ES,,,,true,3,10622501,1,3,1,0,2010/12/2,,,0,0,1,0,0,3.00,,,,1,0,Laconia Dudley Dunn,,,,,,,0,,
10623501,0263158977,Miracles and Marriage,9780263158977,,,,ES,1999/6/4,Mills & Boon,,false,2,3136347,1,0,0,0,1998/12/1,Miracles and Marriage (Mills & Boon Medical),book,0,0,0,0,0,0.00,288,Hardcover,Mills &amp; Boon Medical Large Print,0,0,Meredith Webber,,,,,,2,0,,
10625001,,Riders of the Purple Sage by Zane Grey,2940012168023,,,,ES,,,,true,41,90160,15747,32198,8695,933,1912/1/1,Riders of the Purple Sage,book,2245,2903,2536,742,269,3.70,,,,1,0,Zane Grey,,,,,,4759,35,849,"action,adult,adult-fiction,adventure,american,americana,classic-literature,classics,fiction,historical,historical-fiction,history,literary-fiction,literature,novels,religion,romance,unfinished"
10625501,1426950284,"The Catalysts: Sacred Valleys, the Place You Would Love to Live",9781426950285,,,,ES,2010/12/29,Trafford Publishing eBooks,,true,1,10625501,0,0,0,0,2010/12/29,,,0,0,0,0,0,0.00,,ebook,,0,0,Ruby Nari Mayo,,,,,,,0,,
10628001,0470647833,JavaScript 24-Hour Trainer [With CDROM],9780470647837,,,,ES,,,,false,2,10628001,39,43,11,1,2010/12/7,,,3,4,4,0,0,3.91,,,,10,1,Jeremy McPeak,,,,,,18,2,4,
10628501,0613226577,The Worm Tunnel,9780613226578,,,,ES,1999/10/1,Turtleback Books,,false,4,992833,182,355,94,16,1999/10/1,The Worm Tunnel: Finnegan Zwake #2 (Finnegan Zwake),book,23,38,23,9,1,3.78,,Hardcover,,0,0,Michael Dahl,,,,,,39,13,3,"adventure,fiction,mystery,mystery-thriller,young-adult"
10629001,097151660X,"Maddie Mackenzie ""Yes, that's me!""",9780971516601,,,,ES,,,,false,1,10629001,0,0,0,0,2001/11/1,,book,0,0,0,0,0,0.00,,,,0,0,"David  Vasquez,F. Scott Dattel",,,,,,,0,,
10629501,1148947841,"The Fairy Tales of Madame D'Aulnoy, Newly Done Into English",9781148947846,,,,ES,2010/4/20,Nabu Press,,false,31,1771748,514,422,108,5,1698/1/1,Les Contes des Fées,book,48,21,25,9,5,3.91,562,Paperback,,2,0,Marie-Catherine d'Aulnoy,,,,,,357,11,6,"childrens,classics,fairy-tales,fantasy,fiction,france,short-stories"
10630001,3211832114,Uberleben Und Wachstum Junger Unternehmen,9783211832110,,,,ES,1998/11/30,Springer,,false,1,10630001,0,0,0,0,1998/11/30,,,0,0,0,0,0,0.00,188,Paperback,,0,0,"Herta Wanzenbvck,Herta Wanzenbvck",,,,,,,0,,
10631001,0615425135,The Ouroboros Effect,9780615425139,,,,ES,2010/12/18,Undine,,false,3,10394208,9,15,4,0,2010/12/18,,book,2,0,1,1,0,3.75,314,Paperback,,0,0,D. Juliano,,,,,,4,0,,
10632001,2012017185,"Fantômette et le trésor du Pharaon (Fantômette, #16)",9782012017184,,,,ES,,Hachette,fre,false,6,447792,37,90,23,3,1970/6/1,"Fantômette et le trésor du pharaon (Fantômette, #16)",book,8,8,4,3,0,3.91,,,,1,1,Georges Chaulet,,,,,,3,1,,mystery
10632501,,Chiar di Luna (Tutte le novelle 4),,,,,ES,1954/1/1,biblioteca universale rizzoli,ita,false,63,1667107,436,812,220,27,1882/10/19,Clair de lune,book,40,91,71,17,1,3.69,146,Paperback,Bur 715-716,1,0,Guy de Maupassant,,,,,,133,6,24,"classics,cultural,fiction,literary-fiction,literature,nature,politics,religion,romance,short-stories"
10633001,1432933434,People Who Help Us,9781432933432,,,,ES,2009/8/15,Heinemann Educational Books,,false,4,10633001,2,3,1,0,2009/6/15,,,0,0,1,0,0,3.00,24,Hardcover,,1,0,Rebecca Rissman,,,,,,,0,,
10634001,9788671022,Kafka,,,,,ES,2007/1/1,Clio,srp,false,7,10634001,75,127,38,2,2002/8/1,Kafka,book,4,13,14,6,1,3.34,259,Hardcover,Klepisidra,20,1,Gérard-Georges Lemaire,,,,,,5,0,3,"biography,non-fiction"
10635001,0830625488,"Painting, Wallpapering and Stencilling (All Thumbs Series)",9780830625482,,,,ES,,TAB Books,eng,false,1,10635001,0,0,0,0,,,,0,0,0,0,0,0.00,144,Hardcover,,0,0,Robert W.  Wood,,,,,,,0,,
10635501,0333959388,Inside Out Advanced: Video Teacher's Book,9780333959381,,,,ES,,MacMillan,eng,false,1,10635501,5,12,3,0,,,,2,0,0,1,0,4.00,64,Paperback,,3,0,Louis Harrison,,,,,,1,0,,
10636001,9055155373,De twintigste eeuw in meer dan 100 verhalen,9789055155378,,,,ES,,Uitgeverij Van Gennep,nl,false,1,10636001,4,6,3,1,,,book,0,0,1,1,1,2.00,,Paperback,,3,1,Kerst Huisman,,,,,,1,0,,history
10636501,3540850635,Transactions on Rough Sets VIII,9783540850632,,,,ES,2008/10/1,Springer,,false,1,10636501,0,0,0,0,2008/9/11,,,0,0,0,0,0,0.00,521,Paperback,,0,0,,,James F. Peters,,,,,0,,
10638001,1441936971,Designing Human Interface in Speech Technology,9781441936974,,,,ES,2010/10/29,Springer,,false,3,8764475,0,0,0,0,2005/11/1,,,0,0,0,0,0,0.00,382,Paperback,,0,0,Fang Chen,,,,,,,0,,
10638501,1118039610,"Busting Loose from the Business Game: Mind-Blowing Strategies for Recreating Yourself, Your Team, Your Business, and Everything in Between",9781118039618,,,,ES,2011/1/4,Wiley,,true,4,5998416,94,222,53,6,2011/1/4,,,27,15,7,2,2,4.19,288,ebook,,2,0,Robert Scheinfeld,,,,,,28,1,6,"business,leadership,non-fiction,self-help,spirituality"
10639001,0836217306,Workin' Noon To Five: The Official Workplace Quiz Book (A Shoebox Greetings Book),9780836217308,,,,ES,1993/9/1,Andrews McMeel Publishing,eng,false,1,10639001,0,0,0,0,1993/9/1,,,0,0,0,0,0,0.00,,Paperback,,0,0,,,,Shoebox Greetings,,,,0,,
10639501,1611068770,Cliffs Notes on Shakespeare's Macbeth,9781611068771,,,,ES,,Brilliance Audio,,false,17,8860,100,135,38,2,2000/6/13,Cliffs Notes on Shakespeare's Macbeth,book,9,11,11,6,1,3.55,,,,0,0,Alex Went,,,,,,21,5,14,"education,non-fiction,reference,science"
10640001,1453795707,The 12th Sense: Superior Beings Are Seized by Their Own Legend,9781453795705,,,,ES,2010/9/26,Createspace Independent Publishing Platform,eng,false,1,10640001,0,0,0,0,2010/9/26,,,0,0,0,0,0,0.00,736,Paperback,,0,0,George Zamalea,,,,,,,0,,
10640501,073931520X,Divine Evil,9780739315200,,,,ES,2004/8/3,Random House Audio Publishing Group,,false,46,40779236,23435,54561,14226,627,1992/9/1,Divine Evil,book,4408,4769,3723,950,376,3.84,0,Audio CD,Abridged,2,1,"Katie Firth,Nora Roberts",,,,,,4090,28,453,"adult,adult-fiction,chick-lit,contemporary,crime,dark,fantasy,fiction,horror,mystery,mystery-thriller,paranormal,romance,supernatural,suspense,thriller"
10641001,3421053537,In den eisigen Tod: Robert F. Scotts letzte Fahrt zum Südpol,9783421053534,,,,ES,2000/1/1,DVA,ger,false,13,55131,579,813,200,24,1997/12/31,A First Rate Tragedy: Robert Falcon Scott and the Race to the South Pole,book,67,88,38,5,2,4.07,368,Hardcover,,4,0,Diana Preston,,,,,,316,8,6,"adventure,biography,biography-memoir,historical,history,non-fiction,survival,travel"
10641501,8122311849,Love Was Never Mine,9788122311846,,,,ES,2011/1/1,cedar books,eng,false,2,10641501,897,754,230,16,2011/1/1,,book,49,59,52,47,23,3.28,144,Paperback,,225,16,Kunal Bhardwaj,,,,,,608,2,21,"fiction,love,romance"
10642501,054957459X,Interaction of gp340 with HIV and its contribution to heterosexual transmission in females.,9780549574590,,,,ES,,,,false,1,10642501,0,0,0,0,,,,0,0,0,0,0,0.00,,,,0,0,Earl P Stoddard,,,,,,,0,,
10643001,0071605231,How to Do Everything: Adobe Photoshop Cs4,9780071605236,,,,ES,2009/4/14,McGraw-Hill Education,,true,4,6397560,26,33,9,2,2009/1/1,How to Do Everything Adobe Photoshop CS4,book,4,1,1,3,0,3.67,,ebook,,0,0,Chad Perkins,,,,,,7,0,,non-fiction
10644501,0878670351,"Voices of a Black Nation: Political Journalism in the Harlem Renaissance,",9780878670352,,,,ES,1973/1/1,Ramparts Press,,false,4,1106715,21,10,2,0,1973/1/1,Voices of a Black Nation: Political Journalism in the Harlem Renaissance,,2,0,0,0,0,5.00,391,Unknown Binding,,0,0,Theodore G. Vincent,,,,,,16,0,,
10646001,0471349100,Handbook of Environmental Management and Technology,9780471349105,,,,ES,2000/4/10,Wiley-Interscience,,false,2,4396307,3,0,0,0,2000/3/28,Handbook of Environmental Management and Technology,,0,0,0,0,0,0.00,824,Hardcover,,0,0,"Ben Ramnarine Singh,Gwendolyn Burke,Louis Theodore",,,,,,1,0,,
10647001,1870601181,"Warbirds Worldwide, Vol. 16",9781870601184,,,,ES,,,,false,1,10647001,0,0,0,0,1991/4/15,,,0,0,0,0,0,0.00,,,,0,0,Motorbooks International Publishers & Wholesalers,,,,,,,0,,
10648501,0313348812,Harriet Tubman: A Biography,9780313348815,,,,ES,2011/2/1,Greenwood,,false,4,16587636,14,18,5,1,2011/1/1,,book,2,1,1,0,1,3.60,167,Hardcover,,2,0,"James A. McGowan,William C. Kashatus",,,,,,6,0,1,
10650501,1450043496,I Have My Struggles and Fight,9781450043496,,,,ES,2010/3/29,Xlibris Corporation,,false,2,35919986,1,5,1,0,2010/3/29,,,1,0,0,0,0,5.00,58,Paperback,,0,0,Vaneisha Tyree,,,,,,,0,,
10651001,2858931461,"Documents, année 1929 et 1930, 2 volumes",9782858931460,,,,ES,1991/11/1,Jean-Michel Place,fre,false,1,10651001,2,0,0,0,1991/11/1,,book,0,0,0,0,0,0.00,1020,Hardcover,,0,0,Various,,,,,,2,0,,
10652501,0021779511,Poesia y Alegria: Librito de Cuentos En Verso,9780021779512,,,,ES,,,spa,false,1,10652501,3,0,0,0,,,book,0,0,0,0,0,0.00,,,,0,0,Tradicional,"Jennifer Hewitson,Joe Boddy,Katherine Tillostson,Michelle Noisette,Roger Chouinard,Susan Melrath,Susan Swan,Vicens Vives",,,,,1,0,,
10654501,9516626963,Isanmaallisuus: Keskinainen Osakkuus Ja Kepeyden Filosofia (Finnish Edition),9789516626966,,,,ES,,,fin,false,1,10654501,1,0,0,0,,,,0,0,0,0,0,0.00,,,,0,0,Terho Pursiainen,,,,,,1,0,,
10655001,0750602090,Marketing of Services,9780750602099,,,,ES,,,,false,1,10655001,2,0,0,0,1992/1/28,,,0,0,0,0,0,0.00,,,,0,0,Donald Cowell,,,,,,2,0,,
10655501,1172013314,"The Works of Thomas Adams: Being the Sum of His Sermons, Meditations, and Other Divine and Moral Discourses Volume 2",9781172013319,,,,ES,,,,false,2,10655501,2,4,1,0,2010/10/5,,book,0,1,0,0,0,4.00,,,,1,0,Thomas   Adams,,,,,,,0,1,
10656501,1434484254,The Blockade of Phalsburg,9781434484253,,,,ES,2007/9/1,Wildside Press,,false,31,10656503,4,4,1,0,2005/5/30,The Blockade of Phalsburg: An Episode of the End of the Empire,book,0,1,0,0,0,4.00,336,Hardcover,,0,0,Erckmann-Chatrian,,,,,,2,1,,
10657001,4198631174,メッシュ すべてのビジネスは〈シェア〉になる,9784198631178,,,,ES,,,jpn,false,12,8882247,2887,3744,1023,97,2010/9/1,,,252,326,313,109,23,3.66,,,,1,1,"Lisa Gansky,リサ ガンスキー",,,,実川 元子,,1631,10,65,"business,economics,non-fiction,psychology,self-help,social,sociology,technology,unfinished"
10659501,1615723390,Intricate Entanglement,9781615723393,,,,ES,2011/3/1,Damnation Books,,false,3,10659501,21,75,17,10,2011/2/27,,book,10,4,3,0,0,4.41,,,,15,9,Su Halfwerk,,,,,,3,1,-1,"contemporary,horror,paranormal,suspense"
10661001,1926613279,Skywatcher's Companion: Constellations and Their Mythology,9781926613277,,,,ES,2007/1/1,Heritage House,,true,2,5618511,5,4,1,0,2007/11/25,Skywatcher's Companion: Constellations and Their Mythology,book,0,1,0,0,0,4.00,48,ebook,,0,0,Stan Shadick,,,,,,4,0,,
10661501,0198071205,"The Andre Beteille Omnibus: Comprising Caste, Class and Power, 2/E; Idea of Natural Inequality, 2/E; And Equality and Universality",9780198071204,,,,ES,2011/9/15,"Oxford University Press, USA",,false,1,10661501,23,10,2,1,2011/6/15,,,2,0,0,0,0,5.00,884,Paperback,,2,1,André Béteille,,,,,,14,0,3,non-fiction
10662001,,Miss Prudence: A Story of Two Girls' Lives,,B002RKRHPM,,,ES,,,eng,true,6,6067920,3,4,1,1,1883/1/1,Miss Prudence: A Story of Two Girls' Lives,book,0,1,0,0,0,4.00,,,,0,0,Jennie M. Drinkwater,,,,,,2,0,,"christian-fiction,fiction"
10663001,0549618732,Modeling the Cumulative Effects of Aspen Management Practices on Timber and Wildlife at Multiple Spatial and Temporal Scales.,9780549618737,,,,ES,,,,false,1,10663001,0,0,0,0,,,book,0,0,0,0,0,0.00,,,,0,0,Alexandra B. Felix,,,,,,,0,,
10663501,1576238733,Bob Seger & the Silver Bullet Band -- It's a Mystery: Piano/Vocal/Chords,9781576238738,,,,ES,1997/1/1,Alfred Music,,false,1,10663501,1,4,1,0,1997/1/1,,,0,1,0,0,0,4.00,68,Paperback,,1,0,"Bob Seger,The Silver Bullet Band",,,,,,,0,,
10664501,1406745073,Pictures of Arctic Travel,9781406745078,,,,ES,2007/3/15,Ehrsam Press,,false,9,10664501,1,0,0,0,2007/3/15,,,0,0,0,0,0,0.00,144,Paperback,,0,0,Isaac Israel Hayes,,,,,,1,0,,
10665001,1452094527,The Civil War from A to Z: Two Points of View,9781452094526,,,,ES,,,,true,2,10326282,3,3,1,0,2010/12/1,,,0,0,1,0,0,3.00,,,,0,0,Betty Carlson Kay,,,,,,1,0,,academic
10666001,1441954171,Handbook of Utility Theory: Volume 2 Extensions,9781441954176,,,,ES,2010/11/5,Springer,,false,1,10666001,0,0,0,0,2010/11/2,,,0,0,0,0,0,0.00,626,Paperback,,0,0,"Christian Seidl,Peter  Hammond",,,Salvador Barbera,,,,0,,
10667501,1437928528,Analysis of the Roadmap for America’s Future Act of 2010,,,,,ES,,,,false,1,10667501,0,0,0,0,,,,0,0,0,0,0,0.00,,,,0,0,Douglas Elmendorf,,,,,,,0,,
10669001,1600619118,Daring Color: Mix and Mingle Watercolor on Your Paper,9781600619113,,,,ES,2009/8/12,North Light Books,,false,1,10669001,18,47,12,1,2009/8/12,,,2,7,3,0,0,3.92,126,Paperback,,12,1,Ann Abgott,,,,,,3,0,1,art
10669501,0340583088,Creating an Excellent Salon (2nd Edition),9780340583081,,,,ES,,,,false,1,10669501,0,0,0,0,1994/2/3,,,0,0,0,0,0,0.00,,,,0,0,Iris Rigazzi-Tarling,,,,,,,0,,
10671001,0297842501,A Walk Around the West Indies,9780297842507,,,,ES,2000/9/1,George Weidenfeld & Nicholson,,false,2,2251746,18,27,9,3,2000/9/1,Walk Around the West Indies,book,0,0,9,0,0,3.00,294,Hardcover,,1,0,Hunter Davies,,,,,,7,1,1,"non-fiction,travel"
10672001,887644453X,La presenza di Orfeo - La Terra Santa,9788876444531,,,,ES,2007/1/1,,ita,false,1,10672001,9,8,2,0,2007/1/1,,book,1,0,1,0,0,4.00,,Paperback,,2,0,Alda Merini,,,,,,3,0,1,
10672501,142896696X,Microenterprise: laying the Foundation for Economic Development,,,,,ES,,,,false,1,10672501,0,0,0,0,,,,0,0,0,0,0,0.00,,,,0,0,Dept. of State,,,,,,,0,,
10673501,0853237115,Public Sculpture of Liverpool,9780853237112,,,,ES,1996/9/1,Liverpool University Press,,false,2,4073138,1,5,1,0,1996/9/1,Public Sculpture of Liverpool (Liverpool University Press - Public Sculpture of Britain),,1,0,0,0,0,5.00,394,Paperback,,0,0,"Edward Morris,Ian Leith,Jo Darke,Terry Cavanagh",,,,,,,0,,
10674501,,American Book Prices Current Index 1941 1945,2940023914220,,,,ES,,,,true,1,10674501,0,0,0,0,,,,0,0,0,0,0,0.00,,,,0,0,Colton Storm,,,,,,,0,,
10676001,1606150537,Devoted to God and Each Other [With CD (Audio)],9781606150535,,,,ES,,,,false,7,14988290,6,2,1,0,2006/6/1,,,0,0,0,1,0,2.00,,,,1,0,Deane Schuessler,,,,,,4,0,1,"marriage,theology"
10680001,1848604459,Outsourcing Information Systems [3 Volume Set],9781848604452,,,,ES,,Sage Publications,,false,1,10680001,3,0,0,0,2009/6/3,,book,0,0,0,0,0,0.00,,,,0,0,Mary C. Lacity,,,Leslie P. Willcocks,,,,0,,
10680501,,A Girl of the Limberlost,,B004OR1IZ6,,,ES,,,,true,285,17567,29021,72446,17489,1343,1909/1/1,A Girl of the Limberlost,book,7757,5701,3062,702,267,4.14,,,,0,0,Gene Stratton-Porter,,,,,,9408,35,317,"adult,adult-fiction,adventure,american,childrens,classic-literature,classics,drama,family,fiction,historical,historical-fiction,history,juvenile,literature,middle-grade,nature,novels,romance,teen,young-adult"
10681001,1422173356,The Ultimate Question 2.0 (Revised and Expanded Edition): How Net Promoter Companies Thrive in a Customer-Driven World,9781422173350,,,,ES,2011/9/20,Harvard Business Review Press,,false,6,10681001,1885,2998,777,63,2011/9/20,,book,217,306,192,51,11,3.86,290,Hardcover,,619,54,"Fred Reichheld,Rob Markey",,,,,,787,12,146,"business,leadership,non-fiction"
10681501,6131738351,Eyeshield 21,9786131738357,,,,ES,2010/7/12,Alphascript Publishing,,false,1,10681501,20,68,15,0,2010/7/12,,,10,3,2,0,0,4.53,132,Paperback,,15,0,"Agnes F. Vandome,John McBrewster",,,Frederic P.  Miller,,,1,0,,manga
10682001,0192713264,Ayo Gurkha!,9780192713261,,,,ES,,,,false,2,10682001,12,32,7,2,,,book,4,3,0,0,0,4.57,,,,7,2,"Goray Douglas,J.M. Marks",,,,,,5,0,1,
10683001,1848825145,Practical Signal and Image Processing in Clinical Cardiology,9781848825147,,,,ES,2010/12/24,Springer,,false,5,10683001,0,0,0,0,2010/7/28,,,0,0,0,0,0,0.00,400,Hardcover,,0,0,,,,Jeffrey J. Goldberger,,,,0,,
10684501,0944382061,Outrageous Questions: Legacy of Bronson Alcott & America's One-Room Schools,9780944382066,,,,ES,,,eng,false,1,10684501,2,4,1,0,1994/1/1,,,0,1,0,0,0,4.00,,,,1,0,Laurie James,,,,,,,0,,"education,history"
10686001,1857588118,Maths: Key stage 2 National Tests: Age 10-11: Practice Papers,9781857588118,,,,ES,1998/7/30,Letts Educational,eng,false,1,10686001,0,0,0,0,1998/7/30,,book,0,0,0,0,0,0.00,54,Paperback,,0,0,"Bob McDuell,Peter Giliker,Peter Gilliker",,,,,,,0,,
10687001,,Passionate Poems,,B000RMRVW6,,,ES,,,,true,2,10687001,1,0,0,0,,Passionate Poems,,0,0,0,0,0,0.00,,,,0,0,Bryony K. Shaw,,,,,,,0,,classics
10688501,1936222612,"Dreams & Desires: A Collection Of Romance And Erotic Tales, V. 4",9781936222612,,,,ES,2011/2/1,Freya's Bower,,false,2,10411929,39,30,7,0,2011/2/14,,,4,1,2,0,0,4.29,228,Paperback,,1,0,"Adrianne Brennan,Teresa D'Amario,Zetta Brown",,,,,,25,0,,erotica
10689001,0791302555,"Federal Taxation of Income, Estates, and Gifts",9780791302552,,,,ES,1989/12/31,Warren Gorham & Lamont,,false,5,10689002,2,0,0,0,1981/5/1,,,0,0,0,0,0,0.00,,Unknown Binding,,0,0,"Boris I. Bittker,Lawrence Lokken",,,,,,2,0,,history
10689501,1594202974,The Steal: A Cultural History of Shoplifting,9781594202971,,,,ES,2011/6/30,Penguin Press,en-US,false,6,10689501,846,780,260,46,2011/6/1,,book,15,52,121,62,10,3.00,272,Hardcover,,239,43,Rachel Shteir,,,,,,489,12,13,"adult,business,college,crime,essays,history,non-fiction,psychology,science,social-issues,society,sociology,true-crime,writing"
10691501,0132952793,"Experiments with Everyday Objects: Science Activities for Children, Parents, and Teachers",9780132952798,,,,ES,1978/1/1,Prentice Hall,,false,3,2896409,3,5,1,0,1978/2/1,"Experiments With Everyday Objects: Science Activities for Children, Parents and Teachers (A Spectrum book)",,1,0,0,0,0,5.00,162,Unknown Binding,,0,0,"Kevin Goldstein-Jackson,Norman Rudnick,Ronald T. Hyman",,,,,,2,0,,
10692501,8674361153,Veliki lov (Točak vremena #2),9788674361153,,,,ES,2003/1/1,Laguna,srp,false,82,233649,251565,815092,193030,3740,1990/1/1,The Great Hunt,book,86585,71987,27200,5361,1897,4.22,558,Paperback,,72,7,Robert Jordan,,,,,,25924,505,4062,"adult,adult-fiction,adventure,epic,epic-fantasy,fantasy,fiction,high-fantasy,magic,novels,romance,science-fiction,science-fiction-fantasy,speculative-fiction,young-adult"
10693001,,Flying sparks,2940019005024,,,,ES,,,,true,1,10693001,0,0,0,0,2010/1/10,,,0,0,0,0,0,0.00,,,,0,0,Marion Ebenezer Munsell,,,,,,,0,,
10695001,3772426859,Aquarelldas Kleine Motiv ; [Schritt Für Schritt Erklärt],9783772426858,,,,ES,,,ger,false,1,10695001,1,0,0,0,2000/1/1,,,0,0,0,0,0,0.00,,,,0,0,Monika Reiter-Zinnau,,,,,,1,0,,
10695501,0979525624,The Tao of a Woman,9780979525629,,,,ES,2009/2/24,Skipping Stones Editions,,false,3,10695501,3,13,3,0,2008/1/28,,,1,2,0,0,0,4.33,161,Paperback,,3,0,Michele Ritterman,,,,,,,0,,"contemporary,philosophy"
10697501,1117884376,Red Eagle of the Medicine-Way,9781117884370,,,,ES,,,,false,2,10697500,0,0,0,0,2010/3/11,,,0,0,0,0,0,0.00,,,,0,0,Marion Reid-Giradot,,,,,,,0,,
10698001,0441866069,The Voice of Murder,9780441866069,,,,ES,1956/1/1,Ace Books,eng,false,2,10698001,19,30,8,0,1956/1/1,The Voice of Murder,book,0,6,2,0,0,3.75,,Mass Market Paperback,,8,0,Margaret Erskine,,,,,,8,1,,"gothic,mystery"
10698501,809022217X,O Hercich a Herectvi,9788090222175,,,,ES,1998/1/1,Achat,,false,1,10698501,3,9,2,0,1998/1/1,,,1,1,0,0,0,4.50,274,Unknown Binding,,2,0,Jaroslav Vostry,,,,,,1,0,,
10700501,,Soleville,2940011174889,,,,ES,,,,true,2,10700501,0,0,0,0,2011/1/8,,,0,0,0,0,0,0.00,,,,0,0,Teresa Hubley,,,,,,,0,,
10701501,8132054237,The Seven Champions of Christendom,9788132054238,,,,ES,2009/5/1,Tutis Digital Pub,,false,28,20520806,17,28,9,4,1861/1/1,The Seven Champions of Christendom,book,1,0,7,1,0,3.11,114,Paperback,,2,2,W.H.G. Kingston,,,,,,6,0,1,"christian,fantasy,fiction"
10702001,0060245913,Just Good Friends,9780060245917,,,,ES,1983/1/1,HarperCollins Publishers,,false,5,6329209,18,24,7,1,1983/1/1,Just Good Friends,book,0,3,4,0,0,3.43,216,Unknown Binding,,0,0,Jane O'Connor,,,,,,9,0,,"fiction,middle-grade,teen"
10702501,155936615X,Well,9781559366151,,,,ES,2005/8/1,Theatre Communications Group,,true,6,758500,259,574,143,12,2005/8/1,Well,,48,57,30,8,0,4.01,112,ebook,,0,0,Lisa Kron,,,,,,76,5,4,"american,college,drama,funny,plays,queer,realistic-fiction,theatre"
10703501,0071436405,"Big, Soft, Chewy Cookies",9780071436403,,,,ES,2003/7/22,McGraw-Hill Education,,true,1,10703501,3,0,0,0,2003/7/15,,,0,0,0,0,0,0.00,176,ebook,,0,0,Jill Cleave,,,,,,2,0,,cookbooks
10704001,1441542744,"Ghana, the Rediscovered Soccer Might Workbook",9781441542748,,,,ES,2009/11/18,Xlibris Corporation,,false,4,10703999,2,3,1,0,2009/11/18,,,0,0,1,0,0,3.00,498,Paperback,,0,0,Okyere Bonna,,,,,,1,0,,
10704501,0263843262,Earthquake Baby,9780263843262,,,,ES,2005/8/1,Mills & Boon,eng,false,7,10704501,71,78,19,3,2005/8/1,Earthquake Baby (Mills & Boon),book,8,6,4,1,0,4.11,,Mass Market Paperback,Mills &amp; Boon Medical #1292,13,3,Amy Andrews,,,,,,41,1,,"contemporary,medical,romance"
10705501,,Unknown Book 10705501,,,,,ES,,,,false,1,10705501,1,5,1,0,,,,1,0,0,0,0,5.00,,,,1,0,Unknown,,,,,,,0,,
10706001,3404158261,"Grablichter (Pia Korittki, #4)",9783404158263,,,,ES,2008/2/12,,ger,false,6,12032399,221,472,131,9,2008/3/1,Grablichter,book,17,57,45,12,0,3.60,,Paperback,,8,0,Eva Almstädt,,,,,,48,9,2,"amazon,crime,fiction,mystery-thriller,thriller"
10707501,1593353715,"The Last Detective (Elvis Cole, #9)",9781593353711,,,,ES,2004/6/10,Brilliance Audio,,false,57,241936,20676,65370,15382,468,2003/2/18,The Last Detective,book,6578,6445,2055,231,73,4.25,,Audio CD,,2,0,Robert Crais,,,,,James Daniels,2394,16,384,"action,adult,adult-fiction,adventure,contemporary,crime,detective,fiction,mystery,mystery-thriller,novels,suspense,thriller"
10708501,1441527826,My Heart My Mind and My Pen Combined,9781441527820,,,,ES,2009/9/24,Xlibris Corporation,,false,2,8946655,0,0,0,0,2009/9/24,,,0,0,0,0,0,0.00,120,Hardcover,,0,0,Rita Ann Corrado,,,,,,,0,,
10709501,8496815021,La Metamorfosis (Cómics adultos),9788496815025,,,,ES,2011/1/1,Astiberri,,false,13,7718,5010,12343,3271,321,2003/1/1,,book,861,1229,839,263,79,3.77,,,,54,6,,,,,Gonzalo Quesada,,871,22,41,"adult,adult-fiction,classic-literature,classics,comics,death,family,fantasy,fiction,graphic-novels,graphic-novels-comics,historical,horror,humor,literary-fiction,literature,modern,novella,novels,philosophy,school,science-fiction,short-stories,young-adult"
10710001,,City of Fire,,B003YCPGGO,,,ES,,,,true,2,10467836,0,0,0,0,2010/8/3,,,0,0,0,0,0,0.00,,,,0,0,Ernesto Haibi,,,,,,,0,,
10710501,0930741609,Art of Being Kuna: Layers of Meaning Among the Kuna of Panama,9780930741600,,,,ES,2001/12/1,University of Washington Press,,false,2,830046,19,26,7,1,1997/1/28,The Art of Being Kuna: Layers of Meaning Among the Kuna of Panama,,2,3,1,0,1,3.71,360,Hardcover,,1,0,"Alexander Moore,James Howe,Mac Chapin",,,Mari Lyn Salvador,,,10,0,,"art,non-fiction"
10711501,0292729006,Government and Society in Afghanistan: The Reign of Amir ‘abd Al-Rahman Khan,9780292729001,,,,ES,2011/1/15,University of Texas Press,,false,1,10711501,1,3,1,0,2011/1/15,,,0,0,1,0,0,3.00,352,Paperback,,1,0,Hasan Kawun Kakar,,,,,,,0,,
10712001,,Flucht in die Freiheit,,,,,ES,1976/1/1,Bertelsmann,ger,false,3,23475912,11,17,5,1,1937/1/1,,book,1,2,0,2,0,3.40,320,Hardcover,,1,0,Warwick Deeping,,,,,,5,1,,
10712501,9789532017,Tragom zmijske košuljice,,,,,ES,2007/1/1,V.B.Z. Zagreb,scr,false,1,10712501,28,61,17,1,2007/1/1,,book,3,7,4,3,0,3.59,163,Paperback,,17,1,Josip Mlakić,,,,,,8,0,,
10713001,,Our Park at the Top of the Hill,,,,,ES,,,,false,1,10713001,1,3,1,0,,,book,0,0,1,0,0,3.00,,,,1,0,Jonan Haskell,,,,,,,0,,history
10713501,1436379024,Hello Brother,9781436379021,,,,ES,2008/12/17,Xlibris Corporation,,false,1,10713501,0,0,0,0,2008/12/1,,,0,0,0,0,0,0.00,320,Hardcover,,0,0,Gerry Rooney,,,,,,,0,,
10714501,0613121473,"Stacey McGill... Matchmaker? (The Baby-Sitters Club, #124)",9780613121477,,,,ES,1998/11/1,Turtleback Books,eng,false,4,371061,890,1398,390,10,1998/11/1,Stacey McGill... Matchmaker?,book,94,92,160,36,8,3.58,,Hardcover,,0,0,Ann M. Martin,,,,,,260,12,14,"childrens,contemporary,fiction,middle-grade,romance,young-adult"
10715001,0791497844,Women Mystics Confront the Modern World,9780791497845,,,,ES,,,,true,1,10715001,0,0,0,0,2009/9/30,,,0,0,0,0,0,0.00,,,,0,0,Marie-Florine Bruneau,,,,,,,0,,
10719001,144194057X,Spectroscopic Data of Steroid Glycosides: Volume 4,9781441940575,,,,ES,2010/10/29,Springer,,false,1,10719001,0,0,0,0,2007/5/9,,,0,0,0,0,0,0.00,696,Paperback,,0,0,Anwer Basha,,,Viqar Uddin Ahmad,,,,0,,
10719501,1405699426,"1815 - 1837, Regency and Reform (This Sceptred Isle, Volume 9)",9781405699426,,,,ES,,,eng,false,4,10719501,31,73,19,0,1996/7/15,"1815 - 1837, Regency and Reform (This Sceptred Isle, Volume 9)",book,5,6,8,0,0,3.84,3,,BBC Radio Collection,14,0,"Christopher Lee,Winston S. Churchill",,,,,"Anna Massey,Peter Jeffrey",7,0,,"history,non-fiction"
10720001,,How to Hit..... Really Hard,9780557030125,,,,ES,2009/12/13,Lulu,,false,1,10720001,2,3,1,0,2008/6/1,,,0,0,1,0,0,3.00,88,Paperback,First Edition,1,0,Russell Stutely,,,,,,1,0,,
10720501,1429014288,The Field and Garden Vegetables of America,9781429014281,,,,ES,2009/2/3,Applewood Books,,false,29,18892672,177,202,58,3,1988/1/1,,,15,10,24,6,3,3.48,692,Paperback,,1,0,Fearing Burr Jr.,,,,,,90,1,7,
10721001,0846411695,German Business after the Economic Miracle,9780846411697,,,,ES,,,,false,3,4894036,0,0,0,0,1973/1/28,German business after the economic miracle,,0,0,0,0,0,0.00,,,,0,0,Frank Vogl,,,,,,,0,,
10723001,,The Eve of the French Revolution,2940019328055,,,,ES,,,eng,true,31,11698483,58,32,10,3,1892/1/1,The Eve of the French Revolution,book,1,3,4,1,1,3.20,,,,0,0,Edward Jackson Lowell,,,,,,37,1,5,"france,history"
10723501,0701136936,The Year of the Fire Monkey,9780701136932,,,,ES,1991/5/15,Random House Adult Trade Publishing Group,,false,6,4012229,37,73,17,1,1991/5/15,The Year of the Fire Monkey,book,7,8,2,0,0,4.29,260,Hardcover,,1,0,Chris Mullin,,,,,,13,0,1,fiction
10724001,1595340718,A Kite in the Wind: Fiction Writers on Their Craft,9781595340719,,,,ES,2011/3/1,Trinity University Press,,false,5,10524645,161,137,34,5,2011/3/1,,book,13,12,7,1,1,4.03,368,Hardcover,,1,0,Peter Turchi,,,Andrea Barrett,,,106,3,9,"essays,non-fiction,writing"
10724501,6132221832,The Legend of 1900,9786132221834,,,,ES,2010/8/9,Betascript Publishing,,false,1,10724501,33,34,7,1,2010/8/9,,,6,1,0,0,0,4.86,64,Paperback,,7,1,,,,NOT A BOOK,,,21,0,,
10725001,0691140553,Durkheim and the Birth of Economic Sociology,9780691140551,,,,ES,2010/12/12,Princeton University Press,,false,1,10725001,5,0,0,0,2010/12/12,,,0,0,0,0,0,0.00,249,Hardcover,,0,0,Philippe Steiner,,,,,,4,0,,
10726001,1124036342,"Haiti re-membered: Exile, diaspora, and transnational imaginings in the writings of Edwidge Danticat and Myriam Chancy.",9781124036342,,,,ES,,,,false,1,10726001,3,5,1,0,,,,1,0,0,0,0,5.00,,,,1,0,Nadege Tanite Clitandre,,,,,,2,0,,
10726501,5425071531,CHernyj skomorox (Russian Edition),9785425071538,,,,ES,,,,true,1,10726501,0,0,0,0,2004/1/1,,,0,0,0,0,0,0.00,,,,0,0,Sergej SHvedov,,,,,,,0,,
10727001,1418903639,Pml Ma 1 Skier,9781418903633,,,,ES,2004/8/1,Harcourt Achieve,,false,1,10727001,0,0,0,0,2004/8/28,,,0,0,0,0,0,0.00,16,Paperback,,0,0,"Steck-Vaughn,Steck-Vaughn",,,,,,,0,,
10728001,1554078113,Gluten-Free Baking,9781554078110,,,,ES,2011/2/10,Firefly Books,,false,1,10728001,33,53,15,3,2011/1/1,,,3,6,2,4,0,3.53,176,Paperback,,15,3,Phil Vickery,,,,,,14,1,,"cookbooks,food"
10728501,,Gran'paul's Family,2940012604439,,,,ES,,,,true,4,10942297,19,16,5,3,2009/4/13,,,1,1,1,2,0,3.20,,,,1,1,Karl Larew,,,,,,14,1,,historical
10729001,,Cartulaire de la chaetreuse du val de Ste-Aldegonde pre`s Saint-Omer,2940030761985,,,,ES,,,,true,1,10729001,0,0,0,0,,,,0,0,0,0,0,0.00,,,,0,0,France. Val de Sainte-Aldegonde  from old catalog Longuenesse,,,,,,,0,,
10732501,8850330243,"ePub: per autori, redattori, grafici",9788850330249,,,,ES,2011/1/1,Apogeo,ita,false,2,10732501,18,33,8,1,2011/1/1,"ePub: per autori, redattori, grafici",book,2,5,1,0,0,4.12,,Paperback,,7,1,"Fabio Brivio,Giovanni Trezzi",,,,,,3,0,,
10733001,8484502414,Un Mundo Feliz,9788484502418,,,,ES,2004/5/28,RH Español,spa,false,629,5129,1786537,4949267,1243623,24676,1932/1/1,Brave New World,book,449234,447902,248429,68144,29914,3.98,254,,,36,3,Aldous Huxley,,,,,,548447,3323,20128,"adult,adult-fiction,british-literature,classic-literature,classics,dystopia,english-literature,fantasy,fiction,high-school,literary-fiction,literature,modern-classics,novels,philosophy,politics,school,science,science-fiction,science-fiction-fantasy,speculative-fiction,young-adult"
10733501,0781272378,Influence of Beaumont and Fletcher on Restoration Drama,9780781272377,,,,ES,,,,false,1,10733501,0,0,0,0,1992/5/28,,,0,0,0,0,0,0.00,,,,0,0,John H. Wilson,,,,,,,0,,
10735001,074146036X,Accidental Ambition,9780741460363,,,,ES,2010/7/23,Infinity Publishing (PA),,false,1,10735001,9,20,5,1,2010/7/23,,,2,1,2,0,0,4.00,386,Paperback,,5,1,Robert Mcknight,,,,,,2,0,,
10735501,0874815606,"The Cultural Heritage of India: The Early Phases, Vol. 1",9780874815603,,,,ES,,,,false,1,10735501,28,9,2,0,1937/1/1,,,1,1,0,0,0,4.50,,,,2,0,"A.D. Pusalker,Nalinaksha Dutt,Nirmal Kumar Bose,Sarvepalli Radhakrishnan,Suniti Kumar Chatterji",,,,,,25,0,1,
10736001,0822348225,"Cutting Across Media: Appropriation Art, Interventionist Collage, and Copyright Law",9780822348221,,,,ES,2011/8/5,Duke University Press Books,eng,false,4,10736001,74,73,17,0,2011/5/1,,book,9,5,2,1,0,4.29,376,Paperback,,16,0,,,"Carrie McLaren,Marcus Boon","Kembrew McLeod,Rudolf E. Kuenzli",,,13,0,6,"art,literature,music,technology"
10737001,1440079048,The Queen's Necklace (Classic Reprint),9781440079047,,,,ES,2018/4/23,Forgotten Books,,false,140,1053073,3591,5207,1355,52,1850/1/1,Le Collier de la reine,book,360,518,393,72,12,3.84,438,Paperback,,1,1,Alexandre Dumas,,,,,,1770,10,66,"adventure,classics,fiction,france,historical,historical-fiction,history,literature,novels"
10738001,,The Anglo-Saxon review,2940017374979,,,,ES,,,,true,9,33365416,0,0,0,0,2009/4/9,,,0,0,0,0,0,0.00,,,,0,0,Randolph Spencer Churchill,,,,,,,0,,
10740001,1162668385,Against Heresies 1,9781162668383,,,,ES,,,eng,false,9,501653,279,357,88,9,188/1/1,Adversus Haereses,book,36,27,19,6,0,4.06,,,,1,1,Irenaeus of Lyons,,,,,,152,3,11,"christian,classics,faith,history,non-fiction,philosophy,religion,spirituality,theology"
10741501,,"His Heir, Her Honor (Rich, Rugged And Royal #3)",,,,,ES,,,,true,14,10051760,741,1245,335,22,2011/4/1,"His Heir, Her Honor",book,84,109,111,25,6,3.72,,,Silhouette Desire #2071,5,1,Catherine Mann,,,,,,296,14,14,"contemporary,harlequin,romance"
10742501,0203934334,Enhancing Learning Through Formative Assessment and Feedback,9780203934333,,,,ES,2014/5/14,Routledge,,true,9,5978302,5,4,1,0,2007/6/30,Enhancing Learning through Formative Assessment and Feedback (Key Guides for Effective Teaching in Higher Education),,0,1,0,0,0,4.00,173,ebook,,0,0,Alastair Irons,,,,,,3,0,,psychology
10743001,1450246257,"A Love Story (Now and Forever, #1)",9781450246255,,,,ES,2010/8/4,iUniverse.com,,false,10,9450252,938,677,181,32,2010/6/7,"now and forever, a love story",book,58,59,37,13,14,3.74,208,Paperback,,2,0,Jean C. Joachim,,,,,,676,18,20,"amazon,chick-lit,contemporary,new-adult,romance,suspense"
10745501,,Unknown Book 10745501,,,,,ES,,,,false,1,10745501,2,0,0,0,,,,0,0,0,0,0,0.00,,,,0,0,Unknown,,,,,,,0,,manga
10746001,,Free Yourself from Panic Attacks,2940012629012,,,,ES,,,,true,1,10746001,1,0,0,0,2011/2/8,,,0,0,0,0,0,0.00,,,,0,0,Lou Diamond,,,,,,1,0,,
10746501,4408433861,Aijin Senka,9784408433868,,,,ES,,,,false,1,10746501,3,5,1,0,,,,1,0,0,0,0,5.00,,,,1,0,Senju Kitasato,,,,,,1,0,,manga
10747001,,Caleb Stukely,2940017968857,,,,ES,,,,true,11,10747003,0,0,0,0,2012/1/10,,,0,0,0,0,0,0.00,,,,0,0,Samuel Phillips,,,,,,,0,,
10751001,1452099103,When I Am Gone,9781452099101,,,,ES,2011/2/3,Authorhouse,,false,5,10487776,50,38,11,1,2011/2/3,,,1,4,5,1,0,3.45,272,Paperback,,0,0,Marge McRae,,,,,,24,1,4,
10753001,5170554753,"Десятое Правило Волшебника, или Призрак, Книга II",9785170554751,,,,ES,2009/1/1,АСТ,rus,false,5,16183403,186,357,88,5,2006/1/1,"The Sword of Truth, Phantom 20",book,31,38,14,3,2,4.06,416,Hardcover,,6,0,"Terry Goodkind,Терри Гудкайнд",,,,,,65,2,,"fantasy,fiction"
10753501,0521172748,"Cohomology of Drinfeld Modular Varieties, Part 1, Geometry, Counting of Points and Local Harmonic Analysis",9780521172745,,,,ES,2010/11/17,Cambridge University Press,,false,3,3968091,2,4,1,0,1995/12/14,"Cohomology of Drinfeld Modular Varieties, Part 1, Geometry, Counting of Points and Local Harmonic Analysis (Cambridge Studies in Advanced Mathematics)",,0,1,0,0,0,4.00,360,Paperback,,0,0,"Laumon Gerard,Laumon Gerard",,,,,,1,0,,
10754501,,Histoire abr,2940030281728,,,,ES,,,,true,1,10754501,0,0,0,0,,,,0,0,0,0,0,0.00,,,,0,0,M. Geoffroy,,,,,,,0,,
10755001,059407357X,Illustrated Pirate Diaries: A Remarkable Eyewitness Account of Captain Morgan and the Buccaneers,9780594073574,,,,ES,,,,false,6,4749640,93,75,19,3,2008/8/26,The Illustrated Pirate Diaries: A Remarkable Eyewitness Account of Captain Morgan and the Buccaneers,book,4,11,3,1,0,3.95,,,,0,0,"Alexandre Olivier Exquemelin,Terry Breverton",,,,,,30,6,1,"adventure,biography,historical-fiction,history,memoir,non-fiction"
10755501,,Start Your Own Business (4th Edition),,B00104ANE8,,,ES,,,,true,3,12845701,226,261,74,1,1998/9/1,,book,14,27,18,14,1,3.53,,,,6,0,Entrepreneur Press,,,,,,94,0,29,"amazon,business,reference"
10756001,,Storia di una capinera,,,,,ES,2004/1/1,BUR Rizzoli,ita,false,56,1554294,2259,4776,1274,69,1871/1/1,Storia di una capinera,book,336,450,354,100,34,3.75,192,Paperback,BUR Classici moderni,9,1,Giovanni Verga,,,,,,385,10,17,"classics,fiction,historical-fiction,literature,novels,romance,school,short-stories"
10756501,1441774831,Dandelion Wine,9781441774835,,,,ES,2011/2/1,Blackstone Audiobooks,,false,155,50033,97076,191153,46770,3875,1957/9/1,Dandelion Wine,book,19933,15056,8579,2325,877,4.09,,Audio CD,,2,0,"Paul Michael Garcia,Ray Bradbury",,,,,,40388,197,1809,"adult,adult-fiction,american,americana,biography,classic-literature,classics,contemporary,family,fantasy,fiction,historical,historical-fiction,horror,literary-fiction,literature,magical-realism,memoir,novels,school,science-fiction,science-fiction-fantasy,short-stories,speculative-fiction,unfinished,young-adult"
10757001,1434301451,Palmers Green Bus Garage,9781434301451,,,,ES,2008/6/25,Authorhouse,,false,1,10757001,1,4,1,0,2008/7/2,,,0,1,0,0,0,4.00,144,Paperback,,1,0,Mike Wormall,,,,,,,0,,
10757501,0979949599,"WWII: Remembrances, Observations, Perspectives",9780979949593,,,,ES,2010/8/4,Rio Norte Press,,false,1,10757501,1,0,0,0,2010/8/4,,,0,0,0,0,0,0.00,113,Hardcover,,0,0,J. K. Nail,,,,,,,0,,
10758501,1109711573,A meta-analysis of empathy training programs for client populations .,9781109711578,,,,ES,,,,false,1,10758501,0,0,0,0,,,,0,0,0,0,0,0.00,,,,0,0,Robert Paul Butters,,,,,,,0,,
10759001,159394344X,Bear Bbh Write On/Wipe Off Stencil Wkbk - Word,9781593943448,,,,ES,2005/1/1,Bendon Publishing,,false,1,10759001,0,0,0,0,2005/1/28,,,0,0,0,0,0,0.00,,Hardcover,,0,0,,,,,,,,0,,
10761001,,Love 101,,B004OYTSJM,,,ES,,,,true,3,10761001,90,256,61,5,2011/1/27,,,29,19,10,2,1,4.20,,,,42,4,Sylvia Hubbard,,,,,,7,1,1,
10762501,0907587798,Historia świata od roku 1917 do lat 90-tych,9780907587798,,,,ES,,,pol,false,15,55304,6251,9254,2173,168,1983/1/1,Modern Times,book,1072,715,293,62,31,4.26,,,,2,0,Paul Johnson,,,,,,3340,21,291,"american-history,business,classics,college,economics,historical,history,music,non-fiction,philosophy,politics,psychology,science,unfinished,war"
10763501,613380517X,"Dunn County, North Dakota",9786133805170,,,,ES,2010/11/1,Alphascript Publishing,,false,1,10763501,1,0,0,0,2010/11/1,,,0,0,0,0,0,0.00,64,Paperback,,0,0,"Agnes F. Vandome,John McBrewster",,,Frederic P.  Miller,,,,0,,
10764001,1555814816,Nitrification,9781555814816,,,,ES,2011/3/31,ASM Press,,false,2,10764001,0,0,0,0,2011/3/31,,,0,0,0,0,0,0.00,445,Hardcover,,0,0,,,,"Bess B. Ward,Daniel J. Arp,Martin G. Klotz",,,,0,,
10764501,,Surfer's Code: Twelve Simple Lessons For Riding Through Life,,B001RKFU0C,,,ES,,,,true,6,44879,287,591,156,21,2006/9/13,Surfer's Code,,41,56,45,13,1,3.79,,,,11,0,Shaun Tomson,,,,,,87,0,14,"nature,non-fiction,sports"
10765001,9025598277,Het Vuile Schort: Bedenkingen Over Zwakzinnigenzorg,9789025598273,,,,ES,,,,false,1,10765001,2,0,0,0,,,,0,0,0,0,0,0.00,,,,0,0,B. Van Zijderveld,,,,,,,1,,
10765501,2845807341,"Les Princes Du Thé, Tome 11",9782845807341,,,,ES,,,fre,false,2,11436055,19,45,12,2,2006/8/1,紅茶王子 11,book,1,7,4,0,0,3.75,,,,3,0,Yamada Nanpei,,,,,,4,2,,"fantasy,fiction,manga,young-adult"
10766001,1410436691,Too Close to Home,9781410436696,,,,ES,2011/5/18,Thorndike Press,,false,12,6789785,12377,25231,6317,508,2010/1/1,Too Close to Home,book,2434,2091,1263,379,150,3.99,507,Hardcover,Large Print,6,3,Lynette Eason,,,,,,4526,49,271,"adventure,amazon,christian,christian-fiction,contemporary,crime,drama,fiction,inspirational,mystery,mystery-thriller,romance,suspense,thriller"
10766501,,Women in Love,,B004AYD644,,,ES,,,,true,573,9784,51789,97631,26700,957,1920/1/1,Women in Love,book,6530,9060,7547,2537,1026,3.66,,,,0,0,D.H. Lawrence,,,,,,18425,179,1988,"adult-fiction,british-literature,classic-literature,classics,drama,english-literature,erotica,fiction,historical,historical-fiction,literary-fiction,literature,love,modern-classics,novels,relationships,romance,school,unfinished"
10767501,,Cuestiones est,2940031731307,,,,ES,,,,true,3,10767501,0,0,0,0,,,,0,0,0,0,0,0.00,,,,0,0,Alfonso Reyes,,,,,,,0,,
10769001,8847722608,"Oberon il Giovane Mago (Oberon, #1)",9788847722606,,,,ES,2008/5/1,EL,ita,false,8,1260949,453,966,247,14,1985/10/1,Grey Star the Wizard,book,76,93,61,14,3,3.91,,Paperback,,12,2,"Ian Page,Joe Dever",P. Bonner,,,"Giulio Lughi,J. Moss",,120,6,,"childrens,fantasy,fiction,magic,sports"
10769501,,Coquina Hard,,B004QTOOXA,,,ES,,,,true,3,10769501,50,29,9,0,2011/3/5,,,2,2,3,0,2,3.22,,,,9,0,Lorain O'Neil,,,,,,35,1,3,"adventure,historical,romance"
10770001,,Amma Kavitha Samputhi,2940039117950,,,,ES,,,,true,1,10770001,0,0,0,0,,,,0,0,0,0,0,0.00,,,,0,0,Dr Smt. Vasa Prabhavathi,,,,,,,0,,
10771001,225305335X,Tanger,9782253053354,,,,ES,,,,false,2,10771001,3,4,1,0,1990/1/1,,,0,1,0,0,0,4.00,,,,0,0,Daniel Rondeau,,,,,,2,0,,
10771501,Aberracion,Aberraciones: el ocio de las formas,,,,,ES,,"Dirección de Literatura, UNAM, Serie Diagonal",spa,false,1,10771501,3,5,1,0,,,book,1,0,0,0,0,5.00,,,,1,0,Silvia Eugenia Castillero,,,,,,1,0,,
10772001,8875801215,La bellezza nonostante,9788875801212,,,,ES,2011/1/1,Transeuropa ,ita,false,3,10772001,75,147,38,7,2011/12/21,La bellezza nonostante,book,10,17,8,2,1,3.87,83,Paperback,Inaudita Big,36,7,Fabio Geda,,,,,,24,1,,non-fiction
10772501,1616330937,Marta's Gargantuan Wings,9781616330934,,,,ES,2010/9/25,Guardian Angel Publishing,,false,1,10772501,3,14,3,2,2010/9/25,,,2,1,0,0,0,4.67,16,Paperback,,3,2,"Eugene Ruble,J. Aday Kennedy DAWS",,,,,,,0,,
10773001,0373599412,Shotgun baby.,9780373599417,,,,ES,1998/1/1,Harlequin Mills & Boon,,false,8,2180439,76,79,21,1,1997/8/1,,book,8,4,6,2,1,3.76,298,,,0,0,Tara Taylor Quinn,,,,,,35,3,2,"harlequin,romance"
10775001,,Triple the Fun  (Vampire Dance #1-3),,B004OYTAZ4,,,ES,,,eng,true,3,10652013,17,4,3,0,2012/6/13,,book,0,0,0,1,2,1.33,,,,1,0,Locklyn Swallow,,,,,,12,0,,erotica
10775501,8401336651,"Sol negro (Tom Kirk, #2)",9788401336652,,,,ES,,,spa,false,28,254005,3666,6960,1816,79,2006/1/1,The Black Sun,book,527,632,513,114,30,3.83,448,,,7,0,James Twining,,,,Alexandre Casal Vázquez,,1484,14,39,"action,adventure,contemporary,crime,detective,fiction,historical,historical-fiction,mystery,mystery-thriller,thriller"
10776501,0984152210,Practical Parenting: Biblical Guide for Raising Capable Competent Children,9780984152216,,,,ES,2010/4/13,Doctrine of the Cross,,false,1,10776501,1,5,1,0,2010/4/13,,,1,0,0,0,0,5.00,132,Paperback,,1,0,Brandy A. Coffee Marks,,,,,,,0,,
10777001,,El Dorado (The Scarlet Pimpernel Series #8),2940012232120,,,,ES,,,eng,true,142,31503,3070,5691,1380,122,1913/1/1,Eldorado,book,557,505,261,46,11,4.12,,,,2,0,Emmuska Orczy,,,,,,1367,19,68,"adult,adult-fiction,adventure,british-literature,classic-literature,classics,fiction,france,historical,historical-fiction,history,literary-fiction,literature,mystery,novels,romance,thriller,young-adult"
10777501,,Unknown Book 10777501,,,,,ES,,,,false,1,10777501,5,9,2,0,,,,1,1,0,0,0,4.50,,,,2,0,Unknown,,,,,,1,0,,
10778001,9004153179,"Religious Freedom, Multiculturalism, Islam: Cross-Reading Finland and Ireland",9789004153172,,,,ES,2006/10/1,Brill Academic Publishers,,false,2,16850129,0,0,0,0,2006/10/1,"Religious Freedom, Multiculturalism, Islam: Cross-Reading Finland and Ireland",book,0,0,0,0,0,0.00,488,Hardcover,,0,0,Tuula Sakaranaho,,,,,,,0,,
10778501,1156636302,"Television Series by Sesame Workshop: Sesame Street, the Electric Company, Ghostwriter, Square One Television, Spidey Super Stories",9781156636305,,,,ES,2011/8/16,"Books LLC, Wiki Series",,false,1,10778501,1,5,1,0,2010/5/22,,,1,0,0,0,0,5.00,,Paperback,,1,0,Source Wikipedia,,,,,,,0,,
10779001,0753145596,Castile For Isabella,9780753145593,,,,ES,,,,false,16,1327528,2134,3316,846,45,1960/1/1,Castile for Isabella,book,257,329,207,41,12,3.92,,,,0,0,Jean Plaidy,,,,,,1030,10,29,"classics,fiction,historical,historical-fiction,history,love,medieval,novels,romance"
10779501,1597980951,Spicy-Adventure Stories - 03/40,9781597980951,,,,ES,2007/7/1,Adventure House,,false,1,10779501,2,0,0,0,2007/7/10,,,0,0,0,0,0,0.00,132,Paperback,,0,0,"Jose Vaca,Robert Leslie Bellem",,,,,,2,0,,
10780501,,"Festivals, Games, and Amusements, Ancient and Modern",2940024446584,,,,ES,,,,true,12,30252517,0,0,0,0,,,,0,0,0,0,0,0.00,,,,0,0,Horace Smith,,,,,,,0,,
10781001,4091514960,"イキガミ - 魂揺さぶる究極極限ドラマ, Vol. 5",9784091514967,,,,ES,,,jpn,false,12,6948767,404,1136,275,15,2008/5/2,イキガミ 5 (イキガミ #5),book,90,140,37,7,1,4.13,,,,0,0,Motoro Mase,,,,,,48,12,2,"comics,dark,death,dystopia,graphic-novels,manga,science-fiction,thriller"
10781501,0967317118,"What Ever Happened to Baby Harry?: The True Story of the First Child Born to an Officer's Family at Camp Apache, Arizona Territory",9780967317113,,,,ES,2003/12/31,Primrose Press,,false,1,10781501,0,0,0,0,2003/9/28,,,0,0,0,0,0,0.00,19,Paperback,,0,0,"Melissa Ruffner,Roger Summerhayes",,,,,,,0,,
10784501,9282669149,Cirmac-Bf-Carbiosystem Upgrading of Land Fill-Gas Into Psueudo-Natural Gas NL-En,9789282669143,,,,ES,,,,false,1,10784501,0,0,0,0,,,,0,0,0,0,0,0.00,,,,0,0,European Commission,,,,,,,0,,
10785001,,The Joys and Tribulations of an Editor,,,,,ES,1924/1/1,The Century Co.,eng,false,1,10785001,2,3,1,0,1924/1/1,The Joys and Tribulations of an Editor,book,0,0,1,0,0,3.00,369,Hardcover,,1,0,L. Frank Tooker,,,,,,1,0,,biography
10785501,5277020098,Populiarnaia Morskaia Entsiklopediia,9785277020098,,,,ES,,,,false,1,10785501,0,0,0,0,1997/1/1,,,0,0,0,0,0,0.00,,,,0,0,IU. G Glotov,,,,,,,0,,
10786001,0545239680,Solve-the-Riddle Phonics Practice: 50+ Reproducible Activity Sheets That Help Students Master Key Phonics Skills,9780545239684,,,,ES,2010/10/1,Scholastic Teaching Resources (Teaching Strategies),,false,1,10786001,2,0,0,0,2010/10/1,,,0,0,0,0,0,0.00,64,Paperback,,0,0,Deborah Schecter,,,,,,,0,,
10787001,1440312001,The Art of Manliness   Manvotionals: Timeless Wisdom and Advice on Living the 7 Manly Virtues,9781440312007,,,,ES,2011/10/28,HOW Books,,false,11,12431871,2975,3918,921,60,2011/1/1,,book,448,307,126,32,8,4.25,272,Paperback,,208,12,"Brett McKay,Kate McKay",,,,,,1571,15,282,"inspirational,leadership,non-fiction,personal-development,philosophy,poetry,psychology,reference,relationships,self-help,social,society"
10787501,0828531137,Human Anatomy,9780828531139,,,,ES,1986/9/1,Imported Pubn,,false,1,10787501,608,277,68,1,1986/9/1,,,38,14,6,3,7,4.07,,Hardcover,,68,1,"M. Prives,N. Lysenkov,V. Bushkovich",,,,,,416,1,46,textbooks
10790501,,المراجعات,,,,,ES,,,ara,false,12,10790501,657,812,191,29,1986/10/1,,book,112,41,21,8,9,4.25,328,Hardcover,,172,25,عبد الحسین شرف‌ الدین,,,,,,183,4,29,"non-fiction,philosophy,religion"
10791001,,Beneath The Surface,,B004OL2KZO,,,ES,,,,true,4,10729105,102,203,45,2,2011/2/19,,,29,11,4,1,0,4.51,,,,15,0,Roy Glenn,,,,,,42,1,4,
10793001,,Ja'a Jutek,,,,,ES,,Mata Pena Yogya,,false,1,10793001,17,24,7,3,,,book,2,2,1,1,1,3.43,,,,7,3,Isma Kazee,,,,,,6,0,1,
10793501,0061739022,Bewitching The Highlander (Men Of The Mist #3),9780061739026,,,,ES,2009/10/13,HarperCollins e-books,,true,8,1123478,266,264,82,6,2007/7/31,Bewitching the Highlander,book,12,23,27,11,9,3.22,384,ebook,,0,0,Lois Greiman,,,,,,117,9,3,"fantasy,historical,paranormal,romance,time-travel,travel"
10795001,053108731X,The Smash Up Crash Up Derby,9780531087312,,,,ES,1995/3/1,Orchard Books (NY),,false,2,2916861,26,62,16,3,1995/1/1,The Smash-Up Crash-Up Derby,book,5,5,5,1,0,3.88,,Hardcover,,0,0,Tres Seymour,S.D. Schindler,,,,,,1,,"family,juvenile"
10796001,1604692596,The Essential Garden Design Workbook,9781604692594,,,,ES,2010/9/14,,,true,1,10796001,0,0,0,0,2010/9/14,,book,0,0,0,0,0,0.00,308,ebook,,0,0,"Andrea  Johnson,Cole Danehower",,,,,,,0,,
10796501,1424121965,The Devil Must Be Laughing,9781424121960,,,,ES,2006/5/22,America Star Books,,false,2,10796501,0,0,0,0,2006/5/22,,,0,0,0,0,0,0.00,308,Paperback,,0,0,Samuel Akinyele Caulcrick,,,,,,,0,,
10797001,,Dancing with Gravity,2940012269317,,,,ES,,,,true,5,10396705,35,53,15,6,2011/3/1,,,5,3,3,3,1,3.53,,,,1,1,Anene Tressler,,,,,,14,2,1,fiction
10798001,1585476218,Spencer's Mountain,9781585476213,,,,ES,2005/8/1,Center Point,,false,6,2402548,1487,2895,716,81,1961/1/1,Spencer's Mountain,book,259,268,157,25,7,4.04,334,Hardcover,Large Print,7,3,Earl Hamner Jr.,,,,,,575,16,50,"adult,adult-fiction,americana,biography,classics,fiction,historical-fiction,humor,literature,memoir,non-fiction"
10798501,1118040163,Flying High: How Jetblue Founder and CEO David Neeleman Beats the Competition... Even in the World's Most Turbulent Industry,9781118040164,,,,ES,2010/12/17,Wiley,,true,7,243939,166,251,66,6,2004/1/1,Flying High: How JetBlue Founder and CEO David Neeleman Beats the Competition... Even in the World's Most Turbulent Industry,,16,27,19,2,2,3.80,304,ebook,,0,0,James Wynbrandt,,,,,,82,0,5,"biography-memoir,business"
10799501,1413721400,Politics and Politicians,9781413721409,,,,ES,,,,false,1,10799501,0,0,0,0,,,,0,0,0,0,0,0.00,,,,0,0,Bernard J. Ficarra,,,,,,,0,,
10800501,8887845018,Le Arti A Sarzana,9788887845013,,,,ES,1999/1/1,Buonaparte,,false,1,10800501,1,0,0,0,1999/1/1,,,0,0,0,0,0,0.00,,,,0,0,Piero Donati,,,,,,,0,,
10802001,3839173299,Digitale Fernsehtechnik: Eine Einführung,9783839173299,,,,ES,2009/11/25,Books on Demand,,false,2,10802001,0,0,0,0,2009/11/25,,,0,0,0,0,0,0.00,216,Paperback,,0,0,Wolfgang Eustachi,,,,,,,0,,
10802501,4575834068,Ekiben Hitoritabi: 4,9784575834062,,,,ES,,,,false,1,10802501,3,4,1,0,2007/1/1,,,0,1,0,0,0,4.00,,,,1,0,Jun Hayase,,,,,,1,0,,"drama,manga"
10803501,,Dwight Eisenhower's Leadership Lessons,2940012284624,,,,ES,,,,true,3,9650450,180,235,67,5,2010/10/13,,book,9,25,27,3,3,3.51,,,,0,0,New Word City,,,,,,84,7,7,"amazon,biography,business,history,leadership,non-fiction,politics,self-help,unfinished"
10804001,,All She Ever Wanted,,B004MYFSD4,,,ES,,,en-GB,true,19,29796563,6469,14632,3881,247,2000/1/1,All She Ever Wanted,book,955,1468,1136,255,67,3.77,422,,,939,24,Barbara Freethy,,,,,,1333,27,385,"adult,adult-fiction,amazon,chick-lit,contemporary,drama,family,fiction,love,mystery,romance,suspense"
10805001,1435133447,The Secret Garden,9781435133440,,,,ES,2011/9/1,Barnes & Noble Inc,eng,false,606,2998,1161246,3232399,783261,15517,1911/8/1,The Secret Garden,book,329041,272938,142738,28684,9860,4.13,291,Leather Bound,,379,50,"Charles Robinson,Frances Hodgson Burnett",,,,,,280432,1489,9727,"adventure,british-literature,childrens,classic-literature,classics,drama,family,fantasy,fiction,historical,historical-fiction,juvenile,literature,middle-grade,mystery,novels,realistic-fiction,school,young-adult"
10805501,,Baby Doll,2940011144561,,,,ES,,,,true,3,10805501,47,128,29,0,2010/11/23,,book,15,11,3,0,0,4.41,,,,19,0,Sylvia Hubbard,,,,,,2,0,1,
10806001,,Male Nude Photography- Behind The Scenes II,2940012011374,,,,ES,,,,true,1,10806001,0,0,0,0,2010/1/22,,book,0,0,0,0,0,0.00,,,,0,0,Nick Baer,,,,,,,0,,
10806501,9060697464,Nikolaj,9789060697467,,,,ES,1989/1/1,Lemniscaat,nl,false,1,10806501,45,114,29,1,1989/1/1,Nikolaj,book,6,15,8,0,0,3.93,199,Hardcover,,29,1,Ellen Tijsinger,,,,,,1,4,,
10807001,,Almirante: a romance of old-time California,2940017960257,,,,ES,,,,true,1,10807001,0,0,0,0,,,,0,0,0,0,0,0.00,,,,0,0,George Homer Meyer,,,,,,,0,,
10808001,0349112428,Andrew Marvell: World Enough And Time,9780349112428,,,,ES,2000/1/1,Abacus,eng,false,4,406822,20,22,6,2,1999/1/1,World Enough And Time: The Life Of Andrew Marvell,book,0,4,2,0,0,3.67,342,Paperback,,1,0,Nicholas  Murray,,,,,,11,0,,"biography,history,non-fiction,poetry"
10809001,,Runnin' With The Devil,2940011809668,,,,ES,,,,true,6,33408652,3,0,0,0,2010/4/14,,,0,0,0,0,0,0.00,,,,0,0,John Stimson,,,,,,1,0,2,
10810001,0843149426,Wee Sing Fun and Folk,9780843149425,,,,ES,2002/7/22,Price Stern Sloan,,false,16,3265807,26,19,5,1,1989/9/29,Wee Sing Fun 'n' Folk book,book,2,1,1,1,0,3.80,,Unknown Binding,,0,0,"Pamela Conn Beall,Susan Hagen Nipp",,,,,,5,1,,"childrens,music"
10810501,,In State Captivity: L.P. vs. New Jersey,,B004QS94UY,,,ES,,,,true,2,10810501,5,14,4,1,2011/3/3,,,1,1,1,1,0,3.50,,,,2,0,L. Petry,,,,,,1,0,,
10811001,,The Great Ones Volume IV,2940012193063,,,,ES,,,,true,2,10811001,1,0,0,0,2011/2/14,,,0,0,0,0,0,0.00,,,,0,0,V.K. Subramanian,,,,,,1,0,,
10811501,1848568983,Primeval: The Lost Island,9781848568983,,,,ES,2011/1/19,Titan Books,,true,10,3391272,301,523,136,20,2008/11/25,Primeval: The Lost Island (Primeval),book,35,52,42,7,0,3.85,,ebook,,0,0,Paul Kearney,,,,,,114,11,4,"fantasy,literature,science-fiction,supernatural,time-travel"
10812001,,A Jus sz,2940038924696,,,,ES,,,,true,1,10812001,0,0,0,0,,,,0,0,0,0,0,0.00,,,,0,0,Gyula Pikler,,,,,,,0,,
10812501,3785709951,"Schliemanns Erben, Von den Schwarzen Pharaonen zu den Herren der eisigen Höhen",9783785709955,,,,ES,1999/1/1,Lübbe,,false,4,10812501,10,7,2,1,1999/1/1,,,0,1,1,0,0,3.50,,Hardcover,,1,1,Gisela Graichen,,,,,,3,1,,history
10813501,1584958871,King's Bishop Takes King's Rook's Pawn,,,,,ES,2002/1/1,DiskUs Publishing.com,eng,true,1,10813501,10,15,3,2,2002/1/1,,book,3,0,0,0,0,5.00,45,ebook,,3,2,J.F. Juzwik,,,,,,7,1,,
10815001,3899961757,Cocktails: mit und ohne Alkohol; 50 Rezeptkarten ,9783899961751,,,,ES,2004/1/1,,,false,1,10815001,1,2,1,0,2004/1/1,,,0,0,0,1,0,2.00,,Unknown Binding,,1,0,Zanko,,,,,,,0,,
10816501,0203835182,Gerard Manley Hopkins,9780203835180,,,,ES,2014/5/14,Routledge,,true,8,19999689,4,3,1,0,2010/12/9,,,0,0,1,0,0,3.00,240,ebook,,0,0,Angus Easson,,,,,,2,0,1,biography
10818001,,Different Shades of Gray,2940012660824,,,,ES,,,,true,4,10818001,87,149,37,9,2011/3/17,,book,13,16,4,4,0,4.03,,,,27,7,Sable Jordan,,,,,,35,0,2,romance
10819501,0814334989,"The Lessing Yearbook XXXVIII, 2008/2009",9780814334980,,,,ES,2010/7/15,Wayne State University Press,,false,1,10819501,0,0,0,0,2010/7/15,,,0,0,0,0,0,0.00,332,Hardcover,,0,0,,,,"Herbert Rowland,Richard E. Schade",,,,0,,
10820501,,Codependent No More: How to Stop Controlling Others and Start Caring for Yourself,,,,,ES,1992/1/1,Hazelden,eng,false,41,720298,50145,95614,23038,940,1986/1/1,Codependent No More: How to Stop Controlling Others and Start Caring for Yourself,book,10445,7301,3963,967,362,4.15,236,Paperback,Second,27,8,Melody Beattie,,,,,,21260,53,3089,"adult,christian,family,health,inspirational,marriage,mental-health,mental-illness,non-fiction,personal-development,philosophy,psychology,reference,relationships,self-help,spirituality,unfinished"
10821501,,The Soviet Airborne Experience ,,B001RDRZ5C,,,ES,1984/11/1,Combat Studies Institute,eng,false,4,10821501,26,20,5,2,1984/11/1,,book,1,3,1,0,0,4.00,211,Paperback,,2,1,David M. Glantz,,,,,,11,0,1,non-fiction
10822001,,كلام في السياسة: عام من الأزمات! ٢٠٠٠ - ٢٠٠١,,,,,ES,2001/5/1,دار الشروق,,false,2,10822001,250,328,87,2,2001/5/1,كلام في السياسة: عام من الأزمات! ٢٠٠٠ - ٢٠٠١,book,22,31,27,6,1,3.77,498,,,87,2,محمد حسنين هيكل,,,,,,126,2,,"history,politics"
10823001,0107681,Zelený dům,,,,,ES,1981/1/1,Odeon,cze,false,84,53972,7432,10900,2938,183,1965/1/1,La casa verde,book,771,1038,753,258,118,3.71,,Hardcover,,3,0,Mario Vargas Llosa,,,,Vladimír Medek,,3646,4,208,"classics,contemporary,drama,fiction,historical-fiction,international,literary-fiction,literature,magical-realism,novels"
10823501,,Doppio inganno,,,,,ES,1990/2/1,BUR,ita,false,107,15769,203106,666806,162255,1129,1986/2/11,The Bourne Supremacy,book,62600,63570,29180,5081,1824,4.11,663,Paperback,,2,0,Robert Ludlum,,,,Luciana Bianciardi,,31082,92,828,"action,adult,adult-fiction,adventure,american,contemporary,crime,drama,fiction,movies,mystery,mystery-thriller,novels,suspense,thriller"
10824001,1613080670,Start Your Own Event Planning Business,9781613080672,,,,ES,2007/8/1,Entrepreneur Press,,true,8,488412,134,105,29,5,2004/7/27,Start Your Own Event Planning Business: Your Step by Step Guide to Success (Start Your Own Event Planning),book,8,7,10,3,1,3.62,142,ebook,,0,0,Amy Jean Peters,,,,,,62,0,20,"business,non-fiction,reference,romance"
10824501,0071761659,Be a Master at Go,9780071761659,,,,ES,2011/5/13,McGraw-Hill,,false,2,10824501,17,19,6,2,,,,0,2,3,1,0,3.17,216,Paperback,,5,2,Charles Matthews,,,,,,7,1,,
10825001,,Romantic Syndrome: Toward a New Method in Cultural Anthropology and History of Ideas,9789024703821,,,,ES,,,,false,4,10825001,5,0,0,0,1961/1/1,,,0,0,0,0,0,0.00,,,,0,0,W.T. Jones,,,,,,,0,,
10825501,1405125640,Clinical Cases in Dietetics,9781405125642,,,,ES,2008/3/1,Wiley-Blackwell,,false,1,10825501,6,4,1,0,2008/3/28,,,0,1,0,0,0,4.00,281,Paperback,,1,0,Frederic Pender,,,,,,3,0,,
10826001,,Vampire Oracle: Chalice,,B004OL2LIA,,,ES,,,,true,3,4276224,26,27,6,2,2008/1/1,Vampire Oracle: Chalice,,3,3,0,0,0,4.50,,,,2,1,Ericka Scott,,,,,,19,0,,
10826501,,Canes and Scales,,B004RCLWJ0,,,ES,,Dreamspinner Press,eng,true,5,10602830,569,621,177,39,2011/3/9,,book,48,41,50,29,9,3.51,,,1st Edition,7,1,S.A. Garcia,,,,,,309,15,2,"adult,fantasy,fiction,gay,lgbt,magic,paranormal,queer,romance,steampunk,supernatural"
10827001,1418582530,Líder de 360°: Cómo desarrollar su influencia desde cualquier posición en su organización,9781418582531,,,,ES,2006/1/8,Grupo Nelson,,true,42,183396,13870,23233,5611,249,2005/1/1,The 360 Degree Leader: Developing Your Influence from Anywhere in the Organization,book,2396,1952,993,196,74,4.14,320,ebook,,0,0,John C. Maxwell,,,,,,6709,23,635,"business,christian,christianity,leadership,non-fiction,personal-development,psychology,reference,religion,self-help"
10828501,1932073418,"Diet for a New America: How Your Food Choices Affect Your Health, Happiness, and the Future of Life on Earth",9781932073416,,,,ES,2011/3/1,Hj Kramer/Starseed,,true,15,51315,7359,14844,3563,288,1987/9/1,,book,1623,1162,577,149,52,4.17,432,ebook,,3,0,John Robbins,,,,,,3128,3,128,"animals,cookbooks,cooking,economics,food,health,nature,non-fiction,philosophy,politics,reference,school,science,self-help,social-issues,spirituality"
10829001,0203881982,State Violence and Human Rights: State Officials in the South,9780203881989,,,,ES,2014/5/14,Not Avail,,true,3,10829001,1,5,1,0,2008/11/11,,,1,0,0,0,0,5.00,219,ebook,,1,0,Steffen Jensen,,,,,,,0,,
10829501,1414018177,Inspirations of Hope,9781414018171,,,,ES,,,,false,2,17633161,0,0,0,0,2004/2/25,,,0,0,0,0,0,0.00,,,,0,0,Cicely Hawkins Bailey,,,,,,,0,,
10830001,1441892672,The Stainless Steel Rat's Revenge,9781441892676,,,,ES,2010/10/12,Brilliance Audio,,false,33,64402,6731,20755,5246,90,1970/1/1,The Stainless Steel Rat's Revenge,book,1546,2140,1366,173,21,3.96,,Audio,,0,0,"Harry Harrison,Phil Gigante",,,,,,691,12,13,"adventure,american,comedy,crime,fantasy,fiction,funny,humor,science,science-fiction,science-fiction-fantasy,speculative-fiction,thriller"
10831501,1432750623,Murdock Mystery #2,9781432750626,,,,ES,2010/3/25,Outskirts Press,,false,1,10831501,3,0,0,0,2010/3/25,,,0,0,0,0,0,0.00,88,Paperback,,0,0,Sandy Zaugg,,,,,,2,0,1,
10832001,1429663529,"The Foul, Filthy American Frontier: The Disgusting Details about the Journey Out West",9781429663526,,,,ES,2011/2/1,Capstone Press,,false,2,7868150,45,95,29,14,2010/1/1,,,4,9,9,5,2,3.28,32,Paperback,,4,1,Heather E. Schwartz,,,,,,8,1,,"american-history,history,juvenile,non-fiction"
10832501,,Lucretia Borgia,2940011984365,,,,ES,,,,true,51,18896833,425,526,154,14,1874/1/1,Lucrezia Borgia: Nach Urkunden und Correspondenzen ihrer eigenen Zeit,book,27,45,56,17,9,3.42,,,,0,0,Ferdinand Gregorovius,,,,,,94,3,12,"biography-memoir,classics,historical,history,non-fiction,reference,research"
10833501,3837068463,Eine Galaxis ist noch kein Universum,9783837068467,,,,ES,2009/1/21,Books on Demand,,false,1,10833501,1,4,1,0,2009/3/9,,,0,1,0,0,0,4.00,288,Paperback,,1,0,J.K.G. Wieland,,,,,,,0,,
10834001,,Flash of the Sun,2940012141484,,,,ES,,,,true,3,10782144,4,2,1,0,2010/12/22,,book,0,0,0,1,0,2.00,,,,0,0,Janvier Chouteu-Chando,,,,,,3,0,,
10834501,9788324709,Co się mieści w dwóch walizkach,,,,,ES,2009/1/1,Świat Książki,pol,false,7,1910248,107,260,76,8,2008/1/1,Was in zwei Koffer paßt. Klosterjahre,book,11,25,29,7,4,3.42,288,Paperback,,3,0,Veronika Peters,,,,,,15,5,1,"contemporary,memoir,non-fiction,religion"
10835001,,Date with Death (Welcome to Hell #2.5),9781595788146,,,,ES,2011/3/28,Liquid Silver Books,eng,true,10,18137659,3525,8402,2087,124,2013/6/28,Date with Death,book,764,741,479,78,25,4.03,44,ebook,1st edition,362,37,Eve Langlais,,,,,,949,22,57,"adult,adult-fiction,contemporary,demons,erotica,fantasy,funny,humor,magic,mythology,novella,paranormal,romance,shapeshifters,short-stories,supernatural,urban-fantasy,vampires,witches"
10835501,2226207589,Le Chateau Souterrain T1,9782226207586,,,,ES,2010/9/1,Albin Michel Jeunesse,,false,1,10835501,1,0,0,0,2010/9/1,,,0,0,0,0,0,0.00,,Paperback,,0,0,Various,,,,,,1,0,,
10836001,1430201231,CSS Mastery: Advanced Web Standards Solutions,9781430201236,,,,ES,,,,false,8,563,1828,4373,1063,46,2006/1/1,CSS Mastery: Advanced Web Standards Solutions,book,419,402,191,46,5,4.11,,,,4,1,"Andy Budd,Cameron Moll,Simon Collison",,,,,,547,4,35,"education,non-fiction,reference,technology"
10837001,1409107345,The Secret Shopper Affair,9781409107347,,,,ES,,,,false,7,8506953,486,648,179,22,2011/1/1,,book,45,50,58,23,3,3.62,,,,3,1,Kate Harrison,,,,,,232,18,12,"chick-lit,fiction,holiday,romance"
10837501,0061807273,How to Lose the Civil War: Military Mistakes of the War Between the States,9780061807275,,,,ES,2011/3/22,William Morrow Paperbacks,,false,3,10837501,90,140,42,12,2011/3/22,,,3,15,18,5,1,3.33,320,Paperback,,36,10,Bill Fawcett,,,,,,29,2,5,"american-history,history,non-fiction,war"
10839001,1572701587,Another View,9781572701588,,,,ES,2000/11/8,Audio Partners,,false,49,60464,3497,8219,2237,134,1968/1/1,Another View,book,554,698,738,196,51,3.67,,Audiobook,,2,1,"Rosamunde Pilcher,Sian Thomas",,,,,,670,10,98,"adult,adult-fiction,chick-lit,contemporary,drama,english-literature,fiction,france,historical-fiction,history,romance"
10839501,9004171967,Renaissance Philosophy in Jewish Garb: Foundations and Challenges in Judaism on the Eve of Modernity,9789004171961,,,,ES,2008/11/27,Brill Academic Publishers,,false,2,16181966,5,0,0,0,2008/11/15,,,0,0,0,0,0,0.00,275,Hardcover,,0,0,Giuseppe Veltri,,,,,,4,0,,
10840001,1553889827,Newfoundland and Labrador,9781553889823,,,,ES,2010/1/1,Av2 by Weigl,,false,1,10840001,0,0,0,0,2010/1/1,,,0,0,0,0,0,0.00,48,Hardcover,,0,0,Heather C. Hudak,,,,,,,0,,
10840501,,Washington Irving,2940022030785,,,,ES,,,,true,49,403727,5,8,2,0,1881/1/1,Washington Irving,book,1,0,1,0,0,4.00,,,,0,0,Charles Dudley Warner,,,,,,3,0,,"biography,history"
10842001,,Certaines attestations d,2940031387191,,,,ES,,,,true,2,10842002,0,0,0,0,,,,0,0,0,0,0,0.00,,,,0,0,Homme qui ne cherche pas de place,,,,,,,0,,
10843001,1456348027,"Before You Say, ""I Do!"": His",9781456348021,,,,ES,2010/11/22,Createspace Independent Publishing Platform,,false,1,10843001,4,10,2,1,2010/11/22,,,2,0,0,0,0,5.00,134,Paperback,,2,1,"""General"" Hafeezah",,,,,,1,0,1,
10844001,,Practical blacksmithing: a collection of articles contributed at different times by skilled workmen to the columns of The blacksmith and wheelwright ...,2940023153421,,,,ES,,,,true,35,4773917,86,75,19,0,1889/1/1,Practical Blacksmithing: 4 Volumes,book,6,8,4,0,1,3.95,,,,0,0,Milton Thomas Richardson,,,,,,45,0,9,"reference,survival"
10844501,1408308967,Ship's Cat Doris,9781408308967,,,,ES,2011/9/20,Orchard Books,,false,7,10844500,46,104,30,10,2010/1/1,,,7,6,11,6,0,3.47,176,Paperback,,7,3,Jane Simmons,,,,,,6,5,3,
10845001,1604569808,Modeling Of Photonic Devices,9781604569803,,,,ES,2009/1/1,Nova Science Publishers,,false,1,10845001,0,0,0,0,2009/1/1,,,0,0,0,0,0,0.00,414,Hardcover,,0,0,Vittorio M.N. Passaro,,,,,,,0,,
10846001,188903262X,Joyfully Counseling People with New Hearts,9781889032627,,,,ES,2008/10/1,Institute for Nouthetic Studies,,false,1,10846001,12,3,1,1,2008/10/1,,,0,0,1,0,0,3.00,79,Paperback,,1,1,Jay E. Adams,,,,,,9,0,2,
10847501,1441739823,A Concise History of the Middle East,9781441739827,,,,ES,,,,false,41,64596,1484,2430,661,60,1979/1/1,A Concise History of the Middle East,book,130,263,208,44,16,3.68,,,Ninth Edition,3,1,"Arthur Goldschmidt, Jr.,Lawrence Davidson,Tom Weiner",,,,,,543,5,75,"academic,american,history,non-fiction,politics,reference,religion,textbooks"
10848001,8184564562,Further Adventures of Lad,9788184564563,,,,ES,,,,false,57,1552623,546,1548,357,10,1922/1/1,Further Adventures of Lad,book,182,118,54,1,2,4.34,,,Large Print,0,0,"Albert Payson Terhune,Payson Terhune Albert Payson Terhune",,,,,,113,10,10,"adventure,animals,childrens,classics,fiction,juvenile,literature,short-stories"
10849501,0877734410,Way of the Actor: A Path to Knowledge and Power,9780877734413,,,,ES,1988/4/12,"Shambhala Publications, Inc.",,false,4,611465,967,181,43,5,1986/1/1,Way of the Actor: A Path to Knowledge and Power,,22,12,5,4,0,4.21,216,Paperback,,1,0,Brian Bates,,,,,,886,11,7,"academic,business,canon,feminism,film,non-fiction,plays,theatre"
10850001,1742205240,Singapore Encounter,9781742205243,,,,ES,2010/12/1,Lonely Planet,eng,true,1,10850001,2,0,0,0,2010/11/1,,book,0,0,0,0,0,0.00,,ebook,2nd edition,0,0,"Joshua Samuel Brown,Mat Oakley",,,,,,1,0,,
10851501,1452532478,Free to Fly: It Is Your Reality,9781452532479,,,,ES,2011/2/23,Balboa Press,,false,3,10851501,1,0,0,0,2011/2/23,,book,0,0,0,0,0,0.00,132,Paperback,,0,0,Dempsey Harshaw,,,,,,,0,,
10852001,0794832954,Los Angeles Lakers Basketball Vault: The History of the Franchise,9780794832957,,,,ES,2011/10/23,Whitman Publishing,,false,1,10852001,9,20,5,0,2011/10/1,,,1,3,1,0,0,4.00,144,Hardcover,,5,0,Roland Lazenby,,,,,,3,0,1,sports
10852501,0793500737,The Wedding and Love Collection,9780793500734,,,,ES,1990/10/1,Hal Leonard Publishing Corporation,,false,1,10852501,1,0,0,0,1990/10/1,,book,0,0,0,0,0,0.00,144,Paperback,,0,0,Anonymous,,,,,,1,0,,
10854001,1846822084,"A History of Irish Farming, 1750-1950",9781846822087,,,,ES,2009/5/24,Four Courts Press,,false,3,5215052,16,8,3,0,1986/11/1,"A History of Irish Farming, 1750-1950",,0,1,0,2,0,2.67,344,Paperback,,2,0,"Bell B.,Mervyn Watson",,,,,,11,0,,"history,research"
10854501,0549532498,"Global Italy: Media, identity and the future of the nation-state.",9780549532491,,,,ES,,,,false,1,10854501,1,0,0,0,,,,0,0,0,0,0,0.00,,,,0,0,Mark Hayward,,,,,,1,0,,
10855501,,By Your Side,,B004HFRIUY,,,ES,,,,true,2,9583524,154,172,58,9,2010/11/2,,book,4,13,23,13,5,2.97,97,,,3,0,Willa Okati,,,,,,65,12,,"contemporary,erotica,fiction,romance"
10856001,0071113126,International Business [with CD],9780071113120,,,,ES,,,,false,68,1499991,2506,1137,305,15,1994/1/1,International Business: Competing in the Global Marketplace,book,93,92,81,22,17,3.73,,,International Edition,0,0,Charles W.L. Hill,,,,,,1558,2,81,"business,economics,international,non-fiction,school,textbooks,unfinished"
10857001,8427285116,Matrimonio de Sabuesos,9788427285118,,,,ES,,,spa,false,157,16325,21535,44007,11679,719,1929/6/7,Partners in Crime,book,2985,4163,3523,853,155,3.77,,,,1,0,Agatha Christie,,,,,,5848,58,313,"adult,adventure,british-literature,classics,cozy-mystery,crime,detective,fiction,historical,historical-fiction,murder-mystery,mystery,mystery-thriller,novels,romance,short-stories,suspense,thriller"
10857501,0899682235,A Passage to India,9780899682235,,,,ES,1981/12/1,Buccaneer Books,,false,230,45195,130233,223707,60826,2790,1924/1/1,A Passage to India,book,13942,22435,17192,5424,1833,3.68,450,Hardcover,,0,0,E.M. Forster,,,,,,56154,631,1916,"adult,adult-fiction,british-literature,classic-literature,classics,college,cultural,drama,english-literature,fiction,historical,historical-fiction,history,literary-fiction,literature,modern-classics,novels,school,travel,unfinished"
10858501,1554695082,The Middle Ground,9781554695089,,,,ES,2010/4/1,Orca Book Publishers,,true,6,7284112,297,474,143,30,2010/1/1,,,14,48,54,23,4,3.31,128,ebook,,1,0,Zoe Whittall,,,,,,118,13,4,"adult-fiction,adventure,crime,drama,fiction,mystery,novella,realistic-fiction,short-stories,sociology,suspense"
10859501,161147258X,Authorial Conquests: Essays on Genre in the Writings of Margaret Cavendish,9781611472585,,,,ES,2003/7/1,Fairleigh Dickinson University Press,,false,1,10859501,0,0,0,0,2003/7/1,,,0,0,0,0,0,0.00,238,Hardcover,,0,0,Line Cottegnies,,,,,,,0,,
10860001,1550652699,Montreal 24: Twenty-Four Hours in the Life of a City,9781550652697,,,,ES,2008/1/1,V Hicule Press,,true,1,10860001,0,0,0,0,2008/1/1,,,0,0,0,0,0,0.00,180,ebook,,0,0,"Bill Brownstein,Daniel Haber",,,,,,,0,,
10861501,,Fairway Phenom (Matt Christopher Sports Fiction),,B002ZDK01Y,,,ES,,,,true,9,2133081,37,40,12,1,2003/6/1,Fairway Phenom (Matt Christopher Sports Fiction),,2,4,3,2,1,3.33,,,,3,0,Matt Christopher,,,,,,13,0,3,
10862501,1118021517,"Debt, Deficits, and the Demise of the American Economy",9781118021514,,,,ES,2011/5/3,Wiley,eng,false,8,10862501,34,34,12,3,2011/4/19,,book,1,1,6,3,1,2.83,207,Hardcover,,10,3,"Jeff Cox,Peter J. Tanous",,,,,,14,0,3,"history,society"
10866001,,My Bible Book,,,,,ES,1956/1/1,Rand McNally and Company,eng,false,1,10866001,8,15,4,0,1946/1/1,My Bible Book,book,1,1,2,0,0,3.75,44,Hardcover,,4,0,Janie Walker,Dean Bryant,,,,,1,0,,religion
10866501,9221064360,Consumer Price Indices: An ILO Manual,9789221064367,,,,ES,,,,false,1,10866501,0,0,0,0,1990/1/1,,,0,0,0,0,0,0.00,,,,0,0,Ralph Turvey,,,,,,,0,,
10867001,0415365236,The Economic Analysis of Terrorism,9780415365239,,,,ES,2007/2/23,Routledge,,false,8,8118295,0,0,0,0,2006/2/18,,,0,0,0,0,0,0.00,302,Hardcover,,0,0,,,,Tilman Brück,,,,0,,
10868001,0203403487,Belgian Economy in the Twentieth Century,9780203403488,,,,ES,,,,true,9,16766280,1,0,0,0,1994/7/21,,book,0,0,0,0,0,0.00,,,,0,0,André Mommen,,,,,,1,0,,
10869001,9607088239,Γκέμμα,,,,,ES,2006/1/1,Βιβλιογονία,gre,false,4,10869001,465,952,214,21,1997/1/1,,book,128,60,20,6,0,4.45,285,Paperback,,183,17,"Dimitris Liantinis,Δημήτρης Λιαντίνης",,,,,,199,5,23,"non-fiction,philosophy"
10870001,1433669978,"Mommy, Teach Me: Preparing Your Preschool Child for a Lifetime of Learning",9781433669972,,,,ES,,,,true,1,10870001,2,0,0,0,2007/6/1,,,0,0,0,0,0,0.00,,,,0,0,Barbara Curtis,,,,,,1,0,,
10870501,3211991328,"Hierarchien In Gehirn, Geist Und Verhalten: Ein Prinzip Neuraler Und Mentaler Funktion",9783211991329,,,,ES,2009/8/17,Springer Publishing Company,,false,2,16981169,0,0,0,0,2009/1/1,,,0,0,0,0,0,0.00,144,Hardcover,,0,0,Gerald Wiest,,,,,,,0,,
10871001,0415601010,Methods of Language Teaching,9780415601016,,,,ES,2011/6/23,Routledge,,false,1,10871001,2,5,1,0,2011/6/23,,,1,0,0,0,0,5.00,,Hardcover,,1,0,"Baldomero Lago,Blair Bateman",,,,,,1,0,,
10871501,,Rising Tide by John M. Barry | Summary & Study Guide,,B004INHW9C,,,ES,,,,true,1,10871501,32,42,10,2,2011/1/10,,,4,4,2,0,0,4.20,,,,10,2,BookRags,,,,,,18,0,,
10872001,0830757171,A Mother's Guide to Praying for Your Children,9780830757176,,,,ES,2011/2/9,Regal Books,,false,7,14372105,24,35,8,0,2011/2/9,,book,4,3,1,0,0,4.38,156,Paperback,,0,0,Quin Sherrer,,,,,,10,0,4,
10872501,9532014845,Da Vincijev kod,,,,,ES,2006/1/1,"V.B.Z., Zagreb",scr,false,418,968,2212769,6518929,1706076,44311,2003/3/18,The Da Vinci Code,book,543873,592360,364059,132163,73621,3.82,448,Paperback,Biblioteka Ambrozija 89,28,1,Dan Brown,,,,,,247066,618,13210,"action,adult,adult-fiction,adventure,american,art,classics,contemporary,crime,detective,drama,fantasy,fiction,france,historical,historical-fiction,history,literature,movies,mystery,mystery-thriller,novels,realistic-fiction,religion,romance,suspense,thriller"
10873501,,The Dark Land,,B004IATD1A,,,ES,,,,true,5,1458728,4,5,1,0,2001/7/1,,book,1,0,0,0,0,5.00,,,,0,0,Jory Sherman,,,,,,,0,2,
10874001,075670703X,Puerto Rico Political Status: Congressional Hearing,9780756707033,,,,ES,,,,false,1,10874001,0,0,0,0,2001/2/28,,,0,0,0,0,0,0.00,,,,0,0,Frank H. Murkowski,,,,,,,0,,
10875001,1611066263,The Crow,9781611066265,,,,ES,2011/6/14,Brilliance Audio,,false,34,393147,17990,48375,12059,486,2006/7/3,The Crow,book,4325,4383,2645,577,129,4.01,,Audio,,0,0,Alison Croggon,,,,,,618,28,154,"adult,adventure,childrens,epic,epic-fantasy,fantasy,fiction,high-fantasy,high-school,historical,magic,novels,romance,science-fiction-fantasy,teen,war,young-adult"
10876001,,European Journey,,,,,ES,,,eng,false,1,10876001,10,7,2,1,,,book,1,0,0,1,0,3.50,,,,2,1,Philip Gibbs,,,,,,7,0,,
10876501,,"A letter to the honourable members of the Select committee of the House of Commons, appointed to inquire into the question of the slave trade on the East coast of Africa",2940018721598,,,,ES,,,,true,6,10876501,0,0,0,0,2013/8/14,,,0,0,0,0,0,0.00,,,,0,0,H.A. Fraser,,,,,,,0,,
10877001,,Histoire de M,2940031296936,,,,ES,,,,true,2,10877000,0,0,0,0,,,,0,0,0,0,0,0.00,,,,0,0,Paul Mouriez,,,,,,,0,,
10878501,,Afterthought,2940043311078,,,,ES,,,,true,3,6929697,114,127,38,3,2009/1/1,,book,3,13,17,4,1,3.34,145,Kindle Edition,,2,0,Cat Kane,,,,,,53,10,1,"drama,fantasy,fiction,gay,novella,paranormal,romance,speculative-fiction,suspense"
10879001,9794560162,Ekonomi Indonesia: Masalah dan Prospek 1988/1989,,,,,ES,1988/1/1,Universitas Indonesia Press dan FEUI,ind,false,1,10879001,2,0,0,0,1988/1/1,,book,0,0,0,0,0,0.00,578,Paperback,1st ed.,0,0,,,,"Iwan J. Azis,Moh. Arsjad Anwar,Sri-Edi Swasono",,,2,0,,economics
10879501,0312643403,William & Catherine: A Royal Wedding,9780312643409,,,,ES,2011/5/17,St. Martin's Press,,false,8,10879501,1072,1777,455,58,2011/5/17,,book,152,152,117,24,10,3.91,224,Hardcover,,403,55,Andrew Morton,,,,,,506,15,8,"adult,biography,biography-memoir,non-fiction,reference,romance,travel"
10880001,1605017000,T. Tembarom,9781605017006,,,,ES,,,,true,72,2568020,277,421,112,23,1913/1/1,T. Tembarom,book,29,42,26,15,0,3.76,,,,0,0,Frances Hodgson Burnett,,,,,,130,9,3,"american,british-literature,classics,contemporary,english-literature,european-literature,fiction,historical-fiction,literature,novels,romance"
10881001,1460976649,Career Portfolio,9781460976647,,,,ES,,,,false,2,15030401,0,0,0,0,2011/1/1,,,0,0,0,0,0,0.00,,,,0,0,Anna Faktorovich,,,,,,,0,,
10881501,,Unknown Book 10881501,,,,,ES,,,,false,1,10881501,1,4,1,0,,,,0,1,0,0,0,4.00,,,,1,0,Unknown,,,,,,,0,,
10882501,1423398858,Ghost Night,9781423398851,,,,ES,2010/7/27,Brilliance Audio,,false,30,7815690,7911,18165,4474,197,2010/7/27,Ghost Night,book,1709,1585,956,188,36,4.06,,Audio CD,,0,0,"Angela Dawe,Heather Graham",,,,,,2105,28,187,"adult,contemporary,crime,fantasy,fiction,ghosts,historical,horror,murder-mystery,mystery,mystery-thriller,paranormal,romance,supernatural,suspense,thriller"
10883501,189334911X,Living with Grief: Cancer and End-Of-Life Care,9781893349117,,,,ES,2010/1/1,Hospice Foundation of America,,false,1,10883501,6,5,1,0,2010/1/1,,,1,0,0,0,0,5.00,,Paperback,,1,0,"Amy S. Tucci,Kenneth J. Doka",,,,,,2,1,,
10884001,1576380408,The Comparative Performance of German Anti-Tank Weapons During World War II,,,,,ES,,,,false,1,10884001,0,0,0,0,,,,0,0,0,0,0,0.00,,,,0,0,H.G. Gee,,,,,,,0,,
10884501,3838110102,Integrating Out the Dirac Sea,9783838110103,,,,ES,2009/8/31,Sudwestdeutscher Verlag Fur Hochschulschriften AG,,false,1,10884501,2,3,1,0,2009/8/1,,,0,0,1,0,0,3.00,96,Paperback,,1,0,Felix Karbstein,,,,,,1,1,,
10886501,8025300188,"Hora děsu (Deltora - Země nestvůr a kouzel, #5)",9788025300183,,,,ES,2005/1/1,Fragment,cze,false,35,119495,10371,28931,7254,115,2000/1/1,Dread Mountain (Deltora Quest #5),book,2498,2576,1825,307,48,3.99,128,Paperback,,22,1,Emily Rodda,,,,Olga Machútová,,1053,31,43,"adventure,childrens,epic-fantasy,fantasy,fiction,high-fantasy,juvenile,literature,magic,middle-grade,mystery,novels,young-adult"
10887001,,Nattredaktøren,,,,,ES,2010/1/1,,nor,false,1,10887001,3,10,3,0,2010/1/1,,book,0,2,0,1,0,3.33,324,Hardcover,,3,0,Halvard C. Hanssen,,,,,,,1,,
10888001,3631340478,-Bilddenken- Im Dramatischen Fruehwerk Gerhart Hauptmanns - 1889-1903: Studien Zum Sinnbildlichen Verweis Unter Beruecksichtigung Kunsthistorischer Perspektiven,9783631340479,,,,ES,1998/12/1,"Peter Lang Gmbh, Internationaler Verlag Der Wissenschaften",,false,1,10888001,0,0,0,0,,,,0,0,0,0,0,0.00,453,Hardcover,,0,0,Helga Ibarth,,,,,,,0,,
10888501,,Great Expectations,,,,,ES,,The Book League of America,eng,false,2627,2623,972101,2175849,578174,14065,1861/1/1,Great Expectations,book,174054,194104,134841,49465,25710,3.76,375,Hardcover,,0,0,Charles Dickens,,,,,,286312,2580,21705,"adult,adult-fiction,british-literature,classic-literature,classics,drama,english-literature,fiction,high-school,historical,historical-fiction,literary-fiction,literature,novels,romance,school,unfinished,victorian,young-adult"
10889001,,The great issues now before the country. An oration,2940018279624,,,,ES,,,,true,14,30668159,0,0,0,0,2015/9/27,,,0,0,0,0,0,0.00,,,,0,0,Edward Everett,,,,,,,0,,
10892501,1617399701,The Galapagos Islands: Steve Trek Adventures,9781617399701,,,,ES,2011/5/3,Tate Publishing & Enterprises,,false,2,10892501,157,76,23,15,2011/5/3,,book,8,3,4,4,4,3.30,179,Paperback,,23,15,Terry Ross,,,,,,125,4,1,
10893501,9505111274,Queridos monstruos,9789505111275,,,,ES,,,spa,false,4,6444098,311,776,200,12,1991/1/1,Queridos monstruos,book,60,73,53,11,3,3.88,,,,10,1,Elsa Bornemann,,,,,,53,8,2,"contemporary,fantasy,ghosts,horror,middle-grade,mystery,short-stories,suspense"
10894001,,Witch of Venice,2940011942860,,,,ES,,,,true,3,9563987,4,0,0,0,2010/10/15,,,0,0,0,0,0,0.00,,,,0,0,Andrea Dale,,,,,,4,0,,
10894501,,Ego.Centris: e.m.b.r.i.o,9786029597172,,,,ES,2011/3/18,Genta Pustaka,ind,false,1,10894501,14,11,4,0,2011/3/18,Ego.Centris: e.m.b.r.i.o,book,0,1,2,0,1,2.75,,,,4,0,Novanka Raja,,,,,,6,0,1,
10896001,1159351201,"Wirtschaft (China): Renminbi, Shenzhen Stock Exchange, Chinesische Volksbank, Chinesische Wahrung, Red Flag Linux, Chinas Go-West-Strategie",9781159351205,,,,ES,2011/8/29,"Books LLC, Wiki Series",,false,9,10895993,0,0,0,0,2010/7/22,,,0,0,0,0,0,0.00,,Paperback,,0,0,Source Wikipedia,,,,,,,0,,
10898001,142995311X,Murder on the Eiffel Tower: A Victor Legris Mystery,9781429953115,,,,ES,2009/9/15,Minotaur Books,,true,26,3318525,3117,4390,1509,285,2003/3/6,Mystère rue des Saints-Pères,book,96,311,594,376,132,2.91,304,ebook,,10,5,Claude Izner,,,,,,1214,19,45,"adult,adult-fiction,cozy-mystery,crime,detective,fiction,france,historical,historical-fiction,history,international,mystery,mystery-thriller,suspense,thriller"
10899001,8180900061,The Principles Of Hindu Ethics,9788180900068,,,,ES,2003/1/1,"Bharatiya Kala Prakashan,India",,false,1,10899001,4,5,1,0,2003/1/1,,book,1,0,0,0,0,5.00,,Hardcover,,1,0,Maganlal A Buch,,,,,,3,0,,"philosophy,religion"
10899501,1594170738,Thomas More: A Lonely Voice Against the Power of the State,9781594170737,,,,ES,2009/10/1,Scepter Publishers,,false,8,10899501,28,42,10,1,1978/1/1,,book,5,2,3,0,0,4.20,230,Hardcover,,3,1,Peter Berglar,,,,Hector de Cavilla,,9,0,2,"biography,religion"
10900001,1441201459,How to Preach Without Notes,9781441201454,,,,ES,2007/9/1,Baker Books,,true,5,1786351,245,269,79,11,1997/1/1,How to Preach without Notes,,16,16,34,10,3,3.41,,ebook,,1,1,Charles W. Koller,,,,,,104,3,24,"christian,leadership,non-fiction,reference,self-help,theology"
10900501,0805385010,The Theory Of Superconductivity,9780805385014,,,,ES,1971/1/21,Westview Press,,false,4,3534781,16,9,2,0,1971/1/22,Theory of Superconductivity,,1,1,0,0,0,4.50,350,Paperback,,0,0,J. Robert Schrieffer,,,,,,9,0,,
10902001,1449710654,Love Another Child: Children. They're Blessings. Always.,9781449710651,,,,ES,2011/1/18,WestBow Press,,false,3,10901999,23,41,10,0,2011/1/18,,,4,3,3,0,0,4.10,148,Hardcover,,0,0,Chris Jeub,,,,,,9,1,,parenting
10903001,1597802123,Agatha H. and the Airship City (Girl Genius novels #1),9781597802123,,,,ES,2011/8/1,Night Shade,eng,false,19,9874196,6851,12192,3043,443,2010/1/1,Agatha H. and the Airship City ,book,1044,1213,590,154,42,4.01,264,Paperback,,106,19,"Kaja Foglio,Phil Foglio",,,,,,3223,33,94,"adult,adult-fiction,adventure,comedy,comics,dystopia,fantasy,fiction,funny,graphic-novels,historical,historical-fiction,humor,magic,novels,romance,science,science-fiction,science-fiction-fantasy,speculative-fiction,steampunk,unfinished,young-adult"
10903501,,A Daughter's Legacy,,B0037NB4XO,,,ES,2010/4/21,Steeple Hill Love Inspired,eng,true,9,8115416,225,335,89,16,2010/1/1,A Daughter's Legacy,book,26,28,25,8,2,3.76,224,,,15,0,Virginia Smith,,,,,,95,5,2,"adult,christian,christian-fiction,contemporary,fiction,romance"
10904001,,Seni Bergembira,9789790241596,,,,ES,2011/1/1,Zaman,ind,false,1,10904001,11,26,7,2,2011/1/1,,book,1,4,1,1,0,3.71,325,Paperback,I,7,2,Karim Abdul Ghaffar,,,,,,3,0,,
10907001,9780553821,Merlin: The Official Annual - 2010,,,,,ES,2009/1/1,Bantam Books,eng,false,1,10907001,3,4,1,0,2009/1/1,,book,0,1,0,0,0,4.00,61,Hardcover,1,1,0,Various,,,,,,,0,,
10907501,076926025X,"Jazz Anyone.....?, Bk 1: Play and Learn (Guitar), Book & 3 CDs",9780769260259,,,,ES,2000/1/1,Alfred Music,,false,1,10907501,0,0,0,0,2000/1/1,,,0,0,0,0,0,0.00,80,Paperback,,0,0,,,,,,,,0,,
10908501,1401039227,Meaning and Saying,9781401039226,,,,ES,2002/7/18,Xlibris Corporation,,false,1,10908501,1,4,1,0,2002/7/28,,,0,1,0,0,0,4.00,310,Hardcover,,1,0,Frank B. Ebersole,,,,,,,0,,
10909501,0788146351,The Road to an Aging Policy for the 21st Century,,,,,ES,,,,false,1,10909501,0,0,0,0,,,,0,0,0,0,0,0.00,,,,0,0,Gabriella Cantoni,,,,,,,0,,
10911001,1451278160,The Crystal Enclave,9781451278163,,,,ES,2010/8/23,America Star Books,,false,3,10630110,0,0,0,0,2010/8/23,,,0,0,0,0,0,0.00,316,Hardcover,,0,0,Robert Michael,,,,,,,0,,
10912501,1874105162,Mazda Miata Mx5 Enthusiast's Shop Manual,9781874105169,,,,ES,,,,false,2,1398961,15,23,6,0,1995/8/7,Mazda Miata Mx5 Enthusiast's Shop Manual,,1,4,0,1,0,3.83,,,,1,0,Rod Grainger,,,,,,4,0,,
10913001,,Dampyr Speciale n. 1: Dracula Park,,,,,ES,2005/11/1,Sergio Bonelli Editore,ita,false,1,10913001,16,41,11,1,2005/11/1,Dampyr Speciale n. 1: Dracula Park,periodical,1,6,4,0,0,3.73,176,Paperback,First,11,1,"Mauro Boselli,Stefano Andreucci",Enea Riboldi,,,,,3,0,,"comics,horror,vampires"
10914001,0470412119,"Statistics in Action, Chapter 13: Analysis of Variance: Understanding a World of Data",9780470412114,,,,ES,2008/6/1,Wiley,,false,1,10914001,0,0,0,0,2008/6/16,,,0,0,0,0,0,0.00,85,Paperback,,0,0,Ann E. Watkins,,,,,,,0,,
10915501,1439270449,"Meet Me Under the Clock at Grand Central: A Family History and Memoir: Fullers & Vestners, Merceins, Dwights & Webbs, New England, Brooklyn, New York",9781439270448,,,,ES,2010/1/18,Booksurge Publishing,,false,1,10915501,1,0,0,0,2010/1/28,,,0,0,0,0,0,0.00,452,Paperback,,0,0,Eliot N. Vestner Jr.,,,,,,1,0,,
10916001,8132013581,For Every Music Lover,9788132013587,,,,ES,,,,false,9,20407373,47,36,12,1,2007/1/1,,,0,3,6,3,0,3.00,,,Large Print,0,0,Aubertine Woodward Moore,,,,,,9,1,10,"academic,classics,collections,essays,music,writing"
10916501,1905742142,Can the Nazi Germans Be Re-Educated ? / An Introduction to the de-Nazification Efforts in Hitler's Germany / First Published in 1945 as 'Can the Germa,9781905742141,,,,ES,2009/1/5,Foxley Books,,false,1,10916501,1,0,0,0,2009/1/28,,,0,0,0,0,0,0.00,56,Paperback,,0,0,,,,Joachim von Halasz,,,,0,,
10917001,6131769133,Metroid Media,9786131769139,,,,ES,2010/10/22,Alphascript Publishing,,false,1,10917001,1,5,1,0,2010/10/22,,,1,0,0,0,0,5.00,172,Paperback,,1,0,"Agnes F. Vandome,John McBrewster",,,Frederic P.  Miller,,,,0,,
10920001,1169531865,Humanity And Humanitarianism: With Special Reference To The Prison Systems Of Great Britain And The United States (1871),9781169531864,,,,ES,,,,false,1,10920001,0,0,0,0,2008/6/1,,,0,0,0,0,0,0.00,,,,0,0,William Tallack,,,,,,,0,,
10921001,1406838209,A Loose End and Other Stories,9781406838206,,,,ES,2007/2/27,Echo Library,,false,2,24487145,2,5,1,0,2007/2/1,,,1,0,0,0,0,5.00,,Paperback,,0,0,S. Elizabeth Hall,,,,,,1,0,,
10922501,1607245469,Stichometry Stichometry Stichometry Stichometry,9781607245469,,,,ES,2009/8/1,Gorgias Press,,false,14,29827212,0,0,0,0,1893/1/1,,,0,0,0,0,0,0.00,54,Paperback,,0,0,J. Rendel Harris,,,,,,,0,,
10923001,0310925630,NIV Dramatized Audio New Testament: Multi-Voice Edition,9780310925637,,,,ES,2004/9/1,Zondervan Publishing Company,,false,52,18867184,671,1022,224,16,1973/1/1,,book,165,33,15,9,2,4.56,,,,2,1,Anonymous,,,,,,25,1,145,"christian,christianity,faith,non-fiction,religion,theology"
10923501,,كيف تتحدث فيصغي الصغار اليك وتصغي إليهم عندما يتحدثون؟,,,,,ES,2001/10/1,مكتبة العبيكان,ara,false,86,769016,53704,75963,17847,1909,1980/1/1,,book,8438,6336,2429,498,146,4.26,400,Paperback,,9,1,"Adele Faber,Elaine Mazlish",,,,فاطمة عصام صبري,,27242,112,4708,"adult,education,family,non-fiction,parenting,personal-development,psychology,reference,relationships,school,self-help,teaching,unfinished"
10924001,0387510478,"Distributed Cooperative Laboratories: Networking, Instrumentation, and Measurements",9780387510477,,,,ES,,,,false,5,12070417,0,0,0,0,2006/1/1,,,0,0,0,0,0,0.00,,,,0,0,"Franco Davoli,Sandro Zappatore,Sergio Palazzo",,,,,,,0,,
10924501,0841901554,Africa Contemporary Record Vol. 6,9780841901551,,,,ES,,,,false,1,10924501,0,0,0,0,1974/7/1,,,0,0,0,0,0,0.00,,,,0,0,Colin Legum,,,,,,,0,,
10925501,0804568707,Gingerbread Baby,9780804568708,,,,ES,,,eng,false,10,99077,8352,26669,6364,281,1999/1/1,Gingerbread Baby,book,2962,1981,1144,226,51,4.19,,,,0,0,Jan Brett,,,,,,1041,43,18,"adventure,animals,childrens,christmas,classics,cooking,fairy-tales,fantasy,fiction,food,holiday,juvenile,picture-books,school"
10927001,079318519X,"Structural Engineering License Review: Problems and Solutions, 2002-2003 Ed",9780793185191,,,,ES,2003/12/31,Kaplan Publishing,,false,13,3215786,9,9,2,0,1998/9/28,Structural Engineering: License Review Problems & Solutions,book,1,1,0,0,0,4.50,,Paperback,,0,0,Alan       Williams,,,,,,7,0,,
10928001,0698111907,"The Lyle Official Antiques Review, 1983",9780698111905,,,,ES,,,,false,2,10928001,0,0,0,0,1982/11/28,,,0,0,0,0,0,0.00,,,,0,0,Anthony Curtis,,,,,,,0,,
10928501,1580001114,Easy Olympic Sports Reader: Cycling,9781580001113,,,,ES,2004/2/28,,,false,1,10928501,0,0,0,0,2004/2/28,,,0,0,0,0,0,0.00,16,Paperback,,0,0,"Eric Migiliaccio,Eric Migliaccio",,,,,,,0,,
10932501,0805979123,Identifying the Power of Purpose,,,,,ES,,,,false,1,10932501,0,0,0,0,,,,0,0,0,0,0,0.00,,,,0,0,Robert    Lee,,,,,,,0,,
10935001,0892900040,King Grisly-Beard,9780892900046,,,,ES,,,,false,1,10935001,1,0,0,0,1976/4/28,,,0,0,0,0,0,0.00,,,,0,0,,Krystyna Stasiak,,,,,,0,,
10936001,0784722560,KJV Standard Lesson Commentary,9780784722565,,,,ES,2009/5/1,Standard Publishing,,false,2,9495747,5,15,3,0,2009/5/1,,,3,0,0,0,0,5.00,456,Paperback,,0,0,Anonymous,,,,,,2,1,,religion
10937001,1409212157,Outside Edge,9781409212157,,,,ES,2008/7/11,Lulu,,false,3,10937001,3,8,2,0,2008/7/11,,,0,2,0,0,0,4.00,220,Paperback,,2,0,Mike Crowson,,,,,,1,0,,
10938501,,Start Where You Are,2940026266654,,,,ES,,,,true,1,10938501,0,0,0,0,,,,0,0,0,0,0,0.00,,,,0,0,Ronald Tower,,,,,,,0,,
10940501,0007420250,The Moonstone,9780007420254,,,,ES,,,eng,false,994,6138,115851,260434,66674,3884,1868/8/1,The Moonstone,book,20745,25491,15284,3739,1415,3.91,,,Collins Classics,41,4,Wilkie Collins,,,,,,57232,326,2380,"adult,adult-fiction,adventure,british-literature,classic-literature,classics,crime,detective,english-literature,fiction,gothic,historical,historical-fiction,literary-fiction,literature,mystery,mystery-thriller,novels,romance,school,suspense,thriller,unfinished,victorian"
10942001,,Technical Analysis Techniques For Timing The Market and Trend Trading,2940012311580,,,,ES,,,,true,1,10942001,4,1,1,0,2011/3/19,,,0,0,0,0,1,1.00,,,,1,0,Hedge Strategies An Investing Newsletter,,,,,,2,0,,
10942501,9814282243,Geometrical Theory of Dynamical Systems and Fluid Flows,9789814282246,,,,ES,2009/12/29,World Scientific Publishing Company,,false,1,10942501,1,4,1,0,2009/12/28,,,0,1,0,0,0,4.00,421,Hardcover,,1,0,Tsutomu Kambe,,,,,,,0,,
10943001,,Nymphoticy Series Vol III: My Slutty Summer Vacation - Part 2,,B004QOAVH8,,,ES,,,,true,1,10943001,4,6,2,0,2011/3/3,,book,0,0,2,0,0,3.00,,,,2,0,Teresa Davis,,,,,,2,0,,
10944501,0549821716,Factors influencing the mortality and distribution of subadult red drum in North Carolina.,9780549821717,,,,ES,,,,false,1,10944501,0,0,0,0,,,,0,0,0,0,0,0.00,,,,0,0,Nathan Mitchell Bacheler,,,,,,,0,,
10946001,002804617X,College Accounting: Study Guide and Working Papers,9780028046174,,,,ES,1998/10/28,,,false,1,10946001,0,0,0,0,1998/10/28,,,0,0,0,0,0,0.00,,Paperback,,0,0,"Horace R. Brock,John Ellis Price,M. David Haddock",,,,,,,0,,
10947001,0870032542,Yemen on the Brink,9780870032547,,,,ES,2010/8/13,Carnegie Endowment for Int'l Peace,,false,6,9396933,18,31,10,1,2010/7/2,,,0,3,5,2,0,3.10,110,Hardcover,,0,0,Marina Ottaway,,,Christopher Boucek,,,7,0,,"history,reference"
10947501,1434494608,Tom Swift and His Airship,9781434494603,,,,ES,2007/11/5,Wildside Press,,false,76,264785,533,1211,324,16,1910/1/1,Tom Swift and His Airship,book,83,106,105,27,3,3.74,224,Hardcover,,0,0,Victor Appleton,,,,,,103,5,11,"adventure,childrens,classics,fantasy,fiction,novels,science-fiction,science-fiction-fantasy,young-adult"
10948501,0984271627,The Skeptical Juror and the Trial of Cameron Todd Willingham,9780984271627,,,,ES,2010/10/1,"Allen & Allen Semiotics, Inc.",,false,2,10948501,14,28,7,1,2010/10/1,,,2,3,2,0,0,4.00,220,Paperback,,5,1,J. Bennett Allen,,,,,,6,0,,
10949001,1848502915,Keeping Mum: Caring for Someone with Dementia,9781848502918,,,,ES,2018/4/20,Hay House UK Ltd,,false,2,10949001,66,171,42,4,2011/3/29,,,16,18,4,3,1,4.07,306,Paperback,,28,4,Marianne Talbot,,,,,,21,0,2,"non-fiction,research"
10950501,1617443972,"Studyguide for Economic Development by Todaro, Michael P., ISBN 9780321485731",9781617443978,,,,ES,2010/12/14,Academic Internet Publishers,,false,1,10950501,19,4,1,0,2010/12/14,,,0,1,0,0,0,4.00,120,Paperback,,1,0,Cram101 Textbook Reviews,,,,,,12,0,1,
10951001,1936041731,Peter Pan,9781936041732,,,,ES,2010/12/26,Simon & Brown,,false,1997,34268,416678,940960,230283,9133,1904/12/27,"Peter Pan, or the Boy Who Wouldn't Grow Up",book,95493,76103,45170,10056,3461,4.09,166,Paperback,,10,0,J.M. Barrie,,,,,,138543,927,14169,"adventure,british-literature,childrens,classic-literature,classics,fairy-tales,fantasy,fiction,juvenile,literature,magic,middle-grade,movies,novels,plays,school,young-adult"
10951501,,Brash: The many lives of Salem and Lezlie,,B004SIZHN0,,,ES,,,,true,1,10951501,7,8,2,0,2011/3/16,,,0,2,0,0,0,4.00,,,,2,0,"Daniel Spritka,Devon Jackson,Robert Salmen",,,,,,3,0,,
10953501,2729864083,Intelligence artificielle une approche ludique,9782729864088,,,,ES,,,fre,false,1,10953501,3,3,1,0,2011/1/1,,book,0,0,1,0,0,3.00,,,,1,0,Tristan Cazenave,,,,,,2,0,,
10954501,1456354221,Magic Square (Based on Yin-Yang Principle),9781456354220,,,,ES,2010/12/15,Createspace Independent Publishing Platform,,false,1,10954501,0,0,0,0,2010/12/15,,,0,0,0,0,0,0.00,112,Paperback,,0,0,Bill Fong,,,,,,,0,,
10956001,8511181725,La vie en close,9788511181722,,,,ES,1991/1/1,Brasiliense,por,false,1,10956001,104,286,65,3,1991/1/1,la vie en close,book,36,20,8,1,0,4.40,178,Paperback,,65,3,Paulo Leminski,,,,,,26,2,1,poetry
10957001,6134350621,Bare-Faced Messiah,9786134350624,,,,ES,2011/2/25,Alphascript Publishing,,false,1,10957001,27,29,8,1,2011/2/25,,,2,3,2,0,1,3.62,120,Paperback,,8,1,"Agnes F. Vandome,John McBrewster",,,Frederic P.  Miller,,,15,0,,
10957501,2253050946,"En avant, calme et droit",9782253050940,,,,ES,1989/10/1,Le Livre de Poche,fre,false,3,1599820,6,8,2,0,1987/12/1,"En avant, calme et droit",book,0,2,0,0,0,4.00,252,Mass Market Paperback,,1,0,François Nourissier,,,,,,3,0,,
10959501,1558351302,Residential Lighting: Creating Dynamic Living Spaces,9781558351301,,,,ES,1995/4/1,American Institute of Architects Press,,false,1,10959501,0,0,0,0,1995/4/1,,,0,0,0,0,0,0.00,,Paperback,,0,0,Randall Whitehead,,,,,,,0,,
10960001,1557485941,"Bible Crosswords Collection 1, Vol. 1",9781557485946,,,,ES,1995/1/1,,,false,1,10960001,1,0,0,0,1995/1/1,,,0,0,0,0,0,0.00,112,Paperback,,0,0,Various,,,,,,1,0,,
10960501,0415281873,The Intercultural Performance Handbook,9780415281874,,,,ES,2003/12/3,Routledge,,false,9,1269443,5,7,2,0,2003/1/1,The Intercultural Performance Handbook,,0,1,1,0,0,3.50,168,Hardcover,,0,0,"John Martin,Martin John",,,,,,2,0,,
10962501,,A Pocket Full of Stories,,B004CRTDSW,,,ES,,,,true,2,10962501,0,0,0,0,2010/11/26,,,0,0,0,0,0,0.00,,,,0,0,J.A. Heathcock,,,,,,,0,,
10963001,1577170121,Art Deco,9781577170129,,,,ES,2005/12/1,Todtri Productions,,false,5,2780752,8,9,3,0,2000/6/28,,,0,0,3,0,0,3.00,128,Hardcover,,0,0,Susan A. Sternau,,,,,,5,0,,
10963501,,King James Bible for the Nook Collection,2940012239846,,,,ES,,,,true,1,10963501,1,0,0,0,2011/3/8,,book,0,0,0,0,0,0.00,,,,0,0,"Henry Sherman,Logan Marshall",,,,,,,0,1,
10964001,9460914314,Hidden Dimensions in the Professional Development of Mathematics Teachers: In-Service Education for and with Teachers,9789460914317,,,,ES,2011/1/1,Brill - Sense,,false,1,10964001,1,0,0,0,2010/12/14,,,0,0,0,0,0,0.00,172,Paperback,,0,0,Bettiina Roesken,,,,,,1,0,,
10964501,1408102331,Check Your Vocabulary for English for the PET Examination: All you need to pass your exams,9781408102336,,,,ES,,,,true,6,4837810,11,4,2,1,2007/12/1,Check Your Vocabulary for PET (Vocabulary Workbook),,0,0,1,0,1,2.00,,,,0,0,Tessie Dalton,,,,,,6,0,1,
10966001,,ছবির চশমা,,,,,ES,,,,false,1,10966001,4,5,1,0,,,book,1,0,0,0,0,5.00,,,,1,0,শ্রী হেমেন্দ্রনাথ মজুমদার,,,,,,3,0,,
10966501,0143119907,The Best Spiritual Writing 2012,9780143119906,,,,ES,2011/9/27,Penguin Books,,false,3,10966501,81,123,34,7,2011/9/27,,book,7,12,11,3,1,3.62,304,Paperback,,33,7,Philip Yancey,,"Jill Kandel,Noa Jones",,,,35,0,4,"christianity,essays,non-fiction"
10967001,1442692367,Method in Metaphysics,9781442692367,,,,ES,,,,true,3,2808321,3,0,0,0,2008/2/11,Method In Metaphysics: Lonergan and the Future of Analytical Philosophy,,0,0,0,0,0,0.00,,,,0,0,Andrew Beards,,,,,,3,1,,philosophy
10968001,,Atalanta's Race and Other Tales from The Earthly Paradise,2940017518250,,,,ES,,"Boston, Ticknor & Company",eng,true,16,8886461,10,3,1,0,1912/1/1,Atalanta's Race & The Proud King from The Earthly Paradise,book,0,0,1,0,0,3.00,,,,0,0,William Morris,,,,,,5,0,,poetry
10968501,0203892771,The Politics of Civic Space in Asia: Building Urban Communities,9780203892770,,,,ES,2008/11/18,Routledge,,true,9,17475273,1,0,0,0,2008/1/30,,,0,0,0,0,0,0.00,256,ebook,,0,0,"Amrita Daniere,Mike Douglass",,,,,,-4,0,,
10970001,1450071570,"Passion in Paris: Connections to the Past (Passions in Paris, #1)",9781450071574,,,,ES,2010/10/28,Xlibris,eng,false,3,11722944,0,0,0,0,2010/10/1,,book,0,0,0,0,0,0.00,327,Paperback,,0,0,Rusty Blackwood,,,,,,,0,,
10972501,9502803027,El Libro del Sexo,9789502803029,,,,ES,,,,false,37,343724,6614,8978,2155,202,1970/1/1,From Sex to Superconsciousness,book,1029,663,306,106,51,4.17,,,,3,0,Osho,,,,,,3520,5,240,"cultural,love,non-fiction,philosophy,psychology,relationships,self-help,sociology,spirituality"
10974001,,Poems 1790,,B004HKILEG,,,ES,,,,true,19,20699364,16,24,7,0,1790/1/1,"Poems, &c. Wherein it is Attempted to Describe Certain Views of Nature and of Rustic Manners",book,1,2,3,1,0,3.43,,,,1,0,Joanna Baillie,,,,,,7,0,,poetry
10976501,1157018211,"Mammals of Vietnam: Clouded Leopard, Gaur, Asian Black Bear, Irrawaddy Dolphin, List of Mammals of Vietnam, Leopard Cat, Sambar",9781157018216,,,,ES,2011/7/27,"Books LLC, Wiki Series",,false,1,10976501,0,0,0,0,2010/5/26,,,0,0,0,0,0,0.00,,Paperback,,0,0,Books LLC,,,,,,,0,,
10977001,0521762960,The Virgin Mary in Late Medieval and Early Modern English Literature and Popular Culture,9780521762960,,,,ES,2012/5/15,Cambridge University Press,,false,5,10977001,4,4,1,0,2011/1/1,,,0,1,0,0,0,4.00,237,Hardcover,,1,0,Gary Waller,,,,,,2,1,1,"history,non-fiction,plays"
10977501,1158125496,Roman Catholic Organizations Established in the 17th Century: 17th-Century Roman Catholic Church Councils,9781158125494,,,,ES,2011/8/1,"Books LLC, Wiki Series",,false,1,10977501,0,0,0,0,2010/9/15,,,0,0,0,0,0,0.00,,Paperback,,0,0,Source Wikipedia,,,,,,,0,,
10978501,1453536604,Courses Called Crackers: One Golfer's U.K. Quest,9781453536605,,,,ES,,,,true,4,9680983,1,0,0,0,2010/8/17,,,0,0,0,0,0,0.00,,,,0,0,R.N.A. Smith,,,,,,1,0,,
10979501,8132025083,Everychild,9788132025085,,,,ES,2008/8/10,Tutis Digital Pub,,false,9,35345700,0,0,0,0,1921/1/1,,book,0,0,0,0,0,0.00,,Paperback,,0,0,Louis Dodge,,,,,,,0,,
10980501,1597405043,The Conflict of the Church and the Synagogue: A Study in the Origins of Antisemitism,9781597405041,,,,ES,,,,false,4,6451505,17,24,6,1,1969/6/1,The Conflict of the Church and the Synagogue: A Study in the Origins of Antisemitism,,2,2,2,0,0,4.00,,,,0,0,James William Parkes,,,,,,9,0,,
10982501,,"A Four-fold greeting in numbers for the festival of Christe his masse, anno domini MDCCCXCVII [microform]: being the learned toil of Francis L. Pollock, esquyer; the most virtuous Ezra Hurlbert Stafford (of the Hospice); William T. Allison (yclept John",2940027273965,,,,ES,,,,true,1,10982501,0,0,0,0,,,,0,0,0,0,0,0.00,,,,0,0,Francis L. Pollock,,,,,,,0,,
10983001,0312051956,"The Road to the White House, 1992: The Politics of Presidential Elections",9780312051952,,,,ES,1991/11/1,St. Martin's Press,,false,3,10983001,7,8,2,0,1991/11/1,,,0,2,0,0,0,4.00,319,Paperback,,2,0,Stephen J. Wayne,,,,,,2,0,,politics
10984001,1157678904,"20th Century in China: History of the People's Republic of China, List of Protestant Missionaries in China, Tanks in the Chinese Army",9781157678908,,,,ES,2011/8/12,"Books LLC, Wiki Series",,false,1,10984001,1,0,0,0,2010/6/5,,,0,0,0,0,0,0.00,,Paperback,,0,0,Source Wikipedia,,,,,,1,0,,
10985001,184902930X,The Purple Island,9781849029308,,,,ES,2009/11/9,Benediction Books,,false,12,10985001,12,2,1,1,2010/2/17,,book,0,0,0,1,0,2.00,208,Hardcover,,1,1,Phineas Fletcher,,,,,,7,0,,poetry
10987501,,"Dissertation on the dragon, beast, and falseprophet, of the Apocalypse; in which the number 666 is satisfactorily explained. And also a full illustration of Daniel's vision of the ram and hegoat",2940028645471,,,,ES,,,,true,4,19506571,1,0,0,0,2009/12/28,,,0,0,0,0,0,0.00,,,,0,0,John Edward Clarke,,,,,,1,0,,
10988001,161176002X,Summer According to Humphrey,9781611760026,,,,ES,2011/6/30,Penguin Audio,en-US,false,13,7055089,1803,4087,955,62,2009/11/9,,book,496,286,130,30,13,4.28,,Audio CD,,0,0,Betty G. Birney,,,,,,170,17,77,"animals,chapter-books,childrens,contemporary,fantasy,fiction,juvenile"
10989001,0615449050,The Seven Diseases to Your Child's Soul,9780615449050,,,,ES,2011/2/7,Seven Diseases to Your Child's Soul,,false,1,10989001,0,0,0,0,2011/2/7,,,0,0,0,0,0,0.00,196,Paperback,,0,0,Mark J. Musser,,,,,,,0,,
10989501,1579960197,Readings in Financial Planning,9781579960193,,,,ES,1999/1/1,American College,,false,5,10989501,0,0,0,0,1998/1/1,,,0,0,0,0,0,0.00,440,Unknown Binding,,0,0,David M. Cordell,,,,,,,0,,
10990001,1452078793,Almendro: Under the Almond Tree,9781452078793,,,,ES,2010/9/17,Authorhouse,,true,4,11441775,9,16,4,1,2009/7/22,,,1,2,1,0,0,4.00,,ebook,,0,0,Pato,,,,,,5,0,,
10991001,0321560191,Visual Anatomy & Physiology,9780321560193,,,,ES,2010/8/23,Pearson Education,,false,41,10951175,103,200,47,3,2010/7/1,,book,21,18,7,1,0,4.26,1128,Unbound,,0,0,"Frederic H. Martini,Judi L. Nath,William C. Ober",,,,,,34,2,3,"non-fiction,reference,school"
10991501,0679439528,Eyes of a Child (Christopher Paget Series #3),9780679439523,,,,ES,1997/6/24,Random House Audio Publishing Group,,false,38,787903,5932,15145,3812,140,1995/1/15,Eyes of a Child,book,1171,1583,871,158,29,3.97,3,Audio Cassette,Abridged,1,1,"Ken Howard,Richard North Patterson",,,,,,999,15,46,"adult,contemporary,crime,detective,drama,fiction,murder-mystery,mystery,mystery-thriller,novels,suspense,thriller"
10992501,,Jesus And The 5 Senses,,B00387FCDC,,,ES,,,,true,2,8417824,2,0,0,0,2010/2/5,,,0,0,0,0,0,0.00,,,,0,0,Carroll Roberson,,,,,,1,0,,
10993001,1846371074,The Master Key,9781846371073,,,,ES,,,,false,105,1294222,551,761,223,21,1901/1/1,"The Master Key: An Electrical Fairy Tale, Founded Upon the Mysteries of Electricity and the Optimism of Its Devotees",book,50,53,76,27,17,3.41,,,Large Print,0,0,L. Frank Baum,,,,,,249,12,10,"adventure,american,childrens,classics,fairy-tales,fantasy,fiction,novels,philosophy,science-fiction,science-fiction-fantasy,speculative-fiction,technology,young-adult"
10995501,0321587464,Webct Student Access Kit for Biology: Science for Life,9780321587466,,,,ES,2009/5/21,Benjamin-Cummings Publishing Company,,false,1,10995501,0,0,0,0,2009/6/4,,,0,0,0,0,0,0.00,,,,0,0,"Colleen M. Belk,Virginia Borden Maier",,,,,,,0,,
10996001,,"Trouble at the Zoo (Bindi Wildlife Adventures, #1)",,B004ISLNUG,,,ES,,,,true,7,10242169,495,471,116,19,2010/6/1,,book,47,39,23,4,3,4.06,,,,4,0,Bindi Irwin,,,,,,319,12,2,"animals,childrens,contemporary,family,fiction,humor,mystery,nature"
10997001,5425031874,Richard Dlinnye Ruki (Russian Edition),9785425031877,,,,ES,,,,true,3,13569067,51,121,33,2,2001/1/1,Ричард длинные руки,book,7,15,7,1,3,3.67,,,,1,0,Гай Юлий Орловский,,,,,,9,1,,fantasy
10997501,0160738725,"Code of Federal Regulations, Title 21, Food and Drugs, Pt. 800-1299, Revised as of April 1, 2005",9780160738722,,,,ES,2005/7/28,Office of the Federal Register,,false,1,10997501,0,0,0,0,2005/7/28,,,0,0,0,0,0,0.00,792,Paperback,,0,0,,,,,,,,0,,
10999001,9048174333,"Climate Variability, Predictability and Climate Risks: A European Perspective",9789048174331,,,,ES,2010/11/10,Springer,,false,5,10998999,0,0,0,0,2006/1/1,,,0,0,0,0,0,0.00,162,Paperback,,0,0,"Elena Xoplaki,Martin Grosjean,Regine Röthlisberger",,,Heinz Wanner,,,,0,,
10999501,0330320297,The Daily Telegraph Big Book of Cryptic Crosswords No. 1,9780330320290,,,,ES,1991/11/1,Pan Macmillan,,false,1,10999501,5,4,1,0,1991/11/1,,,0,1,0,0,0,4.00,272,Paperback,,1,0,,,,,,,2,0,,
11000501,0324185332,Business Communication,9780324185331,,,,ES,,,eng,false,15,7045480,36,66,19,0,1995/1/1,,book,2,10,4,1,2,3.47,,,16th Edition,0,0,Carol M. Lehman,,,,,,11,0,2,"business,non-fiction"
11001001,0026261103,MacMillan Concise Dictionary of World History,9780026261104,,,,ES,,,,false,2,2830495,10,17,5,0,1983/1/1,Macmillan Concise Dictionary of World History,,0,2,3,0,0,3.40,,,,0,0,Bruce Wetterau,,,,,,2,0,,"history,non-fiction,reference"
11001501,0375419365,What Salmon Know,9780375419362,,,,ES,2001/1/23,Random House Audio,,false,6,44222,94,153,42,5,1999/8/17,What Salmon Know,,5,19,16,2,0,3.64,0,Audio,,0,0,"Andre Sogliuzzo,Elwood Reid",,,,,,41,1,1,"americana,fiction,short-stories"
11002001,3642088775,Mathematical Methods for Mechanics: A Handbook with MATLAB Experiments,9783642088773,,,,ES,2010/10/15,Springer,,false,7,4867083,20,9,3,0,2006/3/8,Mathematical Methods for Mechanics: A Handbook with MATLAB Experiments,,0,1,1,1,0,3.00,624,Paperback,,0,0,Eckart W. Gekeler,,,,,,13,0,,
11003501,1414107218,Let My People Go,9781414107219,,,,ES,,,,false,2,2853905,0,0,0,0,2006/4/28,Let My People Go,,0,0,0,0,0,0.00,,,,0,0,Jannie Wilcoxson,,,,,,,0,,
11004001,0324308256,Windows on the World Economy (Custom),9780324308259,,,,ES,,,,false,1,11004001,0,0,0,0,2004/10/23,,,0,0,0,0,0,0.00,,,,0,0,Kenneth A. Reinert,,,,,,,0,,
11004501,1853839663,Air Pollution and Health in Rapidly Developing Countries,9781853839665,,,,ES,2003/3/1,Routledge,,false,7,17546985,1,0,0,0,2003/3/1,,,0,0,0,0,0,0.00,256,Hardcover,,0,0,Frank Murray,,,Gordon McGranahan,,,1,0,,
11005501,,A clerk of Oxford: and his adventures in the Baron's war,2940016832043,,,,ES,,,,true,12,27647320,1,0,0,0,2013/7/2,,,0,0,0,0,0,0.00,,,,0,0,Evelyn Everett-Green,,,,,,1,0,,
11006001,3642079547,"Nitric Oxide in Plant Growth, Development and Stress Physiology",9783642079542,,,,ES,2010/11/25,Springer,,false,1,11006001,0,0,0,0,2008/8/1,,,0,0,0,0,0,0.00,283,Paperback,,0,0,,,,"Joe C. Polacco,Lorenzo Lamattina",,,,0,,
11006501,,Drizzt - Die Saga vom Dunkelelf - 8 Die verschlungenen Pfade,,B0017SBTW2,,,ES,2008/5/23,Lausch Phantastische Hoerspiele (Alive),ger,false,1,11006501,11,25,7,1,2008/5/23,,book,1,2,4,0,0,3.57,1,Audio CD,,7,1,Günter Merlau,,,,,,3,0,,
11007001,,"The city of domes: a walk with an architect about the courts and palaces of the Panama-Pacific International Exposition with a discussion of its architecture, its sculpture, its mural decorations, its coloring, and its lighting, preceded by a history of",2940016974057,,,,ES,,,,true,18,19419002,11,9,2,0,2003/2/28,"The City of Domes : a walk with an architect about the courts and palaces of the Panama-Pacific International Exposition, with a",book,1,1,0,0,0,4.50,,,,0,0,John D. Barry,,,,,,5,0,2,unfinished
11007501,0159003660,Pocket Size Law Dictionary (Burgundy),9780159003664,,,,ES,1997/1/1,"Harcourt Brace Legal & Professional Publications, Inc.",,false,11,1193024,15,16,4,0,1994/1/1,Gilbert's Pocket Size Law Dictionary,book,2,1,0,1,0,4.00,416,Paperback,2nd Edition (expanded),0,0,Gilbert Law Summaries,,,,,,6,0,,"non-fiction,reference"
11008001,0830614125,The Backyard Energy Projects Handbook,9780830614127,,,,ES,,,,false,1,11008001,0,0,0,0,1982/1/1,,,0,0,0,0,0,0.00,,,,0,0,William M. Foster,,,,,,,0,,
11009501,1409793281,The Chelsea Pensioners,9781409793281,,,,ES,2008/7/2,Coss Press,,false,5,6326053,0,0,0,0,2008/7/2,The Chelsea Pensioners,,0,0,0,0,0,0.00,336,Paperback,,0,0,G.R. Gleig,,,,,,,0,,
11011001,1445855356,The Fry Chronicles,9781445855356,,,,ES,2011/5/1, Michael Joseph,eng,false,6,8649656,41235,66812,17233,1055,2010/1/1,The Fry Chronicles: An Autobiography,book,4680,7244,4104,919,286,3.88,446,Paperback,,1,0,Stephen Fry,,,,,,20593,98,786,"autobiography,biography,biography-memoir,british-literature,comedy,contemporary,criticism,fiction,funny,gay,humor,lgbt,memoir,non-fiction,queer,unfinished"
11011501,0688027873,"How to Save Dollars with Generic Drugs: A Consumer's Guide to High-Quality, Low-Priced Medicines",9780688027872,,,,ES,,,,false,1,11011501,1,5,1,0,1984/10/28,,,1,0,0,0,0,5.00,,,,1,0,"Betty Ferm,Max A. Ferm",,,,,,,0,,
11012001,0160834600,"Code of Federal Regulations, Title 40, Protection of Environment, Pt. 86 (Sec. 86.600-1-End of Pt. 86), Revised as of July 1, 2009",9780160834608,,,,ES,2009/10/27,Office of the Federal Register,,false,1,11012001,0,0,0,0,2009/10/27,,,0,0,0,0,0,0.00,673,Paperback,,0,0,,,,,,,,0,,
11013001,0543904202,Samlade skrifter: Delen 3,9780543904201,,,,ES,2001/4/24,Adamant Media Corporation,,false,1,11013001,1,0,0,0,2001/4/24,,book,0,0,0,0,0,0.00,339,Paperback,,0,0,Oscar Fredrik,,,,,,,0,,
11013501,1157989594,"University of Damascus: University of Damascus Alumni, Omar Bakri Muhammad, Bashar Al-Assad, Abdullah Yusuf Azzam, Wahba Zuhayli, Damascus Uni",9781157989592,,,,ES,2014/5/21,Booksllc.Net,,false,1,11013501,1,0,0,0,2010/6/12,,,0,0,0,0,0,0.00,,Paperback,,0,0,Source Wikipedia,,,,,,1,0,,
11015001,,"Mountain Moggy, the Stoning of the Witch",2940000755198,,,,ES,,,,true,12,20495861,12,12,4,1,1876/1/1,,book,1,1,0,1,1,3.00,,,,0,0,W.H.G. Kingston,,,,,,6,0,,
11015501,0738587117,Dandridge (Images of America: Tennessee),9780738587110,,,,ES,2011/3/21,Arcadia Publishing (SC),eng,false,3,11015501,5,10,3,0,2011/3/21,Dandridge (Images of America: Tennessee),book,0,1,2,0,0,3.33,,Paperback,,1,0,Lisa Whillock Ellis,,,,,,1,0,,
11016501,0874214025,"The Washakie Letters of Willie Ottogary: Northwestern Shoshone Journalist and Leader, 1906-1929",9780874214024,,,,ES,2005/12/3,Utah State University Press,,false,1,11016501,6,4,1,0,2000/9/28,,,0,1,0,0,0,4.00,352,Hardcover,,1,0,"Barre Toelken,Willie Ottogary",,,Matthew E. Kreitzer,,,3,0,,
11017001,,"The Best of Vanity Fair ELIZABETH TAYLOR: Eight Remarkable Stories About Hollywood's Most Beautiful, Most Controversial Star",,B004UNXZI2,,,ES,,,eng,true,2,11017001,243,518,135,8,2011/3/31,,book,37,53,34,8,3,3.84,116,,,111,4,"David Kamp,Dominick Dunne,George Hamliton,Gwen Davis,Nancy  Collins,Nancy Schoenberger,Sam Kashner,William Stadiem",,,,,,68,0,23,"biography,film,non-fiction"
11017501,,Fire & Ice,,B003GDFQCA,,,ES,,,,true,9,392168,156,137,41,3,2000/3/1,Fire and Ice (Black Lace),book,7,11,13,9,1,3.34,,,,3,0,Laura Hamilton,,,,,,91,4,4,erotica
11018501,8132015088,The Yeoman Adventurer,9788132015086,,,,ES,,,,false,15,11018523,2,0,0,0,1917/1/1,,book,0,0,0,0,0,0.00,,,Large Print,0,0,George Gough,,,,,,1,0,,
11019501,,A bibliography of Phi Beta Kappa,2940016936680,,,,ES,,,,true,4,30712609,0,0,0,0,2010/1/28,,,0,0,0,0,0,0.00,,,,0,0,Clark Sutherland Northup,,,,,,,0,,
11020001,1416915338,Hans My Hedgehog: A Tale from the Brothers Grimm,9781416915331,,,,ES,2012/1/24,Atheneum Books for Young Readers,eng,false,2,11020001,340,730,217,47,2012/1/24,,book,27,72,77,35,6,3.36,40,Hardcover,,213,46,"Jacob Grimm,Kathryn Coombs,Wilhelm Grimm",John Nickle,,,,,88,11,,"animals,childrens,fairy-tales,fantasy,fiction,juvenile,magic,non-fiction,picture-books"
11020501,0349102759,The Short Stories Of F. Scott Fitzgerald: A New Collection,9780349102757,,,,ES,1992/10/8,Abacus,,false,63,4662,30851,56974,13455,301,1920/1/1,The Short Stories of F. Scott Fitzgerald,book,6053,5023,1958,322,99,4.23,775,,,4,0,F. Scott Fitzgerald,,,,,,2659,45,108,"adult,american,americana,classic-literature,classics,collections,fantasy,fiction,modern-classics,new-adult,novels,romance,short-stories"
11021001,1892091291,NOT A BOOK,9781892091291,,,,ES,1991/11/1,"Bobandray.com (TM), a division of the Radio Foundation, Inc.",,false,5,11021013,6,14,4,0,,,book,1,1,1,1,0,3.50,,Audio CD,,0,0,"Bob Elliott,Ray Goulding",,,,,,2,0,,
11021501,,I Want You,,B001GS74QS,,,ES,2008/9/27,Fire and Ice Publishing,eng,true,1,11021501,6,0,0,0,2008/9/27,I Want You,book,0,0,0,0,0,0.00,,Kindle Edition,,0,0,Mitzi Szereto,,,,,,4,0,,
11022001,,"The toilet of Flora; or, A collection of the most simple and approved methods of preparing baths, essences, pomatums, powders, perfumes, and sweet-scented waters. With receipts for cosmetics of every kind, that can smooth and brighten the skin, give force",2940022078268,,,,ES,,,,true,11,20657028,20,19,4,0,2010/5/29,,,3,1,0,0,0,4.75,,,,0,0,Pierre-Joseph Buc'hoz,,,,,,2,0,,non-fiction
11023001,0198141823,Wasps Ed. MacDowell,9780198141822,,,,ES,1971/1/15,Oxford University Press,,false,69,2995407,1189,2606,698,30,-422/1/1,Σφήκες,book,196,214,214,54,20,3.73,356,Hardcover,,3,0,"Aristophanes,Douglas M. MacDowell",,,,,,341,9,3,"canon,classic-literature,classics,comedy,drama,fiction,humor,literature,plays,poetry,theatre"
11024001,1402771177,Hall of Fame Lateral Thinking Puzzles: Albatross Soup and Dozens of Other Classics,9781402771170,,,,ES,2011/5/3,Puzzlewright,,false,1,11024001,14,18,5,1,2011/5/3,,,1,1,3,0,0,3.60,128,Paperback,,5,1,"Des MacHale,Paul Sloane",,,,,,9,2,,
11025001,,Sesame and lilies: and The king of the Golden river,2940020774919,,,,ES,,,,true,7,4588084,11,4,1,0,1953/10/1,,,0,1,0,0,0,4.00,,,,0,0,"Herbert Bates,John Ruskin",,,,,,8,0,1,"essays,fantasy"
11025501,1443827126,Touching Art: The Poetics and the Politics of Exhibiting the Tree of Life,9781443827126,,,,ES,2011/3/1,Cambridge Scholars Publishing,,false,1,11025501,0,0,0,0,2011/3/1,,,0,0,0,0,0,0.00,160,Hardcover,,0,0,Maria Emilia Fonseca,,,,,,,0,,
11029501,1577667042,Interpreting Earth History: A Manual in Historical Geology,9781577667049,,,,ES,,,,false,3,11029501,6,10,3,0,2010/11/28,,book,0,1,2,0,0,3.33,,,,2,0,"Morris Petersen,Scott M. Ritter",,,,,,2,0,,
11030001,0855749229,Before You Love Again: Starting a Successful New Relationship,9780855749224,,,,ES,,,,false,1,11030001,3,2,1,0,1995/9/1,,,0,0,0,1,0,2.00,,,,1,0,John Hosie,,,,,,1,0,,
11031501,0262515903,Do Democracies Win Their Wars?: An International Security Reader,9780262515900,,,,ES,2011/8/5,Mit Press,,false,1,11031501,7,10,3,0,2011/6/30,,,0,1,2,0,0,3.33,328,Paperback,,3,0,"Owen R. Coté Jr.,Sean M. Lynn-Jones,Steven E. Miller",,,Michael E. Brown,,,4,0,,
11032001,0198151675,Oxford Slavonic Papers: Vol 23,9780198151678,,,,ES,1991/2/28,"Oxford University Press, USA",,false,1,11032001,0,0,0,0,1991/2/28,,book,0,0,0,0,0,0.00,112,Hardcover,,0,0,"G.C. Stone,Gerald Stanton Smith",,,,,,,0,,
11033501,9049900844,De zaak Mandy P,9789049900847,,,,ES,2009/1/1,TM Trademark,nl,false,1,11033501,23,34,9,2,2009/1/1,,book,3,2,3,1,0,3.78,240,Paperback,1st print,9,2,R. Goverde,,,,,,7,0,1,"non-fiction,true-crime"
11034001,0516213016,Interviewing for a Job,9780516213019,,,,ES,1998/6/1,Children's Press(CT),,false,3,4048719,1,0,0,0,1998/3/1,Interviewing for a Job (Looking at Work),,0,0,0,0,0,0.00,32,Hardcover,,0,0,"Craig Conley,Stuart Schwartz",,,,,,,0,,
11034501,0547428081,New Rules for Today's Workplace: Strategies for Success in the Virtual World,9780547428086,,,,ES,2011/4/6,Houghton Mifflin Harcourt,,false,1,11034501,31,32,14,6,2011/4/6,,,0,3,3,3,5,2.29,304,Paperback,,14,6,Sheryl Lindsell-Roberts,,,,,,14,0,,"business,leadership,non-fiction"
11036001,0160578736,"Mandating the Year 2000 Disclosure of Publicly Traded Companies: Hearings Before the Subcommittee on Financial Services and Technology of the Committee on Banking, Housing, and Urban Affairs, United States Senate, One Hundred Fifth Congress, First Sess...",9780160578731,,,,ES,1998/1/1,Government Printing Office,,false,1,11036001,0,0,0,0,1998/1/1,,,0,0,0,0,0,0.00,47,Unknown Binding,,0,0,"U. S. Congress, Senate Committee on Banking, Housing and Urban Affairs, Subcommittee on Financial",,,,,,,0,,
11037001,,An Investigation of Certain Abilities Fundamental to the Study of Geometry,2940023572529,,,,ES,,,,true,5,31990656,0,0,0,0,2008/2/28,,,0,0,0,0,0,0.00,,,,0,0,John Harrison Minnick,,,,,,,0,,
11037501,0780774167,Arthur's First Sleepover,9780780774162,,,,ES,1996/9/1,Perfection Learning,,false,15,1060446,1301,3601,876,29,1994/1/1,Arthur's First Sleepover: An Arthur Adventure (Arthur Adventure Series) ,book,394,232,208,37,5,4.11,30,Hardcover,,0,0,Marc Brown,,,,,,184,22,4,"animals,childrens,family,fiction,juvenile,picture-books"
11038001,,"Eighty-five Years of Irish History, 1800-1885",2940024100851,,,,ES,,,,true,3,11038001,0,0,0,0,2009/2/5,,,0,0,0,0,0,0.00,,,,0,0,William Joseph O'Neil Daunt,,,,,,,0,,
11039001,,عن الحب والسجن والتسكع العاطفي,,,,,ES,,,,false,1,11039001,11,8,3,1,,,book,0,0,2,1,0,2.67,,,,3,1,أحمد محمد  إسماعيل,,,,,,7,0,,
11039501,0198552122,Experimental Physical Chemistry,9780198552123,,,,ES,1986/5/15,"Oxford University Press, USA",,false,1,11039501,0,0,0,0,1986/5/1,,,0,0,0,0,0,0.00,400,Paperback,,0,0,G. Peter Matthews,,,,,,,0,,
11040001,0743545095,Faithful: Two Diehard Boston Red Sox Fans Chronicle the Historic 2004 Season,9780743545099,,,,ES,2004/12/1,Simon  Schuster Audio,,false,23,32694,7199,17037,4459,207,2004/12/1,Faithful: Two Diehard Boston Red Sox Fans Chronicle the Historic 2004 Season,book,1448,1431,1074,345,161,3.82,,Audiobook,,1,0,"Adam Grupper,Ron McLarty,Stephen King,Stewart O'Nan",,,,,,114,16,49,"adult,biography,fiction,funny,history,memoir,non-fiction,sports"
11040501,4091310575,Byūtifuru 4,9784091310576,,,,ES,,,,false,1,11040501,4,3,1,0,2007/1/1,,,0,0,1,0,0,3.00,,,,1,0,Chiho Saitō,,,,,,2,0,,
11041501,,The Riddle of the Yellow Zuri ,,,,,ES,1930/11/18,E.P.Dutton,eng,false,7,11031626,17,26,7,3,1930/1/1,,book,1,3,3,0,0,3.71,,Hardcover,,0,0,Harry Stephen Keeler,,,,,,8,0,,mystery
11042001,0897334868,Murder at Heartbreak Hospital,9780897334860,,,,ES,2006/6/1,Chicago Review Press,,false,3,2473203,24,22,6,3,1998/11/1,Murder at Heartbreak Hospital,book,1,2,3,0,0,3.67,252,Paperback,,1,1,Henry Slesar,,,,,,7,1,,
11043001,,"Plan of parliamentary reform: in the form of a catechism, with reasons for each article, with an introduction, shewing the necessity of radical, and the inadequacy of moderate, reform",2940023456843,,,,ES,,,,true,7,3619610,1,0,0,0,2000/12/28,"Plan of Parliamentary Reform in the Form of Catechism With Reasons for Each Article: With an Introduction, Shewing the Necessity of Radical, and the Inadequacy of Moderate Reform",,0,0,0,0,0,0.00,,,,0,0,Jeremy Bentham,,,,,,1,0,,
11043501,,The Complete Works and Life of Laurence Sterne,2940017068571,,,,ES,,,,true,14,19179755,55,35,8,0,2000/5/1,,,5,1,2,0,0,4.38,,,,0,0,"Laurence Sterne,Wilbur Lucius Cross",,,,,,33,1,7,"classics,fiction"
11044001,,Gabriël Metsu,9789071450303,,,,ES,2010/1/1,Yale University Press,nl,false,3,13429026,11,22,6,0,2010/1/1,,book,1,2,3,0,0,3.67,210,Paperback,,1,0,Adriaan E. Waiboer,,"Bianca M. du Mortier,E. Melanie Gifford,Linda Stone-Ferrier,Marijn Schapelhouman,Pieter Roelofs,Wayne E. Franits",,,,1,0,,
11044501,,Earthling Hero,2940012375964,,,,ES,,,,true,4,11044501,18,56,13,4,2011/3/28,,,6,5,2,0,0,4.31,,,,12,4,Anita Laydon Miller,,,,,,5,0,,
11045001,,Eva Péron,,,,,ES,,&etc,,false,1,11045001,3,4,1,0,,,book,0,1,0,0,0,4.00,,,,1,0,Filipe La Féria,,,,,,2,0,,
11046001,,No Less than the Journey,,B004L9MFKE,,,ES,,,,true,13,8717865,47,107,30,1,2008/1/1,,,7,10,7,5,1,3.57,,,,2,0,E.V. Thompson,,,,,,13,0,1,
11046501,1411445562,The Triumph of the Egg (Barnes & Noble Digital Library): A Book of Impressions from American Life in Tales and Poems,9781411445567,,,,ES,2011/3/1,Barnes & Noble,,true,86,80183,1233,1765,451,47,1921/1/1,The Triumph of the Egg: A Book of Impressions from American Life in Tales and Poems,book,134,190,87,34,6,3.91,304,ebook,,0,0,Sherwood Anderson,,,,,,632,12,19,"amazon,american,americana,classics,collections,fiction,literature,plays,psychology,short-stories,social-issues"
11047001,0809451786,Scandinavia,9780809451784,,,,ES,,,,false,4,7133449,43,38,9,1,1987/1/1,Scandinavia (Library of Nations),book,4,3,2,0,0,4.22,,,,0,0,Time-Life Books,,,,,,25,0,,"non-fiction,reference,school,travel"
11047501,9543210691,Дамска детективска агенция №1 (Дамска детективска агенция №1 - I част),,,,,ES,2004/1/1,Изток-Запад,bul,false,120,7061,298885,791781,209967,10359,1998/1/1,The No. 1 Ladies' Detective Agency ,book,58825,74132,54060,15998,6952,3.77,216,Paperback,,30,3,Alexander McCall Smith,,,,Милен Русков,,66875,255,2418,"adult,adult-fiction,chick-lit,contemporary,cozy-mystery,crime,cultural,detective,fiction,funny,historical-fiction,humor,literature,murder-mystery,mystery,mystery-thriller,novels,suspense,thriller"
11049001,1456718592,What's That Lump in Your Bed?,9781456718596,,,,ES,2011/3/11,Authorhouse,,false,1,11049001,0,0,0,0,2011/3/11,,,0,0,0,0,0,0.00,28,Paperback,,0,0,Paulette Hoover,,,,,,,0,,
11049501,,Inspiration and Incarnation: Evangelicals and the Problem of the Old Testament,,B0040ZN35U,,,ES,,,,true,10,270774,2515,3760,922,101,2005/7/1,Inspiration and Incarnation: Evangelicals and the Problem of the Old Testament,,355,354,160,36,17,4.08,,,,4,0,Peter Enns,,,,,,1315,17,82,"christian,christianity,faith,history,non-fiction,religion,school,spirituality,theology"
11050001,1446528235,Foundations of Geometry and Induction,9781446528235,,,,ES,,,,false,5,11050001,3,0,0,0,2011/1/10,,,0,0,0,0,0,0.00,,,,0,0,Jean Nicod,,,,,,3,0,,
11052001,0080206336,Readings in the Swedish Class Structure,9780080206332,,,,ES,1976/1/1,Pergamon,,false,2,4384920,0,0,0,0,1976/6/1,Readings in the Swedish Class Structure (Readings in sociology),,0,0,0,0,0,0.00,314,Unknown Binding,,0,0,,,Richard Scase,,,,,0,,
11052501,1434476995,"The Collected Works of Abraham Lincoln, Vol. 6",9781434476999,,,,ES,2008/10/30,Wildside Press,,false,2,11052501,16,5,1,1,,,,1,0,0,0,0,5.00,580,Hardcover,,1,1,Abraham Lincoln,,,,,,14,0,,
11053501,1403343756,Betrayed by Her Guardian Angel,9781403343758,,,,ES,,,,false,5,11053501,9,13,3,0,2002/12/1,,,2,0,1,0,0,4.33,,,,2,0,Stacie Spielman,,,,,,2,0,2,
11054001,,Shirley,,,,,ES,1849/1/1,Oxford University Press,eng,true,468,31168,72983,106087,28355,852,1849/1/1,Shirley ,book,7710,9418,8216,2206,805,3.74,642,Kindle Edition,Oxford World's Classics,3,2,Charlotte Brontë,,,,,,41447,282,671,"adult-fiction,british-literature,classic-literature,classics,english-literature,feminism,fiction,historical,historical-fiction,history,literary-fiction,literature,novels,romance,victorian"
11054501,1846572649,Toys,9781846572647,,,,ES,2011/4/28,Audiobooks,eng,false,25,8273044,20649,37958,11283,1276,2011/3/14,Toys,book,2311,2941,3484,1640,907,3.36,,Audio CD,,4,1,"James Patterson,Neil McMahon",,,,,Matthew Bomer,5167,85,226,"action,adult,adult-fiction,adventure,crime,dystopia,fantasy,fiction,murder-mystery,mystery,mystery-thriller,novels,science,science-fiction,suspense,thriller"
11055001,1596671270,Engaging Mathematics Students Using Cooperative Learning,9781596671270,,,,ES,2009/9/16,Routledge,,false,3,11055001,12,21,5,1,2009/9/16,,book,3,1,0,1,0,4.20,176,Paperback,,5,1,John D. Strebe,,,,,,5,0,1,
11055501,,Missing Persons 101,2940012203069,,,,ES,,,,true,2,2154950,6,9,3,0,2007/8/1,Missing Persons 101,book,0,0,3,0,0,3.00,,,,0,0,Heath P. Boice,,,,,,2,0,,mystery
11056001,1159594929,"GTA-Like: Grand Theft Auto III, Grand Theft Auto: San Andreas, Grand Theft Auto IV, Grand Theft Auto: Vice City, Mafia: The City of Lost Heaven",9781159594923,,,,ES,2010/7/31,Books LLC,,false,1,11056001,8,18,4,0,2010/7/28,,,2,2,0,0,0,4.50,,Paperback,,4,0,,,,Livres Groupe,,,1,0,,
11057001,1563333147,My Double Life,9781563333149,,,,ES,1996/10/1,Badboy,,false,1,11057001,8,20,4,0,1995/6/1,,,4,0,0,0,0,5.00,,Paperback,,4,0,Derek Adams,,,,,,2,0,,"fiction,gay,lgbt"
11058001,0486991199,Jost Amman's Renaissance Woodcuts CD-ROM and Book,9780486991191,,,,ES,2011/3/17,Dover Publications,,false,1,11058001,0,0,0,0,2011/3/17,,,0,0,0,0,0,0.00,64,Paperback,,0,0,Jost Amman,,,,,,,0,,
11058501,0138129096,Engineering Problem Solving with C++,9780138129095,,,,ES,2008/1/1,Pearson Prentice Hall,,false,8,1567368,22,24,8,0,2002/8/27,Engineering Problem Solving with C++,book,1,2,2,2,1,3.00,576,Paperback,,0,0,Delores M. Etter,,,,,,2,0,,"school,science,textbooks"
11059001,,Another Chance A Christian Romance,2940011232176,,,,ES,,,,true,6,11569914,662,1339,325,19,2011/3/12,,book,152,92,57,16,8,4.12,,,,0,0,Diane Lil Adams,,,,,,129,12,63,"chick-lit,christian,christian-fiction,fiction,romance"
11059501,1456481045,The Prince of the Metaphor at the Metaphysics Court,9781456481049,,,,ES,2010/12/1,Author Solutions,,false,1,11059501,0,0,0,0,2010/12/1,,,0,0,0,0,0,0.00,366,Hardcover,,0,0,Toma George Maiorescu,,,,George Anca,,,0,,
11061501,1414439733,"Contemporary Literary Criticism, Volume 277",9781414439730,,,,ES,2009/9/25,Gale,,false,1,11061501,0,0,0,0,2009/9/25,,book,0,0,0,0,0,0.00,512,Hardcover,,0,0,,,,,,,,0,,
11062501,,Children of Immortal Bliss: A New Perspective on our True Identity Based on the Ancient Vedanta Philosophy of India,2940012254108,,,,ES,,,,true,4,2722576,25,56,13,4,2008/2/1,Children of Immortal Bliss: A New Perspective on Our True Identity Based on the Ancient Vedanta Philosophy of India,,9,1,2,0,1,4.31,,,,4,2,"Anna Hourihan,Paul Hourihan",,,,,,9,0,,religion
11065001,,A Father to His Son: A Letter to an Undergraduate Upon His Entering College,2940018740094,,,,ES,,,eng,true,3,30467126,1,0,0,0,2015/9/27,,,0,0,0,0,0,0.00,,,,0,0,John D. Swain,,,,,,,0,,
11066001,,Secrets Of The World’s Best Radio Control Operators & How You Too Can Get Their Secrets For Pennies On The Dollar!,2940012349835,,,,ES,,,,true,1,11066001,0,0,0,0,2011/3/31,,,0,0,0,0,0,0.00,,,,0,0,Editorial Team Of MPowerUniversity.com,,,,,,,0,,
11066501,1450038808,The Elephant That Wanted to Be a Circus Clown,9781450038805,,,,ES,2010/2/18,Xlibris,,false,1,11066501,0,0,0,0,2010/2/18,,,0,0,0,0,0,0.00,28,Paperback,,0,0,Anne Frischmon,,,,,,,0,,
11067001,,Memoir of Rev. Nathan W. Fiske ... together with selections from his sermons and other writings,2940020814356,,,,ES,,,,true,7,30578592,0,0,0,0,2015/9/27,,,0,0,0,0,0,0.00,,,,0,0,Nathan Welby Fiske,,,,,,,0,,
11068001,,"Jimmy Coates: Assassin? (Jimmy Coates, #1)",,B0046A9MOU,,,ES,,,eng,true,13,912218,4512,6842,1781,86,2005/4/4,Jimmy Coates: Killer,book,593,569,429,124,66,3.84,,,,43,1,Joe Craig,,,,,,2443,14,30,"action,adventure,childrens,dystopia,fantasy,fiction,mystery,school,science-fiction,science-fiction-fantasy,teen,thriller,young-adult"
11068501,,To Find A Killer,2940000893494,,,,ES,,,,true,3,11068501,-1,0,0,0,2008/9/5,,,0,0,0,0,0,0.00,,,,0,0,Charlie Vogel,,,,,,,0,,
11069001,,La scrittura creativa,,,,,ES,1978/1/1,SugarCo,ita,false,2,10168027,48,55,16,2,1978/1/1,,book,2,5,7,2,0,3.44,128,Paperback,,1,0,William S. Burroughs,,,,Giulio Saponaro,,17,1,1,
11069501,,Bolt,,B002RI9XVU,,,ES,,,,true,40,8552,7150,21103,5241,166,1986/1/1,Bolt,book,1614,2293,1212,103,19,4.03,,,,67,0,Dick Francis,,,,,,548,13,57,"action,adult,adult-fiction,adventure,animals,contemporary,cozy-mystery,crime,detective,english-literature,fiction,murder-mystery,mystery,mystery-thriller,realistic-fiction,sports,suspense,thriller"
11070001,1420827790,Storms Of Tribulation: The Depression Years,9781420827798,,,,ES,2005/10/28,Authorhouse,,false,1,11070001,0,0,0,0,2005/10/1,,,0,0,0,0,0,0.00,580,Paperback,,0,0,"James E. Kent,Terry Minke",,,,,,,0,,
11070501,1445424762,Great Military Disasters,9781445424767,,,,ES,,,,false,3,7198081,69,105,28,3,2009/1/1,,book,4,15,8,0,1,3.75,,,,1,0,Michael E. Haskew,,,,,,26,2,1,"history,non-fiction,reference,school"
11071001,0545270456,Lexi the Firefly Fairy,9780545270458,,,,ES,2011/7/1,"Scholastic, Inc.",en-US,false,10,7954688,828,1181,298,12,2010/1/1,,book,137,69,54,20,18,3.96,80,Paperback,,20,2,Daisy Meadows,Georgie Ripper,,,,,341,20,13,"chapter-books,childrens,fantasy,magic"
11072001,0983221502,Wolf Face,9780983221500,,,,ES,2011/3/7,H_ngm_n Books,,false,4,9266231,125,253,58,4,2010/10/1,,,33,16,7,1,1,4.36,116,Paperback,,1,0,Matt Hart,,,,,,50,1,2,poetry
11073001,1157691331,"Scots Language: Doric Dialect, Irvine Welsh, Lallans, List of English Words of Scots Origin, Modern Scots, Auld Lang Syne",9781157691334,,,,ES,2013/5/1,Booksllc.Net,,false,1,11073001,2,5,1,0,2011/8/15,,,1,0,0,0,0,5.00,70,Paperback,,1,0,Source Wikipedia,,,,,,1,0,,
11073501,,Jesus of Nazareth in the light of to-day,2940019021413,,,,ES,,,,true,1,11073501,0,0,0,0,,,,0,0,0,0,0,0.00,,,,0,0,Elbert Russell,,,,,,,0,,
11074001,0307756742,A Checklist for Murder,9780307756749,,,,ES,2010/6/23,Dell,,true,10,2161942,1010,1957,477,35,1995/8/1,A Checklist for Murder,,194,169,89,19,6,4.10,408,ebook,,0,0,Anthony Flacco,,,,,,222,12,180,"amazon,crime,dark,history,non-fiction,true-crime"
11074501,0007355017,Strange and Stranger,9780007355013,,,,ES,,,,false,1,11074501,55,75,19,1,,,,6,7,5,1,0,3.95,,,,19,1,Copstead,,,,,,20,1,,graphic-novels
11075501,,France & Flanders: four years experience told in poem & story,2940018880363,,,,ES,,,,true,1,11075501,0,0,0,0,,,,0,0,0,0,0,0.00,,,,0,0,Sapper W. Brindle,,,,,,,0,,
11076001,0615435262,Race Car Drivers of 85 Speedway 2010,9780615435268,,,,ES,2011/1/8,Firewater Publishing,,false,1,11076001,0,0,0,0,2011/1/8,,,0,0,0,0,0,0.00,186,Paperback,,0,0,Dave A. Vance,,,,,,,0,,
11076501,364217258X,"Muskeldehnung: Grundlagen, Differenzialdiagnostik, Therapeutische Dehnungen, Eigendehnungen",9783642172588,,,,ES,,,,false,1,11076501,1,0,0,0,2011/5/12,,,0,0,0,0,0,0.00,,,,0,0,Kathrin Lindel,,,,,,1,0,,
11079501,,The Arezzo Massacres  A TuscanTragedy,9781409215424,,,,ES,2011/11/3,Lulu,,false,1,11079501,1,0,0,0,2008/7/7,,,0,0,0,0,0,0.00,145,Paperback,Second Edition,0,0,Janet Kinrade Dethick,,,,,,,0,,
11080001,,"The story of my life; or, More than half a century as I have lived it and seen it lived, written by myself at my own suggestion and that of many others who have known and loved me",2940022506242,,,,ES,,,,true,1,11080001,2,0,0,0,2007/6/25,The Story Of My Life: Or More Than A Half Century As I Have Lived It And Seen It Lived,,0,0,0,0,0,0.00,,,,0,0,G.C. Rankin,,,,,,1,0,,
11080501,158465967X,Land and Desire in Early Zionism,9781584659679,,,,ES,2011/5/10,Brandeis University Press,,false,5,10873012,12,9,2,0,2011/5/10,,,1,1,0,0,0,4.50,250,Hardcover,,0,0,Boaz Neumann,,,,,,7,2,,grad-school
11081001,9048192099,Non Equilibrium Nano Physics: A Many Body Approach (Lecture Notes In Physics),9789048192090,,,,ES,2010/7/5,Springer,,false,1,11081001,0,0,0,0,2010/7/8,,,0,0,0,0,0,0.00,224,Paperback,,0,0,Jonas Fransson,,,,,,,0,,
11082001,,WEIRD: Because Normal Isn't Working,,B004DCAUX8,,,ES,2011/4/19,Zondervan ,en-US,true,20,10723670,6800,11359,2774,192,2011/3/9,,book,1106,1006,517,109,36,4.09,241,,,263,10,Craig Groeschel,,,,,,1809,15,79,"christian,christian-fiction,christianity,faith,leadership,marriage,non-fiction,parenting,personal-development,religion,self-help,spirituality,theology"
11082501,1596353805,"Boxed in (Annie's Attic Mysteries, #8)",9781596353800,,,,ES,2011/1/1,Annie's Attic,eng,false,1,11082501,250,405,103,22,2011/1/1,,book,32,41,21,9,0,3.93,221,Hardcover,,103,22,Karen Kelly,,,,,,111,5,2,"christian,cozy-mystery,faith,fiction,history,mystery"
11083001,849801459X,Time Out Selecciones Amsterdam,9788498014594,,,,ES,2010/5/25,Time Out,spa,false,3,7242320,7,15,4,0,2008/10/1,,book,1,1,2,0,0,3.75,196,Paperback,,0,0,Joost Baaij,,,Steve Korver,,,1,0,,travel
11083501,,"The papers of James Madison: purchased by order of Congress, being his correspondence and reports of debates during the Congress of the Confederation, and his reports of debates in the Federal Convention; now published from the original manuscripts, depo",2940030924687,,,,ES,,,,true,16,6941702,5,5,1,0,1840/1/1,,,1,0,0,0,0,5.00,,,,0,0,James Madison,,,,,,3,1,,
11085001,140670704X,Friendly Faces Of Three Nationalities,9781406707045,,,,ES,2007/3/15,Codman Press,,false,3,38416702,0,0,0,0,2007/3/1,,,0,0,0,0,0,0.00,348,Paperback,,0,0,Matilda Betham-Edwards,,,,,,,0,,
11086501,0374706581,The Year of Endless Sorrows: A Novel,9780374706586,,,,ES,2006/12/26,"Farrar, Straus and Giroux",,true,5,90981,633,1340,376,74,2006/12/26,The Year of Endless Sorrows: A Novel,book,76,127,116,47,10,3.56,416,ebook,,1,0,Adam Rapp,,,,,,200,9,11,"contemporary,fiction,humor,literature,novels,plays"
11088501,3642097766,Supervised and Unsupervised Ensemble Methods and Their Applications,9783642097768,,,,ES,2010/10/28,Springer,,false,5,11088501,0,0,0,0,2008/4/18,,,0,0,0,0,0,0.00,182,Paperback,,0,0,,,,Oleg Okun,,,,0,,
11089501,1599905663,In the Shadow of the Lamp,9781599905662,,,,ES,2011/4/1,Bloomsbury Publishing PLC,,true,4,8715078,6134,4640,1283,199,2011/4/7,,book,296,399,424,128,36,3.62,,ebook,,6,1,Susanne Dunlap,,,,,,4546,27,12,"adult,adventure,chick-lit,death,fantasy,fiction,historical,historical-fiction,history,juvenile,literature,medical,romance,school,teen,victorian,war,young-adult"
11090501,9681861159,Las razones de la educación: trama y urdimbre del hombre,9789681861155,,,,ES,2000/1/1,,spa,false,1,11090501,0,0,0,0,,Las razones de la educación: trama y urdimbre del hombre,book,0,0,0,0,0,0.00,394,,,0,0,Gerónimo Martínez,,,,,,,0,,
11092001,0747532923,Dawn Of The Promised Land,9780747532927,,,,ES,1997/11/1,Bloomsbury Publishing PLC,,false,2,11092001,25,33,9,1,1997/11/20,,,3,1,4,1,0,3.67,256,Hardcover,,7,1,Ben Wicks,,,,,,14,0,,history
11092501,,The Impersonator,,B004OEKEEU,,,ES,2011/2/19,"Amber Quill Press, LLC",,true,2,10171009,158,292,83,8,2011/2/19,,book,14,30,25,13,1,3.52,66,,,0,0,Shawn Lane,,,,,,55,16,,"contemporary,gay,lgbt,short-stories"
11093001,1462007821,"A Break in the Rain: A Boy, His Coach, and a Special Wish",9781462007820,,,,ES,2011/4/4,iUniverse,,false,1,11093001,0,0,0,0,2011/4/4,,,0,0,0,0,0,0.00,112,Paperback,,0,0,Tony Lotti,,,,,,,0,,
11093501,0575107936,The Dragon Arcana (The Cardinal's Blades #3),9780575107939,,,,ES,,,eng,false,11,11093501,513,871,231,32,2010/9/17,,book,53,89,73,15,1,3.77,,,,126,16,Pierre Pevel,Jon Sullivan,,,Tom Clegg,,219,8,4,"adventure,fantasy,fiction,france,historical,historical-fiction"
11094001,0521107504,Rethinking the Novel/Film Debate,9780521107501,,,,ES,2009/4/1,Cambridge University Press,,false,3,2421894,34,43,11,0,2003/8/18,Rethinking the Novel/Film Debate,,3,4,4,0,0,3.91,316,Paperback,,1,0,Kamilla Elliott,,,,,,11,0,2,"criticism,film"
11094501,1904761720,"Ruined by Excess, Perfected by Lack: The Paradox of Pet Nutrition",9781904761723,,,,ES,2011/2/23,Nottingham University Press,,false,4,11094501,38,28,6,1,2011/2/23,,,4,2,0,0,0,4.67,278,Paperback,,4,1,Richard S. Patton,,,,,,19,0,-1,non-fiction
11095501,,A Dickens dictionary: the characters and scenes of the novels and miscellaneous works alphabetically arranged,2940019806270,,,,ES,,,,true,11,5877323,8,12,3,1,,Dickens Dictionary,book,0,3,0,0,0,4.00,,,,1,1,Alexander John Philip,,,,,,2,2,,"literature,non-fiction"
11096501,0030526027,�ven Conmigo!: Practice and Activity Book Level 1,9780030526022,,,,ES,1998/11/1,Holt McDougal,,false,1,11096501,0,0,0,0,1998/11/1,,,0,0,0,0,0,0.00,156,Paperback,,0,0,,,,,,,,0,,
11097001,,Odinism: The Religion of Our Germanic Ancestors In the Modern World: Essays on the Heathen Revival and the Return of the Age of the Gods,,B004W3FZRE,,,ES,,,,true,2,11107030,256,166,43,7,2011/1/1,,,18,14,2,5,4,3.86,,,,8,0,Wyatt Kaldenberg,,,,,,198,2,2,"essays,history,non-fiction,spirituality"
11097501,073180483X,More Money With Noel Whittaker,9780731804832,,,,ES,,,,false,1,11097501,36,35,10,1,,,,1,5,2,2,0,3.50,,,,10,1,Noel Whittaker,,,,,,17,0,1,
11098001,,The Word Weaver's Grimoire,,B003PPDIYW,,,ES,,,en-GB,true,1,11098001,49,47,13,0,2010/6/5,,book,2,5,5,1,0,3.62,,,,13,0,Daniel Arenson,,,,,,30,0,2,fantasy
11099001,1561374032,The Old Man And The Sea,9781561374038,,,,ES,,,,false,911,2165,1075180,2603918,693609,20601,1952/9/1,The Old Man and the Sea,book,212129,225981,161389,61072,33038,3.75,,,,1,0,Ernest Hemingway,,,,,,283149,1813,8514,"adult,adult-fiction,adventure,american,classic-literature,classics,drama,fiction,high-school,historical-fiction,literary-fiction,literature,modern-classics,novella,novels,philosophy,realistic-fiction,school,short-stories,young-adult"
11099501,1904808336,Treasure Island,9781904808336,,,,ES,2010/11/27,Evertype,,false,3487,295,551804,1346168,351689,9487,1882/1/28,Treasure Island,book,97530,130046,96371,21479,6263,3.83,280,Hardcover,,0,0,Robert Louis Stevenson,"Frank E. Schoonover,Louis Rhead",,,,,131134,720,19252,"action,adventure,british-literature,childrens,classic-literature,classics,english-literature,fantasy,fiction,historical,historical-fiction,history,juvenile,literary-fiction,literature,middle-grade,novels,school,thriller,victorian,young-adult"
11100001,8634115674,Izbruh,,,,,ES,1995/1/1,DZS,slv,false,75,16213,135270,351021,85368,4387,1994/12/1,The Hot Zone: The Terrifying True Story of the Origins of the Ebola Virus,book,33495,32718,15328,2863,964,4.11,267,Paperback,,1,0,Richard   Preston,,,,Draga Puc,,38682,161,1584,"adult,animals,contemporary,fiction,health,high-school,historical,history,horror,medical,mystery,mystery-thriller,nature,non-fiction,novels,research,school,science,science-fiction,suspense,thriller"
11100501,0758212585,Sleeping With The Enemy,9780758212580,,,,ES,2011/11/1,Dafina,,false,12,2861844,4918,11218,2507,58,2008/1/1,Sleeping With The Enemy,book,1681,467,259,68,32,4.47,288,Paperback,,9,0,"Kiki Swinson,Wahida Clark",,,,,,2273,11,22,"adult,drama,fiction"
11101001,184844589X,Low Carbon Communities: Imaginative Approaches To Combating Climate Change Locally,9781848445895,,,,ES,2010/9/30,Edward Elgar Publishing,,false,3,11101001,5,0,0,0,,,book,0,0,0,0,0,0.00,304,Hardcover,,0,0,,,,"Michael Peters,Shane Fudge,Tim Jackson",,,4,1,,
11101501,093814832X,Lovetts Lights on Hebrews:,9780938148326,,,,ES,,,eng,false,1,11101501,1,3,1,1,,,book,0,0,1,0,0,3.00,,,,1,1,C.S. Lovett,,,,,,,0,,
11102001,,"Biographical memoirs of Wells County, Indiana: embracing a comprehensive compendium of local biography, memoirs of representative men and women of the county whose works of merit have made their names imperishable, and special articles by Hugh Dougherty",2940017114643,,,,ES,,,,true,1,11102001,0,0,0,0,2010/1/13,,,0,0,0,0,0,0.00,,,,0,0,Hugh Dougherty,,,,,,,0,,
11103001,0982319681,Grillo: Abstract Expressionism: Beyond the Fifties,9780982319680,,,,ES,2011/4/1,Fields Publishing,,false,1,11103001,0,0,0,0,2011/4/1,,,0,0,0,0,0,0.00,134,Hardcover,,0,0,,,,,,,,0,,
11104001,0324824890,Modern Business Statistics With Ms... - Package,9780324824896,,,,ES,,,,false,27,4758813,77,117,37,2,2001/1/1,Modern Business Statistics with Microsoft® Excel,book,8,7,11,5,6,3.16,,,,0,0,"David R. Anderson,Dennis J. Sweeney,Thomas A. Williams",,,,,,24,0,4,"business,non-fiction,school"
11104501,0901158240,Pondweeds Of Great Britain And Ireland,9780901158246,,,,ES,,,,false,1,11104501,1,0,0,0,,,,0,0,0,0,0,0.00,,,,0,0,Christopher Preston,L.T. Ellis,,,,,1,0,,
11106001,059400294X,"Hands of My Father: A Hearing Boy, His Deaf Parents, and the Language of Love",9780594002949,,,,ES,,,,false,9,3899622,6187,8623,2125,461,2009/1/1,"Hands of My Father: A Hearing Boy, His Deaf Parents, and the Language of Love",book,746,875,410,69,25,4.06,,,,1,0,Myron Uhlberg,,,,,,2691,26,37,"adult,autobiography,biography,biography-memoir,education,family,history,humor,language,memoir,non-fiction,novels"
11106501,1423326377,"Running Hot (Arcane Society, #5)",9781423326373,,,,ES,2008/12/30,Brilliance Audio,,false,39,2974804,12589,35127,8630,360,2008/1/1,Running Hot,book,3140,3334,1834,267,55,4.07,,Audio CD,Library Edition,1,1,Jayne Ann Krentz,,,,,,1426,45,155,"adult,adult-fiction,contemporary,crime,fantasy,fiction,magic,mystery,mystery-thriller,paranormal,romance,science-fiction,supernatural,suspense,thriller,urban-fantasy"
11107501,0765327090,Angel,9780765327093,,,,ES,2011/9/13,Forge Books,,false,5,11107501,380,214,65,23,2011/9/13,,book,12,22,13,9,9,3.29,304,Hardcover,,48,19,"Laura Hayden,Nicole ""Coco"" Marrow",,,,,,7,10,2,"demons,fantasy,fiction,mystery,mystery-thriller,paranormal,vampires"
11108001,,Pee Funny (by Way of Beets),2940012239709,,,,ES,,,,true,1,11108001,1,0,0,0,2011/3/7,,,0,0,0,0,0,0.00,,,,0,0,Benjamin Picard,,,,,,,0,,
11109001,1921564709,Family Forest,9781921564703,,,,ES,2010/5/1,Hardie Grant Egmont,eng,false,2,11109001,64,127,31,6,2010/5/1,Family Forest,book,12,13,4,1,1,4.10,32,Hardcover,,31,6,Kim Kane,Lucia Masciullo,,,,,19,4,1,"childrens,picture-books"
11110001,1441214305,Quilt of Faith: Stories of Comfort from the Patchwork Life,9781441214300,,,,ES,2010/6/1,Fleming H. Revell Company,,true,3,18875198,185,191,49,2,2010/6/1,,book,17,13,16,3,0,3.90,224,ebook,,14,1,Mary Tatem,,,,,,90,5,8,"christian,christian-fiction"
11112501,,As the twig is bent; a story for mothers and teachers,2940019271627,,,,ES,,,,true,1,11112501,0,0,0,0,2010/3/27,,,0,0,0,0,0,0.00,,,,0,0,Susan Chenery,,,,,,,0,,
11113001,1859580629,The Life Of Buffalo Bill,9781859580622,,,,ES,1994/11/25,Senate,,false,23,6311591,1362,2160,590,49,1879/1/1,"The Life of Buffalo Bill: Or, the Life and Adventures of William F. Cody, As Told by Himself",book,144,195,177,55,19,3.66,356,Paperback,,2,1,William F. Cody,,,,,,530,14,82,"adventure,american-history,autobiography,biography,biography-memoir,classics,fiction,historical,history,memoir,non-fiction,travel"
11114501,8877481315,Buñuel secondo Buñuel,9788877481313,,,,ES,,,ita,false,1,11114501,10,22,5,0,1993/1/1,,book,4,0,0,1,0,4.40,,Paperback,,5,0,Luis Buñuel,,,"José de la Colina,Tomas Pérez Turrent",Patrizia Volterra,,,1,1,"biography,unfinished"
11116001,1571881913,The Technology of Fly Rods,9781571881915,,,,ES,2000/2/1,Frank Amato Publications,,false,1,11116001,1,0,0,0,2000/3/28,,,0,0,0,0,0,0.00,,Hardcover,,0,0,"Don Phillips,Ernest Schwiebert",,,,,,,0,,
11116501,0521857066,Connectivity Conservation,9780521857062,,,,ES,2006/11/13,Cambridge University Press,,false,2,8216700,1,0,0,0,2006/10/31,,,0,0,0,0,0,0.00,712,Hardcover,,0,0,M. Sanjayan,,,Kevin R. Crooks,,,,0,1,
11117001,1906403007,Bankers' Lending Techniques,9781906403003,,,,ES,2010/11/1,Global Professional Publishing,,false,2,11117001,7,6,2,0,2002/2/1,Bankers' Lending Techniques,book,0,0,2,0,0,3.00,295,Paperback,,1,0,C.N. Rouse,,,,,,4,0,1,
11117501,145074253X,The Korporate Kannibal Kookbook: Recipes for Ending Civilization and Avoiding Collective Suicide,9781450742535,,,,ES,2011/1/16,Sparrowhawk Publishing,,false,3,11117501,25,21,5,0,2011/1/16,,,2,2,1,0,0,4.20,297,Paperback,,4,0,Brad Blanton,,,,,,18,0,,"philosophy,psychology"
11119001,0830749357,Healing Grace for Hurting People,9780830749355,,,,ES,2007/1/1,Regal Books,,true,11,1474418,30,27,7,2,2007/8/28,Healing Grace for Hurting People: Practical Steps for Restoring Broken Relationships,,3,2,1,0,1,3.86,240,ebook,,0,0,"H. Norman Wright,Larry F. Renetzky",,,,,,13,0,1,
11119501,0815620519,Readings in Russian History: From the Reign of Paul to Alexander III,9780815620518,,,,ES,,,,false,1,11119501,0,0,0,0,1963/1/1,,,0,0,0,0,0,0.00,,,,0,0,"Gara B. Toye,Warren Bartlett Walsh",,,,,,,0,,
11120501,0761851569,Us Policy Towards the Muslim World: Focus on Post 9/11 Period,9780761851561,,,,ES,2010/6/16,University Press of America,,false,3,14846829,2,0,0,0,2010/5/13,,,0,0,0,0,0,0.00,324,Hardcover,,0,0,,,,M. Saleem Kidwai,,,2,0,,
11121501,3540814922,Advances in Databases and Information Systems,9783540814924,,,,ES,,,,false,2,7144720,0,0,0,0,1999/1/1,,,0,0,0,0,0,0.00,,,,0,0,"Ahto Kalja,Hele-Mai Haav,Johann Eder",,,,,,,0,,
11122501,0675087120,Developing Skills for Human Interaction,9780675087124,,,,ES,,,,false,2,3900016,1,0,0,0,1975/1/1,Developing Skills for Human Interaction,,0,0,0,0,0,0.00,,,,0,0,"Linda R. Heun,Richard E. Heun",,,,,,1,0,,
11123001,1595454438,Skill Builder Language Grade K,9781595454430,,,,ES,,,,false,1,11123001,0,0,0,0,2003/1/1,,,0,0,0,0,0,0.00,,,,0,0,"Learning Horizons, Incorporated",,,,,,,0,,
11123501,0930072111,Compilation of State and Federal Privacy Laws,9780930072117,,,,ES,1997/4/1,Privacy Journal,,false,2,11123501,1,3,1,0,1997/4/28,,,0,0,1,0,0,3.00,119,Paperback,,1,0,"Keith D. Snyder,Robert Ellis Smith",,,,,,,0,,
11124001,1408481251,The Second Shadow & The Burning Question: The Inspector McLevy Mysteries,9781408481257,,,,ES,,,,false,2,11124001,16,27,8,1,2010/5/1,,book,0,3,5,0,0,3.38,,,,6,1,"David Ashton,Siobhan Redmond",,,,,Brian  Cox,4,0,,"crime,fiction,mystery"
11125001,0226779386,"Healing the Land and the Nation: Malaria and the Zionist Project in Palestine, 1920-1947",9780226779386,,,,ES,2014/5/14,Not Avail,,false,3,790117,11,10,3,0,2007/1/1,"Healing the Land and the Nation: Malaria and the Zionist Project in Palestine, 1920-1947",,0,2,0,1,0,3.33,406,Unknown Binding,,0,0,Sandra M. Sufian,,,,,,7,0,,
11125501,1589826256,Second Chances,9781589826250,,,,ES,,,,false,1,11125501,2,4,1,0,2010/6/12,,,0,1,0,0,0,4.00,,,,1,0,Karen Beintema,,,,,,1,0,,
11126501,,Manusa - poveste populara ucrainiana,,,,,ES,1962/1/1,Editura Tineretului,rum,false,1,11126501,6,18,5,0,1962/1/1,,book,1,1,3,0,0,3.60,16,Paperback,,5,0,,,,,,,1,0,,
11127001,,Relativity : The Special and General Theory,,B004TOUQCU,,,ES,,,,true,379,15852,49974,65491,15681,524,1916/1/1,Über die spezielle und die allgemeine Relativitätstheorie,book,7301,4942,2582,616,240,4.18,,,,17,2,Albert Einstein,,,,Robert W.  Lawson,,29998,97,1821,"classics,history,non-fiction,philosophy,reference,science,technology"
11127501,,Ladyboys: Inside the Secret World of Thailand's Third Sex,,B004R1Q5VQ,,,ES,,,,true,2,6191320,680,1018,280,38,2008/5/15,Ladyboys: The Secret World of Thailand's Third Gender,book,52,107,95,19,7,3.64,,,,84,3,"Pornchai Sereemongkonpol,Susan Aldous",,,,,,147,8,13,"anthropology,biography,biography-memoir,feminism,lgbt,memoir,non-fiction,reference,romance,travel"
11128501,,The crisis,2940022454864,,,,ES,,,,true,126,1719304,6606,2566,694,36,1901/1/1,The Crisis,book,211,210,173,52,48,3.70,,,,0,0,Winston Churchill,,,,,,5793,33,33,"biography,classics,fiction,historical,historical-fiction,history,literature,non-fiction,novels,reference,war"
11129001,9875504416,Drácula,9789875504417,,,,ES,,,spa,false,3385,17245,1273162,3194264,801287,20773,1897/1/1,Dracula,book,289054,283267,172507,41946,14513,3.99,564,,,38,0,Bram Stoker,Carlos Nine,,,Haydée N. Fryn,,367281,1036,34777,"adult,adult-fiction,adventure,british-literature,classic-literature,classics,dark,english-literature,fantasy,fiction,gothic,historical,historical-fiction,horror,literature,mystery,novels,paranormal,romance,school,science-fiction,supernatural,suspense,thriller,unfinished,vampires,victorian"
11130001,0470949554,Sewing for Boys: 24 Projects to Create a Handmade Wardrobe,9780470949559,,,,ES,2011/9/1,Wiley,,false,3,11130001,109,254,65,9,2011/9/1,,,19,27,14,4,1,3.91,144,Hardcover,,65,9,"Karen LePage,Shelly Figueroa",,,,,,32,2,2,amazon
11130501,0850524873,"Famous Scottish Battles: Where Battles Were Fought, Why They Were Fought, How They Were Won & Lost",9780850524871,,,,ES,1995/7/1,Trans-Atlantic Publications,,false,5,7543314,20,30,9,1,1975/1/1,,book,1,1,7,0,0,3.33,160,Hardcover,,1,0,Philip Warner,,,,,,7,0,,"history,non-fiction"
11131501,3936168172,Preussen   Erbe Und Erinnerung: Essays Aus Polen Und Deutschland,9783936168174,,,,ES,,,,false,1,11131501,1,4,1,0,2005/1/1,,,0,1,0,0,0,4.00,,,,1,0,Basil Kerski,,,,,,,0,,
11132501,0230594484,"The New Film History: Sources, Methods, Approaches",9780230594487,,,,ES,2009/7/15,Palgrave Macmillan,,false,1,11132501,2,0,0,0,2009/5/1,,book,0,0,0,0,0,0.00,272,Paperback,,0,0,"James  Chapman,Mark Glancy,Sue Harper",,,,,,1,0,,
11133001,1157992137,"Greek Expatriates: Greek Exiles, Greek Expatriate Footballers, Greek Expatriates in Belgium, Greek Expatriates in Bulgaria",9781157992134,,,,ES,2011/9/1,"Books LLC, Wiki Series",,false,1,11133001,0,0,0,0,2010/6/12,,,0,0,0,0,0,0.00,,Paperback,,0,0,Source Wikipedia,,,,,,,0,,
11133501,0710609604,Jane's Fighting Ships 1991-92,9780710609601,,,,ES,1991/6/1,"Jane's Information Group (Alexandria, VA)",,false,1,11133501,3,5,1,0,1991/6/1,Jane's Fighting Ships 1991-92,book,1,0,0,0,0,5.00,848,Hardcover,94th,1,0,,,,,,,2,0,,
11134001,1428830510,"Outlines & Highlights For Microeconomics By Paul Krugman, Robin Wells, Isbn",9781428830516,,,,ES,2009/10/28,,,false,1,11134001,0,0,0,0,2009/10/28,,,0,0,0,0,0,0.00,68,Paperback,,0,0,Cram101 Textbook Reviews,,,,,,,0,,
11134501,0522841635,Bells in Australia,9780522841633,,,,ES,1979/12/1,ISBS,,false,1,11134501,0,0,0,0,1979/12/1,,book,0,0,0,0,0,0.00,150,Hardcover,,0,0,J. D. Keating,,,,,,,0,,
11135001,0007272413,2009 Collins Big Road Atlas Britain: A3 Edition,9780007272419,,,,ES,2008/7/1,HarperCollins UK,,false,23,13592741,38,123,27,0,2008/7/1,,,17,8,2,0,0,4.56,176,Spiral-bound,,0,0,Collins,,,,,,,0,,
11135501,,Halli Hundi päevik,,,,,ES,1973/1/1,Eesti Raamat,est,false,2,11135501,25,49,14,1,1973/1/1,Записки Серого Волка,book,2,4,7,1,0,3.50,192,Hardcover,,14,1,Ahto Levi,,,,Juhan-Kaspar Jürna,,4,1,,fiction
11136001,031203508X,Social History of Western Civilization,9780312035082,,,,ES,1992/1/1,St. Martin's Press,,false,5,10495387,19,25,6,1,1990/11/13,,book,2,3,1,0,0,4.17,2,Unknown Binding,,0,0,,,Richard M.  Golden,,,,5,0,,"fiction,history,science"
11137001,0879679271,Taking Sides: Clashing Views on Controversial Legal Issues,9780879679279,,,,ES,,,,false,17,1809586,78,78,21,0,1989/1/1,Taking Sides: Clashing Views on Controversial Legal Issues,book,7,4,7,3,0,3.71,,,,0,0,M. Ethan Katsh,,,,,,9,1,2,"non-fiction,textbooks"
11138001,0195386671,"MENC Handbook of Research on Music Learning, Volume 1: Strategies",9780195386677,,,,ES,2011/11/23,"Oxford University Press, USA",,false,3,11137995,15,27,6,0,2011/6/29,,,4,1,1,0,0,4.50,316,Hardcover,,1,0,"MENC, the National Association for Music Education (U.S.) Staff,Peter R. Webster",,,Richard Colwell,,,5,0,,
11138501,0634060368,Das Kann Ich Spielen,9780634060366,,,,ES,2003/5/1,,,false,1,11138501,0,0,0,0,2003/5/1,,,0,0,0,0,0,0.00,,,,0,0,Anonymous,,,,,,,0,,
11139001,1408690012,Our Country in Poem and Prose; Arranged for Collateral and Supplementary Reading,9781408690017,,,,ES,2008/7/8,Sims Press,,false,8,30704881,0,0,0,0,2008/7/1,,,0,0,0,0,0,0.00,208,Paperback,,0,0,Eleanor Alice Persons,,,,,,,0,,
11140001,,Special Cunnilingus Techniques and Secrets,,B004VNLT7K,,,ES,,,,true,1,11140001,26,18,4,0,2011/4/6,,book,3,0,1,0,0,4.50,,,,4,0,Red Hot Sex Tips,,,,,,21,0,1,
11141001,0116212810,"Smoking, Drinking and Drug Use among Young Teenagers in 1998",9780116212818,,,,ES,,,,false,1,11141001,2,0,0,0,1999/10/1,"Smoking, Drinking and Drug Use Among Young Teenagers in 1998",,0,0,0,0,0,0.00,,,,0,0,"Eileen Goddard,Vanessa Higgins",,,,,,2,0,,
11142001,1434818578,The Ultimate Book of World List,9781434818577,,,,ES,2007/11/21,Createspace,,false,1,11142001,1,0,0,0,2007/11/21,,,0,0,0,0,0,0.00,742,Paperback,,0,0,Jean-Maximillien De La Croix de Lafayette,,,,,,,0,,
11142501,1445564033,The Life and Adventures of Alexander Selkirk,9781445564036,,,,ES,,,,false,12,11142501,25,40,12,3,2009/1/1,,,1,3,7,1,0,3.33,,,,4,2,John Howell,,,,,,12,0,,"adventure,biography,history,non-fiction"
11143001,,Meray Dil Meray Musafir,,,,,ES,1981/1/1,,urd,false,2,11143001,134,205,48,1,1981/1/1,مرے دل مرے مسافر,book,25,13,8,2,0,4.27,,,,42,1,Faiz Ahmad Faiz,,,,,,76,0,1,"fiction,poetry,young-adult"
11144001,0253354927,Tabloid Journalism in South Africa: True Story!,9780253354921,,,,ES,2010/5/1,Indiana University Press,,false,5,8538105,5,8,2,0,2010/1/1,,,1,0,1,0,0,4.00,240,Hardcover,,0,0,Herman Wasserman,,,,,,2,0,,
11145001,1585492388,"Maryland Calendar of Wills, Volume 13: 1764-1767",9781585492381,,,,ES,,,,false,1,11145001,0,0,0,0,2008/1/1,,,0,0,0,0,0,0.00,,,,0,0,F. Edward Wright,,,,,,,0,,
11146001,,"A Collection of Colloquial Phrases, on Every Topic Necessary to Maintain Conversation: Arranged ...",2940023703725,,,,ES,,,,true,2,11146001,0,0,0,0,,,,0,0,0,0,0,0.00,,,,0,0,Anthony Bolmar,,,,,,,0,,
11146501,0745115845,In Black and White and Other Stories,9780745115849,,,,ES,1992/7/1,Chivers North America,,false,5,3551767,17,44,11,0,1992/6/30,In Black and White (Puffin Books),,5,1,5,0,0,4.00,,Hardcover,Large Print,0,0,Jan Mark,,,,,,2,1,,"childrens,fiction,short-stories,young-adult"
11147501,,La raccolta di silenzi del dottor Murke,,,,,ES,1997/1/1,Gruppo Editoriale l'Espresso,ita,false,27,1978057,556,1388,341,9,1958/1/1,Doktor Murkes Gesammeltes Schweigen,book,127,128,71,13,2,4.07,45,Paperback,I racconti di Repubblica n. 8,14,0,Heinrich Böll,,,,Lea Ritter Santini,,133,8,7,"classics,comedy,fiction,high-school,literature,poetry,short-stories"
11148001,0393706729,"Love and War in Intimate Relationships: Connection, Disconnection, and Mutual Regulation in Couple Therapy",9780393706727,,,,ES,2011/4/11,W. W. Norton  Company,,true,3,11148001,202,303,69,7,2011/4/11,,,34,28,7,0,0,4.39,288,ebook,,35,4,"Marion F. Solomon,Stan Tatkin",,,,,,89,5,14,"grad-school,love,mental-health,non-fiction,psychology,relationships"
11149001,1420884611,Woodruff's Firebase,9781420884616,,,,ES,,,,false,1,11149001,1,0,0,0,2006/4/1,,book,0,0,0,0,0,0.00,,,,0,0,David Celley,,,,,,,0,,
11149501,0521147182,Selections from the Architectural History of the University of Cambridge: Trinity College,9780521147187,,,,ES,2009/5/12,Cambridge University Press,,false,1,11149501,2,0,0,0,2009/9/17,,book,0,0,0,0,0,0.00,368,Paperback,,0,0,"John Willis Clark,Robert  Willis",,,,,,2,0,,
11150001,0870336177,Asd Tugs,9780870336171,,,,ES,2010/10/28,Schiffer Publishing,,false,2,11150001,22,33,7,0,2011/2/1,,book,6,0,1,0,0,4.71,120,Paperback,,7,0,Jeff Slesinger,,,,,,10,0,,
11151001,,An Ideal Husband,2940012352965,,,,ES,,,,true,517,5296,68744,137186,33976,981,1893/4/1,An Ideal Husband,book,11549,13867,7141,1131,288,4.04,,,,0,0,Oscar Wilde,,,,,,30252,155,465,"adult,adult-fiction,british-literature,classic-literature,classics,comedy,drama,english-literature,fiction,funny,high-school,historical,historical-fiction,humor,literature,novels,plays,poetry,politics,romance,school,short-stories,theatre,victorian"
11151501,1849680604,Ibm Lotus Sametime 8 Essentials: A User's Guide,9781849680608,,,,ES,2010/9/25,Packt Publishing,,false,1,11151501,0,0,0,0,2010/9/25,,book,0,0,0,0,0,0.00,284,Paperback,,0,0,"Marie L. Scott,Thomas Duff",,,,,,,0,,
11152501,,"Settlers of Aquidneck, and liberty of conscience. Read before the Rhode Island historical society, February, 1880",2940019431908,,,,ES,,,,true,1,11152501,0,0,0,0,2009/1/1,,,0,0,0,0,0,0.00,,,,0,0,Henry Edward Turner,,,,,,,0,,
11155501,1401383467,"Burn Before Reading: Presidents, CIA Directors, and Secret Intelligence",9781401383466,,,,ES,2005/10/1,Hyperion,,true,19,429135,404,488,152,24,2005/10/15,"Burn Before Reading: Presidents, CIA Directors, and Secret Intelligence",,13,44,67,18,10,3.21,320,ebook,,0,0,Stansfield Turner,,,,,,197,5,10,"american-history,biography,business,classics,history,memoir,non-fiction,politics,research,unfinished,war"
11156501,070893272X,Vendetta Castle,9780708932728,,,,ES,,,,false,3,2466890,3,7,2,0,1993/10/28,Vendetta Castle,book,0,1,1,0,0,3.50,,,,0,0,Julie Ellis,,,,,,1,0,,
11157001,3938808330,Das Mass aller Dinge: eine Abhandlung zur Metaphysik des Menschen,9783938808337,,,,ES,2007/11/1,Velbrück Wissenschaft,,false,1,11157001,1,0,0,0,2007/11/1,,,0,0,0,0,0,0.00,319,,,0,0,Peter Fuchs,,,,,,,0,,
11157501,1445549301,"The Ancient Boeotians - Their Character and Culture, and Their Reputation",9781445549309,,,,ES,2010/3/30,Landor Press,,false,6,27936854,0,0,0,0,2010/3/31,,,0,0,0,0,0,0.00,90,Paperback,,0,0,William Rhys Roberts,,,,,,,0,,
11158501,8815146350,Si fa presto a dire nucleare: Riflessioni di un nuclearista non pentito,9788815146359,,,,ES,,il Mulino,ita,false,1,11158501,2,0,0,0,2010/1/1,,book,0,0,0,0,0,0.00,184,Paperback,Contemporanea,0,0,Alberto Clò,,,,,,1,0,,
11161001,,"Three Times the Scandal (Scandalous Seductions, #4)",2940012330079,,,,ES,,,,true,6,25507753,1006,1091,304,53,2011/4/7,,book,81,94,72,37,20,3.59,,,,3,2,Madelynne Ellis,,,,,,540,11,74,"adult,amazon,erotica,fantasy,fiction,historical,historical-fiction,menage,queer,regency,romance"
11161501,0910223203,Changing Course,9780910223201,,,,ES,,,,false,10,77812,336,418,99,9,1993/11/28,"Changing Course: Healing from Loss, Abandonment and Fear",book,46,34,15,3,1,4.22,,,,1,0,Claudia Black,,,,,,179,8,31,"non-fiction,psychology,self-help,unfinished"
11162001,0594153050,Rules for School,9780594153054,,,,ES,,,,false,4,8537765,64,85,25,7,2010/6/8,,,6,5,9,3,2,3.40,,,,0,0,"Alec Greven,Kei Acedera",,,,,,24,3,1,"humor,picture-books,school"
11162501,1907263217,Footprint Zimbabwe Handbook,9781907263217,,,,ES,2011/2/22,Footprint Handbooks,,false,1,11162501,4,10,2,0,2011/2/22,,book,2,0,0,0,0,5.00,282,Hardcover,,2,0,Lizzie Williams,,,,,,1,0,,
11163001,078945887X,Religion,9780789458872,,,,ES,1960/1/1,,,false,16,2080842,150,162,45,12,1960/1/1,Religion: Eyewitness Books,book,9,13,20,2,1,3.60,,Paperback,,0,0,Myrtle Langley,,,,,,45,7,7,"childrens,comics,historical,middle-grade,non-fiction,picture-books,reference,religion,school,teen"
11164501,904819900X,Advances in Nuclear Architecture,9789048199006,,,,ES,2010/10/17,Springer,,false,3,9128744,0,0,0,0,2010/10/17,,,0,0,0,0,0,0.00,220,Paperback,,0,0,Paul S. Freemont,,,Niall M. Adams,,,,0,,
11165001,SEC9736420,Oeuvres poetique,,,,,ES,2005/1/1,Saeculum I.O.,fre,false,1,11165001,16,42,11,2,1890/1/1,,book,4,4,1,1,1,3.82,784,Hardcover, Editii critice. Instrumente fundamentale de lucru,11,2,Iulia Haşdeu,,,,Augustin Cipeianu,,5,0,,poetry
11167001,,More Twisted,,B002V092BA,,,ES,,,,true,30,28557,4116,7934,2065,158,2006/1/1,"More Twisted: Collected Stories, Vol. II",book,569,777,570,122,27,3.84,,,,27,0,Jeffery Deaver,,,,,,1174,12,71,"anthologies,collections,contemporary,crime,fiction,horror,mystery,mystery-thriller,short-stories,suspense,thriller"
11167501,1449038263,The Crazy Days of Sam B.,9781449038267,,,,ES,2009/10/14,Authorhouse,,false,2,11167501,1,5,1,1,2009/10/1,,,1,0,0,0,0,5.00,88,Paperback,,1,1,Vivienne Pismarov,,,,,,,0,,
11168001,1904646360,Liquorish Durg: How Northern Naturalism Lost Its False Teeth,9781904646365,,,,ES,2008/10/2,Skrev Press,,false,2,11168001,1,5,1,0,2007/8/16,,,1,0,0,0,0,5.00,252,Hardcover,,1,0,Daithidh MacEochaidh,,,,,,,0,,
11168501,8576221578,O Progresso da revelação no Antigo Testamento,,,,,ES,2006/1/1,Editora Cultura Cristã,,false,4,11168501,16,29,7,0,2006/1/1,,book,3,3,0,1,0,4.14,112,Paperback,,6,0,Gerard Van Groningen,,,,,,8,0,,
11169001,0491033273,Tread Softly,9780491033275,,,,ES,1987/1/1,W.H. Allen,,false,25,1122006,3798,7940,2104,117,1987/1/1,Dark Mountain,book,607,672,615,162,48,3.77,285,Paperback,,3,1,Richard Laymon,,,,,,498,33,55,"fiction,horror,supernatural,thriller,witches"
11169501,1849966176,"Topics in Bone Biology, Volume 4: Bone and Osteoarthritis",9781849966177,,,,ES,2010/12/9,Springer,,false,4,22790755,0,0,0,0,2007/1/1,,book,0,0,0,0,0,0.00,232,Paperback,,0,0,Mary C. Farach-Carson,,,Felix Bronner,,,,0,,
11170501,158765377X,"Holocaust Literature, Volume 2",9781587653773,,,,ES,2008/3/1,Salem Press,,false,1,11170501,4,6,2,1,2008/3/28,,,1,0,0,0,1,3.00,480,Hardcover,,2,1,,,,John K. Roth,,,3,0,,
11171501,0385665873,"A Red Herring Without Mustard (Flavia de Luce, #3)",9780385665872,,,,ES,2011/10/18,Anchor Canada,eng,false,55,8517008,58357,138789,34123,3745,2011/2/8,A Red Herring Without Mustard,book,10537,16309,6471,649,157,4.07,416,Paperback,,66,16,Alan Bradley,,,,,,17407,360,605,"adult,adult-fiction,adventure,childrens,cozy-mystery,crime,detective,family,fiction,funny,historical,historical-fiction,humor,murder-mystery,mystery,mystery-thriller,novels,science,suspense,thriller,young-adult"
11172001,,Life & Crimes of Alice Cooper,81227357320,,,,ES,,,,false,2,11171998,10,9,2,0,1999/4/20,,,1,1,0,0,0,4.50,,,,0,0,Alice Cooper,,,,,,7,0,,
11173001,3837038343,Kritzeleien: Artbook / Sketchbook,9783837038347,,,,ES,2009/3/2,Books on Demand,,false,2,11173001,0,0,0,0,2009/3/2,,,0,0,0,0,0,0.00,64,Paperback,,0,0,Markus Heinen,,,,,,,0,,
11173501,8888254528,Chissadove,9788888254524,,,,ES,,,,false,1,11173501,4,0,0,0,2009/1/1,,,0,0,0,0,0,0.00,,,,0,0,Cristiana Valentini,,,,,,1,0,,
11174001,,Il secolo XVIII : combinatore dell'ordine col matrimonio,,,,,ES,1796/1/1,,ita,false,1,11174001,1,0,0,0,,,book,0,0,0,0,0,0.00,35,,,0,0,Unknown,,,,,,,0,,
11174501,096462897X,The Topeka Outpouring of 1901,9780964628977,,,,ES,2001/4/1,Christian Life Books,eng,false,2,1569872,12,18,6,0,,,book,1,1,1,3,0,3.00,257,Paperback,100th Anniversary Edition,2,0,,,,Larry Martin,,,4,0,,
11176001,0737749423,Sports and Athletes,9780737749427,,,,ES,2010/8/23,Greenhaven Press,,false,2,11176001,2,0,0,1,2010/8/23,,,0,0,0,0,0,0.00,136,Hardcover,,0,1,Noel Merino,,,,,,2,0,,
11176501,,"An Abstract of the several royal edicts and declarations, and provincial regulations and ordinances, that were in force in the province of Quebec in the time of the French government [microform]: and of the commissions of the several governours-general",2940028911422,,,,ES,,,,true,1,11176501,0,0,0,0,,,,0,0,0,0,0,0.00,,,,0,0,François Joseph Cugnet,,,,,,,0,,
11177001,0553255460,Running Without Fear,9780553255461,,,,ES,1986/3/1,Random House Publishing Group,,false,2,3540047,3,3,1,0,1985/1/1,Running Without Fear: How to Reduce the Risk of Heart Attack and Sudden Death During Aerobic Exercise,,0,0,1,0,0,3.00,192,Mass Market Paperback,,0,0,Kenneth H. Cooper,,,,,,,0,,
11177501,1598042874,Economic Report of the President: Transmitted to the Congress February 2006,9781598042870,,,,ES,2006/3/1,Executive Office of the President,,false,1,11177501,0,0,0,0,2006/3/28,,,0,0,0,0,0,0.00,410,Paperback,,0,0,,,,,,,,0,,
11178001,,"Sketch of the life of Abraham Lincoln and a catalogue of articles once owned and used by him, now owned by the Lincoln memorial collection of Chicago",2940029282491,,,,ES,,,,true,1,11178001,1,0,0,0,,,,0,0,0,0,0,0.00,,,,0,0,Christoph George Sigismund Sandberg,,,,,,1,0,,
11178501,,Wicked Wager Among Friends,2940012508751,,,,ES,,,,true,2,11178501,7,0,0,0,2011/4/18,,book,0,0,0,0,0,0.00,,,,0,0,Cassandre Dayne,,,,,,5,-1,,"bdsm,contemporary,menage"
11180001,1566562317,"Chile in Focus: A Guide to the People, Politics and Culture",9781566562317,,,,ES,,,,false,3,378909,6,6,2,0,1997/7/1,"Chile in Focus: A Guide to the People, Politics and Culture (In Focus Guides)",,0,0,2,0,0,3.00,,,,0,0,Nick Caistor,,,,,,2,0,,non-fiction
11180501,,End Titles...Stories for Film,800314903321,,,,ES,,,,false,1,11180501,0,0,0,0,2008/9/2,,,0,0,0,0,0,0.00,,,,0,0,UNKLE,,,,,,,0,,
11181001,,Panduan Pintar VIRUS & TROJAN,,,,,ES,2011/3/1,IDE Design,ind,false,1,11181001,10,30,6,1,2011/3/1,Panduan Pintar VIRUS & TROJAN,book,6,0,0,0,0,5.00,101,Paperback,1,6,1,Yudha Yudhanto,,,,,,4,0,,
11183001,,"Nemesis (Harry Hole, #4)",,,,,ES,2009/1/1,Vintage  (Random House),eng,false,165,3522419,77950,207643,52204,2457,2002/1/1,Sorgenfri,book,15491,23298,10871,1839,705,3.98,706,Paperback,,32,3,"Don Bartlett,Jo Nesbø",,,,,,16578,136,1277,"adult,adult-fiction,contemporary,crime,detective,fiction,murder-mystery,mystery,mystery-thriller,novels,suspense,thriller"
11183501,,Fare Thee Well,,B004K1ES2Q,,,ES,,,,true,3,8586453,107,133,39,9,2010/7/15,,book,3,14,18,4,0,3.41,,,,0,0,Cathy Clamp,,,,,,54,10,,"fantasy,fiction,ghosts,magic,mythology,paranormal,short-stories,speculative-fiction,supernatural,urban-fantasy,young-adult"
11184001,8838915334,In tempo rubato,9788838915338,,,,ES,1999/12/1,Sellerio,ita,false,1,11184001,3,0,0,0,1999/12/1,In tempo rubato,book,0,0,0,0,0,0.00,166,Paperback,"Il divano, #139",0,0,Paolo Terni,,,,,,,0,,music
11186501,8838905029,Vetrate,9788838905025,,,,ES,1988/1/1,Sellerio,ita,false,3,11186501,12,14,3,0,1980/1/1,Witraz,book,2,1,0,0,0,4.67,427,Paperback,Il castello 5,3,0,Andrzej Kuśniewicz,,,,"Alberto Zoina,Ludmila Ryba",,4,0,1,
11187001,1437906141,Report on Intelligence Activities Relating to Iraq Conducted by the Policy Counterterrorism Evaluation Group and the Office of Special Plans within the Department of Defense,9781437906141,,,,ES,,,,false,1,11187001,0,0,0,0,2009/5/1,,,0,0,0,0,0,0.00,,,,0,0,John D. Rockefeller,,,,,,,0,,
11187501,1453560483,Wise And Funny Sayings Of The Elders,9781453560488,,,,ES,,,,true,3,14563817,2,0,0,0,2010/9/1,,,0,0,0,0,0,0.00,,,,0,0,Paula Wyatt Blair,,,,,,2,0,,
11188001,0695404814,The secret summer of L. E. B,9780695404819,,,,ES,,,,false,5,375562,26,46,12,1,1974/1/1,The Secret Summer of L.E.B.,,3,6,2,0,1,3.83,,,,1,0,Barbara Brooks Wallace,,,,,,8,1,,"childrens,fiction,young-adult"
11189001,1456827316,Laberinto En DOS Tiempos,9781456827311,,,,ES,2010/11/29,Xlibris Corporation,,false,1,11189001,0,0,0,0,2010/11/29,,,0,0,0,0,0,0.00,76,Paperback,,0,0,Zoe Corretjer LLorens,,,,,,,0,,
11190001,1592853757,Olweus Bullying Prevention Program: Teacher Guide,9781592853755,,,,ES,2007/6/1,Hazelden Publishing & Educational Services,,false,2,6143558,18,15,4,0,2007/1/1,Olweus Bullying Prevention Program Teacher DVD and CD-Rom,,2,1,0,0,1,3.75,129,Paperback,,2,0,Dan Olweus,,,,,,11,0,,psychology
11191501,,Proširenje područja borbe ,,,,,ES,1999/1/1,Plato,srp,false,92,58372,15480,33740,9442,653,1994/1/1,Extension du domaine de la lutte,book,1707,3534,2951,966,284,3.57,170,Paperback,,2,0,Michel Houellebecq,,,,Svetlana Stojanović,,3905,119,198,"classics,contemporary,drama,fiction,france,literature,modern,novels,philosophy,psychology,society"
11192001,0246119675,"Building and Civil Engineering Construction, Vol. 2",9780246119674,,,,ES,,,,false,1,11192001,1,0,0,0,1983/10/28,,,0,0,0,0,0,0.00,,,,0,0,Brian Boughton,,,,,,1,0,,
11192501,,The story of the United States,2940024874882,,,,ES,,,,true,1,11192501,0,0,0,0,,,,0,0,0,0,0,0.00,,,,0,0,Marie Louise Herdman,,,,,,,0,,
11193001,0749407727,"Transport Manager's and Operator's Handbook, 1993",9780749407728,,,,ES,,,,false,26,17071770,7,9,2,0,1978/11/30,,,1,1,0,0,0,4.50,,,,0,0,David   Lowe,,,,,,4,0,,
11193501,1593454651,Weissenberger's Federal Civil Procedure 2007 Litigation Manual,9781593454654,,,,ES,,,,false,1,11193501,0,0,0,0,2005/6/28,,,0,0,0,0,0,0.00,,,,0,0,"A.J. Stephani,Glen Weissenberger",,,,,,,0,,
11194001,,PopArt,94637594520,,,,ES,,,,false,1,11194001,3,0,0,0,2006/10/3,,,0,0,0,0,0,0.00,,,,0,0,Pet Shop Boys,,,,,,2,0,,
11195001,1615601279,Parenting Magazine's Baby Must-Haves: The Essential Guide to Everything from Cribs to Bibs,9781615601271,,,,ES,,,,false,3,491285,35,67,21,4,2007/8/7,Baby Must-Haves: The Essential Guide to Everything from Bibs to Cribs,,3,5,6,7,0,3.19,,,,0,0,Parenting Magazine,,,,,,7,1,1,parenting
11196501,0415612144,Travels in Asia and Africa: 1325-1354,9780415612142,,,,ES,2011/5/14,Routledge,,false,96,517598,7939,5723,1472,144,1355/1/1,تحفة النظار في غرائب الأمصار وعجائب الأسفار,book,493,495,350,94,40,3.89,408,Paperback,,0,0,Ibn Battuta,,,,,,5585,18,253,"adventure,biography,classics,cultural,historical,history,literature,medieval,memoir,non-fiction,philosophy,religion,school,travel,unfinished"
11197001,,100 Chansons d'Or,724357126922,,,,ES,,,,false,1,11197001,0,0,0,0,2004/7/6,,,0,0,0,0,0,0.00,,,,0,0,Gilbert B,,,,,,,0,,
11197501,,Rock 'N' Roll Years,790051611224,,,,ES,,,,false,1,11197501,2,0,0,0,1997/6/24,,,0,0,0,0,0,0.00,,,,0,0,Conway Twitty,,,,,,2,0,,
11198001,1452086826,Identities for Life and Death: Forever Daily Message Calendar,9781452086828,,,,ES,2011/2/15,Authorhouse,,false,2,11198001,0,0,0,0,2011/2/15,,,0,0,0,0,0,0.00,400,Paperback,,0,0,Robert J. Pellegrini,,,,,,,0,,
11198501,,Greatest Hits,724383833122,,,,ES,,,,false,1,11198501,0,0,0,0,1998/6/30,,,0,0,0,0,0,0.00,,,,0,0,Hazell Dean,,,,,,,0,,
11199001,,"An examination of the principles and boasted disinterestedness of a late right honourable gentleman. In a letter from an old man of business, to a noble lord",2940018230342,,,,ES,,,,true,7,37725348,0,0,0,0,2012/2/22,,,0,0,0,0,0,0.00,,,,0,0,Charles Lloyd,,,,,,,0,,
11199501,1606049593,Annabel: The Slow Little Snail No One Ever Noticed,9781606049594,,,,ES,2008/10/28,Tate Publishing & Enterprises,,false,1,11199501,0,0,0,0,2008/10/28,,,0,0,0,0,0,0.00,24,Paperback,,0,0,Brooks Hagee,,,,,,,0,,
11200501,0749313668,My World and Welcome to It,9780749313661,,,,ES,1992/6/16,Mandarin,,false,12,161057,1005,2224,536,38,1942/1/1,My World And Welcome To It,book,213,217,80,25,1,4.15,266,Paperback,,4,0,James Thurber,,,,,,346,11,8,"american,americana,classics,essays,fiction,humor,literature,memoir,non-fiction,short-stories"
11201501,,"The Devil in Winter (Wallflowers, #3)",,B004FN1QNI,,,ES,,,eng,true,65,114166,75540,210543,49536,3117,2006/2/28,Devil in Winter ,book,23438,17209,7164,1300,425,4.25,,,,181,10,Lisa Kleypas,,,,,,15852,456,1315,"abuse,adult,adult-fiction,chick-lit,fiction,funny,historical,historical-fiction,humor,love,marriage,regency,romance,victorian"
11202501,9789962669,De Antilliaanse Huisdame,,,,,ES,2009/1/1,Universal Books,nl,false,1,11202501,5,6,2,2,2009/1/1,,book,0,0,2,0,0,3.00,251,Paperback,,2,2,Kel Hoben,,,,,,3,2,,
11203001,,Kommisar: The CBS Recordings,740155175726,,,,ES,,,,false,1,11203001,1,4,1,0,2005/3/29,,,0,1,0,0,0,4.00,,,,1,0,After the Fire,,,,,,1,0,,
11203501,2020653796,Quatre mille marches - Un rêve chinois,9782020653794,,,,ES,2004/3/9,Seuil,fre,false,1,11203501,7,14,4,0,,,book,0,2,2,0,0,3.50,108,Paperback,,4,0,Ying Chen,,,,,,3,0,,
11205001,0403006333,American Ideals Versus the New Deal,9780403006335,,,,ES,1972/1/1,Scholarly Press,,false,3,15288364,3,0,0,0,1972/1/1,,,0,0,0,0,0,0.00,96,Unknown Binding,,0,0,Herbert Hoover,,,,,,2,0,,
11206501,,Lettre du Reverend P,2940027983215,,,,ES,,,,true,1,11206501,0,0,0,0,,,,0,0,0,0,0,0.00,,,,0,0,Charles Lallemant,,,,,,,0,,
11208501,1118030052,"Crochet Stitches Visual Encyclopedia: 300 Stitch Patterns, Edgings, and More",9781118030059,,,,ES,2011/10/3,Visual,,false,7,11208501,485,746,173,13,2011/9/7,,book,92,52,22,5,2,4.31,272,Hardcover,,125,13,Robyn Chachula,,,,,,198,8,43,"non-fiction,reference"
11209501,,"Ruhr 2010, Kulturhauptstadt Europas",9783938323823,,,,ES,2008/11/24,Lingen,,false,1,11209501,1,5,1,0,,,,1,0,0,0,0,5.00,,Hardcover,,1,0,Marie-Luise Marjan,,,,,,,0,,
11210001,0471368385,Microbiology (Study Guide),9780471368380,,,,ES,,,,false,4,273124,36,26,9,1,1999/1/28,"Student Study Guide to accompany Microbiology: Principles and Explorations, 6th Edition",,2,2,1,1,3,2.89,,,,0,0,"George A. Wistreich,Jacquelyn G. Black",,,,,,26,0,1,
11210501,0175554609,Loud and clear,9780175554607,,,,ES,1983/9/1,Nelson,,false,2,11210501,3,0,0,0,1983/9/1,,,0,0,0,0,0,0.00,47,Paperback,,0,0,Rosemary Aitken,,,,,,1,0,,
11211001,,De la richesse mine,2940030342801,,,,ES,,,,true,7,11211000,0,0,0,0,,,,0,0,0,0,0,0.00,,,,0,0,Antoine-Marie He,,,,,,,0,,
11211501,155858661X,Peter Piglet,9781558586611,,,,ES,1996/9/1,NorthSouth,,false,2,2974394,11,19,6,3,1996/9/1,Peter Piglet,,1,1,3,0,1,3.17,32,Paperback,,0,0,John Alfred Rowe,,,,,,3,2,,picture-books
11212501,,From Missouri: An American Farmer Looks Back,,,,,ES,1954/1/1,Boston: Houghton Mifflin,eng,false,3,11212501,12,27,7,4,1954/1/1,,book,3,1,2,1,0,3.86,341,Hardcover,,5,3,Thad Snow,,,,,,3,1,2,"american-history,autobiography,economics,memoir,politics"
11213001,,The Red Fairy Book,2940012714732,,,,ES,,,,true,246,774544,7103,12231,2941,111,1890/1/1,The Red Fairy Book,book,1301,967,548,89,36,4.16,,,,0,0,Andrew Lang,,,,,,3130,26,349,"amazon,anthologies,childrens,classics,collections,fairy-tales,fantasy,fiction,juvenile,literature,magic,middle-grade,mythology,non-fiction,romance,science-fiction-fantasy,short-stories,victorian,young-adult"
11213501,,Pułapki medycyny niekonwencjonalnej. Homeopatia i bioenergoterapia,9788360008201,,,,ES,2009/1/1,Regina Poloniae,pol,false,1,11213501,3,10,2,0,2009/1/1,,book,2,0,0,0,0,5.00,148,,,2,0,ks. Andrzej Sereda,,,,,,,0,,
11214001,9048150876,Advanced Light Alloys and Composites,9789048150878,,,,ES,2010/12/5,Springer,,false,2,3805512,0,0,0,0,1998/9/30,Advanced Light Alloys and Composites (NATO Science Partnership Sub-Series: 3:),,0,0,0,0,0,0.00,518,Paperback,,0,0,,,,R. Ciach,,,,0,,
11214501,8817855030,L'orgia perpetua. Flaubert e Madame Bovary,9788817855037,,,,ES,1986/10/1,Rizzoli,ita,false,31,53976,1251,1834,458,53,1975/1/1,La orgía perpetua: Flaubert y Madame Bovary,book,153,181,100,21,3,4.00,248,Hardcover,La Scala,1,0,Mario Vargas Llosa,,,,Angelo Morino,,636,6,32,"criticism,essays,fiction,france,literature,non-fiction"
11215501,8501069027,"O Dilúvio Vol. 1 (Trilogia, #2)",9788501069023,,,,ES,2005/1/1,Record,por,false,76,13437577,981,2710,705,6,2015/3/2,,book,255,229,120,58,43,3.84,488,Paperback,,5,1,Henryk Sienkiewicz,,,,Tomasz Barcinski,,130,11,19,"adventure,classics,fiction,historical-fiction,history,literary-fiction,literature,school,unfinished"
11216001,,Greatest Hits,54895211829,,,,ES,,,,false,1,11216001,0,0,0,0,1995/3/13,,,0,0,0,0,0,0.00,,,,0,0,Half Japanese,,,,,,,0,,
11217001,0788407015,"Biographies of Alaska-Yukon Pioneers 1850-1950, Volume 3",9780788407017,,,,ES,,,,false,1,11217001,1,0,0,0,2009/5/1,,,0,0,0,0,0,0.00,,,,0,0,Ed Ferrell,,,,,,1,0,,
11218501,1411493028,The French Revolution (1789-1799) (SparkNotes History Note),9781411493025,,,,ES,,,,false,3,492423,9,7,2,0,,,book,0,1,1,0,0,3.50,,,,1,0,SparkNotes,,,,,,5,0,,
11219001,0137941994,"Communicator Test Package, Level 2",9780137941995,,,,ES,1999/11/1,Prentice Hall,,false,1,11219001,0,0,0,0,1999/11/28,,,0,0,0,0,0,0.00,,Paperback,,0,0,"Bill Bliss,Dorothy Lynde,Steven J. Molinsky",,,,,,,0,,
11219501,0205787487,The World of Children [with MyDevelopmentLab],9780205787487,,,,ES,2009/7/28,Prentice Hall,eng,false,17,9283206,39,79,24,0,2007/2/5,,book,3,7,10,2,2,3.29,,Unbound,,0,0,"Greg Cook,Joan Littlefield Cook",,,,,,2,1,1,textbooks
11220001,,"Het Kaïnsteken (Kay Scarpetta, #6)",9789021010960,,,,ES,2011/1/1,Luitingh,eng,false,114,6537,69443,194520,48161,765,1995/8/2,From Potter's Field,book,16374,19196,10916,1443,232,4.04,346,Paperback,,24,1,Patricia Cornwell,,,,,,6879,32,282,"adult,adult-fiction,contemporary,crime,detective,fiction,medical,murder-mystery,mystery,mystery-thriller,novels,suspense,thriller"
11221501,813200194X,A Cigarette-Maker's Romance,9788132001942,,,,ES,2008/2/20,Tutis Digital Pub,,false,39,7841090,34,59,15,1,1890/1/1,Cigarette Maker's Romance (Notable American Authors Series - Part I),book,5,4,6,0,0,3.93,340,Paperback,Large Print,0,0,F. Marion Crawford,,,,,,13,0,2,classics
11222001,0307783723,Essential Energy Balancing III: Living with the Goddess,9780307783721,,,,ES,2011/2/16,Crossing Press,,true,4,452005,46,76,17,0,2006/6/1,Essential Energy Balancing III: Living With the Goddess,book,10,5,2,0,0,4.47,168,ebook,,0,0,Diane Stein,,,,,,26,0,,
11222501,1163151513,A Short Review of Dr. Jung's Article Redemption Ideas in Alchemy,9781163151518,,,,ES,,,en-US,false,1,11222501,5,4,1,0,2007/3/1,A Short Review of Dr. Jung's Article Redemption Ideas in Alchemy,book,0,1,0,0,0,4.00,,,,1,0,Mary Esther Harding,,,,,,3,0,,
11224001,0062091794,"The Whites of Their Eyes: Bunker Hill, the First American Army, and the Emergence of George Washington",9780062091796,,,,ES,2011/6/7,HarperCollins e-books,,true,4,10323682,591,610,150,33,2011/6/1,,book,52,68,22,4,4,4.07,432,ebook,,1,0,Paul Lockhart,,,,,,388,8,20,"american-history,biography,historical,history,non-fiction,war"
11224501,0230263550,Christianity and Power Politics Today: Christian Realism and Contemporary Political Dilemmas,9780230263550,,,,ES,,,,true,6,11224501,3,8,2,0,2008/2/15,,,1,0,1,0,0,4.00,,,,1,0,Eric D. Patterson,,,,,,1,1,,christian
11225501,,The Love & Respect Experience: A Husband-Friendly Devotional That Wives Truly Love,9780849948176,,,,ES,2011/10/11,Thomas Nelson Publishers,,false,10,11225501,246,311,73,13,2004/1/1,,,41,17,10,3,2,4.26,295,Paperback,,58,9,Emerson Eggerichs,,,,,,107,7,39,"christian,christianity,faith,family,marriage,non-fiction,relationships,religion,self-help,unfinished"
11226001,1423614313,Ordinary Mary's Extraordinary Deed,9781423614319,,,,ES,2002/4/29,Gibbs Smith,eng,true,4,226034,1421,2145,506,111,2002/4/1,Ordinary Mary's Extraordinary Deed,book,248,161,73,18,6,4.24,32,,,1,0,"Emily Pearson,Fumi Kosaka",,,,,,717,27,15,"childrens,family,fiction,inspirational,picture-books,realistic-fiction"
11226501,,Death of the Modern Superhero,,B004XDC40Y,,,ES,,,,true,4,11226501,157,115,30,8,2011/4/12,,,9,11,7,2,1,3.83,,,,16,2,Chris Lautsbaugh,,,,,,99,10,4,"amazon,christian,non-fiction,religion,spirituality"
11227001,0470621605,Evidence-Based Psychotherapy Treatment Planning for Social Anxiety DVD and Workbook Set,9780470621608,,,,ES,2010/6/1,John Wiley & Sons,,false,2,11227001,2,0,0,0,2010/6/1,,,0,0,0,0,0,0.00,,Hardcover,,0,0,Arthur E. Jongsma Jr.,,,,,,1,1,,
11228501,0739041924,Rhythms & Rests: Auxiliary Percussion,9780739041925,,,,ES,1996/1/1,Alfred Music,,false,22,4416685,1,0,0,0,1995/12/1,,,0,0,0,0,0,0.00,24,Paperback,,0,0,Frank Erickson,,,,,,1,0,,
11229001,,"A sermon, on occasion of the death of Mrs. George W. Heard, preached in the First Church at Ipswich, August 20, 1865",2940022947823,,,,ES,,,,true,1,11229001,0,0,0,0,,,,0,0,0,0,0,0.00,,,,0,0,Robert Southgate,,,,,,,0,,
11230001,0340740728,The Vocabulary of World English,9780340740729,,,,ES,2001/8/3,Routledge,,false,2,4281154,5,3,1,0,2001/8/31,The Vocabulary of World English (The English Language Series),,0,0,1,0,0,3.00,344,Paperback,,0,0,"Michael Paetzold,Stephan Gramley",,,,,,3,1,,"language,non-fiction,teaching"
11231501,,Eternal punishment / by William I. Shaw. The coming One / by William R. Parker [microform]: being the seventh annual lecture and sermon before the Theological Union of Victoria College in 1884,2940028820878,,,,ES,,,,true,1,11231501,1,0,0,0,,,,0,0,0,0,0,0.00,,,,0,0,William I. Shaw,,,,,,1,0,,
11234001,,Troilus and Cressida,2940012663412,,,,ES,,,,true,437,187518,14329,22686,6732,409,1602/1/1,The Tragedie of Troylus and Cressida,book,1050,1844,2592,1038,208,3.37,,,,0,0,William Shakespeare,,,,,,5384,73,153,"british-literature,classic-literature,classics,college,drama,english-literature,fiction,grad-school,historical,historical-fiction,history,literary-fiction,literature,mythology,plays,poetry,romance,school,theatre,tragedy,war"
11235501,,"Symposium Opera Collection, Vol. 18: Titta Ruffo",760411364022,,,,ES,,,,false,1,11235501,0,0,0,0,2007/7/17,,,0,0,0,0,0,0.00,,,,0,0,Titta Ruffo,,,,,,,0,,
11236501,,The master of the isles ; An afterword ; A robin song ; The tragedy of willow ; The faithless lover ; The faithful love [microform],2940027708528,,,,ES,,,,true,1,11236501,0,0,0,0,,,,0,0,0,0,0,0.00,,,,0,0,Bliss Carman,,,,,,,0,,
11237001,,"Pack Rogue (Were Chronicles, #4)",,B004WKVTSG,,,ES,,,,true,4,9836181,1392,3113,828,33,2011/1/17,,book,219,284,247,63,15,3.76,,,,29,1,Crissy Smith,,,,,,419,6,9,"abuse,adult,contemporary,erotica,fantasy,novella,paranormal,romance,shapeshifters,urban-fantasy,werewolves"
11238001,,La mia Africa,,,,,ES,1966/1/1,Garzanti,ita,false,209,781787,77086,118652,29973,1683,1937/1/1,Out of Africa,book,10271,11040,6384,1707,571,3.96,333,Paperback,Romanzi e Realtà 57,4,0,"Isak Dinesen,Karen Blixen",,,,Lucia Drudi Demby,,40829,473,970,"adult,adventure,autobiography,biography,biography-memoir,classics,cultural,fiction,historical,historical-fiction,history,literature,memoir,modern-classics,movies,non-fiction,novels,romance,travel"
11238501,9876784633,De la brevedad de la vida,9789876784634,,,,ES,,,,true,141,97412,36845,51586,12175,1036,-49/1/1,De brevitate vitae,book,5596,4369,1790,340,80,4.24,,,,1,0,Seneca,,,,,,19577,101,1939,"classics,death,essays,history,literature,non-fiction,personal-development,philosophy,psychology,self-help,spirituality"
11239001,0752409913,Edisto Island: A Family Affair (Images of America: South Carolina),9780752409917,,,,ES,1998/6/1,Arcadia Publishing (SC),,false,3,499198,13,21,5,1,1998/6/1,Edisto Island: A Family Affair (Images of America: South Carolina),book,2,2,1,0,0,4.20,128,Paperback,,1,0,"Amy S. Connor,Edisto Island Historic Preservation Society,Sheila L. Beardsley",,,,,,7,0,,
11239501,0745615481,"Conversation Analysis: Principles, Practices and Applications",9780745615486,,,,ES,1998/6/15,Polity Press,,false,1,11239501,1,0,0,0,1998/4/28,,,0,0,0,0,0,0.00,288,Hardcover,,0,0,"Ian Hutchby,Robin Wooffitt",,,,,,1,0,,
11240001,3540082913,Transition Metals in Biochemistry,9783540082910,,,,ES,1977/10/1,Springer,,false,4,15915251,0,0,0,0,1977/10/1,,,0,0,0,0,0,0.00,186,Hardcover,,0,0,A.S. Brill,,,,,,,0,,
11240501,903889080X,Zestig strepen: de soundtrack van mijn leven,9789038890807,,,,ES,2008/9/1,Nijgh & Van Ditmar,nl,false,2,11240501,11,19,8,1,,Zestig strepen,book,0,0,4,3,1,2.38,,Paperback,,6,0,Frits Spits,,,,,,,0,-1,"autobiography,biography,music,non-fiction"
11241001,1450283101,Shela's Turbulent Journey: C'Est La Vie,9781450283106,,,,ES,2011/4/12,iUniverse,,true,1,11241001,0,0,0,0,2011/4/13,,,0,0,0,0,0,0.00,,ebook,,0,0,Barbara Rodriguez,,,,,,,0,,
11242001,,Stigma For Valor,,,,,ES,1958/9/1,Crest Book s236,eng,false,1,11242001,3,0,0,0,1958/9/1,,book,0,0,0,0,0,0.00,191,Paperback,,0,0,Williams Forrest,,,,,,3,0,,war
11242501,0813544564,An Uncertain Cure: Living with Leprosy in Brazil,9780813544564,,,,ES,2008/11/7,Rutgers University Press,,false,1,11242501,0,0,0,0,2008/11/7,,,0,0,0,0,0,0.00,224,Hardcover,,0,0,Cassandra White,,,,,,,0,,
11243001,1563260239,Sleep-Over Fun (Disney Babies Out & Around),9781563260230,,,,ES,,,,false,1,11243001,1,0,0,0,1991/1/1,,book,0,0,0,0,0,0.00,,,,0,0,"Alvin S. White studio,Walt Disney Company",,,,,,1,0,,
11243501,0546883222,"Lumen: Webster's Timeline History, 44 Bc   1998",9780546883220,,,,ES,,,,false,1,11243501,0,0,0,0,,,,0,0,0,0,0,0.00,,,,0,0,Icon Group International,,,,,,,0,,
11244001,1433809303,"How Intimate Partner Violence Affects Children: Developmental Research, Case Studies, and Evidence-Based Intervention",9781433809309,,,,ES,2011/2/1,American Psychological Association (APA),,false,2,14979218,3,0,0,0,2011/2/15,,,0,0,0,0,0,0.00,,Hardcover,,0,0,Sandra A. Graham-Bermann,,,,,,3,0,,"non-fiction,psychology"
11244501,0549659846,The equilibrium geometry theory for bone fracture healing.,9780549659846,,,,ES,,,,false,1,11244501,0,0,0,0,,,,0,0,0,0,0,0.00,,,,0,0,Alvin Garwai Yew,,,,,,,0,,
11246501,,La aventura de viajar,,,,,ES,,,spa,false,4,11246501,171,350,95,12,2006/1/1,,book,22,34,26,13,0,3.68,,,,80,10,Javier Reverte,,,,,,30,0,2,"biography,travel"
11247501,,The Secret Adversary,,B004DUMXF8,,,ES,2010/11/24,"Amazon Digital Services, Inc.",eng,true,388,49596,58320,126425,32959,2445,1922/1/1,The Secret Adversary,book,8866,12543,9246,1881,423,3.84,373,,non illustrated,0,0,Agatha Christie,,,,,,15132,183,2644,"adult,adult-fiction,adventure,british-literature,classics,cozy-mystery,crime,detective,fiction,historical,historical-fiction,murder-mystery,mystery,mystery-thriller,novels,romance,suspense,thriller"
11248001,1157636713,"History of Belize: Mesoamerica, British Honduras, 2005 Belize Unrest, Belizean Kriol People, Guatemalan Claim to Belizean Territory",9781157636717,,,,ES,2011/9/4,"Books LLC, Wiki Series",,false,1,11248001,0,0,0,0,2010/6/5,,,0,0,0,0,0,0.00,,Paperback,,0,0,Source Wikipedia,,,,,,,0,,
11249501,9879471199,Memorias del Decano Rojo,9789879471197,,,,ES,,,,false,1,11249501,1,3,1,0,,,,0,0,1,0,0,3.00,,,,1,0,Daniel Galoto,,,,,,,0,,
11250501,0571216730,Space Quest,9780571216734,,,,ES,,,,false,1,11250501,1,0,0,0,,,,0,0,0,0,0,0.00,,,,0,0,Herbie Brennan,,,,,,,0,,
11251501,1157831311,"Field Hockey in Germany: German Field Hockey Coaches, Germany National Field Hockey Team, Germany Women's National Field Hockey Team",9781157831310,,,,ES,,,,false,1,11251501,1,0,0,0,2010/6/9,,,0,0,0,0,0,0.00,,,,0,0,Books LLC,,,,,,1,0,,
11252001,0821763938,Three for the Road,9780821763933,,,,ES,1999/1/1,,,false,1,11252001,3,0,0,0,1999/1/1,,,0,0,0,0,0,0.00,,,,0,0,Barbara Daly,,,,,,3,1,,
11253001,,Hello Kitty Must Die,2940012264763,,,,ES,,,,true,16,7187820,3614,6757,2021,343,2010/4/1,,book,361,556,648,328,128,3.34,,,,0,0,Angela S. Choi,,,,,,1245,31,26,"adult,adult-fiction,chick-lit,comedy,contemporary,crime,dark,feminism,fiction,funny,horror,humor,literary-fiction,literature,mystery,mystery-thriller,novels,realistic-fiction,relationships,romance,thriller,young-adult"
11253501,888419363X,Il signore della luce,9788884193636,,,,ES,2008/1/1,Aragno,,false,1,11253501,1,0,0,0,2008/1/1,,,0,0,0,0,0,0.00,,,,0,0,Vittoria Haziel,,,,,,1,0,,
11254501,,"Philosophy of mysterious agents, human and mundane: or, The dynamic laws and relations of man. Embracing the natural philosophy of phenomena styled spiritual manifestations",,,,,ES,1853/1/1,,eng,false,3,11254501,0,0,0,0,,,book,0,0,0,0,0,0.00,414,Hardcover,,0,0,E.C. Rogers,,,,,,,0,,
11255001,0965019742,Slammerkin,,,,,ES,,"Harcourt, Inc.",eng,false,34,44543,24896,50673,13686,1369,2000/1/1,Slammerkin,book,3075,5316,3795,1149,351,3.70,336,Paperback,,14,4,Emma Donoghue,,,,,,8818,60,255,"adult,adult-fiction,contemporary,drama,fiction,historical,historical-fiction,history,lgbt,literary-fiction,literature,novels,queer,romance,tragedy,unfinished"
11255501,1451655533,"Martin Cruz Smith Ebook Boxed Set: Stalin's Ghost, Wolves Eat Dogs, Three Stations",9781451655537,,,,ES,2011/5/3,Simon  Schuster,,true,2,11255501,30,56,13,0,2011/4/27,,,7,5,0,0,1,4.31,960,ebook,,11,0,Martin Cruz Smith,,,,,,15,0,,mystery
11257501,8426377203,Cuentos Silenciosos,9788426377203,,,,ES,,,spa,false,5,8691500,426,894,193,19,2010/1/1,,book,139,40,11,3,0,4.63,16,Hardcover,,45,8,Antonio Rodríguez Almodóvar,Benjamin Lacombe,,,,,194,1,1,"art,comics,fairy-tales,fantasy,fiction,magic,paranormal,picture-books,reference,short-stories,young-adult"
11258501,,The Janitor,2940000901250,,,,ES,,,,true,3,8814863,0,0,0,0,2010/4/21,,,0,0,0,0,0,0.00,,,,0,0,Neil Saldana,,,,,,,0,,
11259001,3642083765,Water in the Middle East: Potential for Conflicts and Prospects for Cooperation,9783642083761,,,,ES,2011/12/12,Springer,,false,2,11259001,0,0,0,0,1998/5/5,,,0,0,0,0,0,0.00,191,Paperback,,0,0,Manuel Schiffler,,,Waltina Scheumann,,,,0,,
11261001,0742528049,"Europe Today: National Politics, European Integration, and European Security",9780742528048,,,,ES,2004/3/1,Rowman & Littlefield Publishers,,false,4,1563055,9,11,4,0,1999/1/1,"Europe Today: National Politics,  European Integration,  and European Security (Europe Today (Rowman and Littlefield, Inc.).)",,0,1,1,2,0,2.75,515,Hardcover,,0,0,Ronald Tiersky,,,,,,2,0,,
11261501,,Šekspirov zivot i svet,,B004HBUGIO,,,ES,,,,false,3,23768684,14,34,8,0,1978/1/1,,book,2,6,0,0,0,4.25,,,,2,0,Veselin Kostić,,,,,,2,0,,
11264001,0300171501,Pivotal Decade: How the United States Traded Factories for Finance in the Seventies,9780300171501,,,,ES,2011/9/13,Yale University Press,,false,5,7907138,331,357,94,20,2010/3/13,,,27,33,25,6,3,3.80,384,Paperback,,12,0,Judith Stein,,,,,,156,5,15,"american-history,business,economics,historical,history,non-fiction,politics"
11264501,,"Geometry, plane, solid, and spherical, in six books: To which is added, inan appendix, the theory of projection",2940018464648,,,,ES,,,,true,1,11264501,0,0,0,0,,,,0,0,0,0,0,0.00,,,,0,0,Pierce Morton,,,,,,,0,,
11266001,0876326963,First Amendment Law Handbook,9780876326961,,,,ES,1990/12/1,West Group Publishing,,false,5,559514,10,7,3,0,1990/10/28,"First Amendment Law Handbook, 1991",,0,1,0,1,1,2.33,,Hardcover,,0,0,"Christian L. Castle,James L. Swanson",,,,,,6,0,1,
11268501,1934031437,Dahlov Ipcar's Farmyard Alphabet,9781934031438,,,,ES,2010/11/1,Islandport Press,,false,1,11268501,29,60,16,0,2010/11/1,,,3,8,3,2,0,3.75,18,Hardcover,,16,0,Dahlov Ipcar,,,,,,2,2,,
11269501,1841139971,Capacitas: Contract Law and the Institutional Preconditions of a Market Economy,9781841139975,,,,ES,2009/8/1,Hart Publishing,,false,2,11269501,1,0,0,0,2009/8/1,,,0,0,0,0,0,0.00,171,Hardcover,,0,0,Alain Supiot,,,Simon F. Deakin,,,,0,,
11270001,0916685683,Directory of Poetry Publishers,9780916685683,,,,ES,1998/9/1,DustBooks,,false,10,9907954,0,0,0,0,1987/3/1,,book,0,0,0,0,0,0.00,400,Paperback,,0,0,Len Fulton,,,,,,,0,,
11272001,0203976460,"Ingres Then, and Now",9780203976463,,,,ES,,,,true,9,2299879,7,18,5,0,1999/12/23,"Ingres Then, and Now (Re Visions: Critical Studies in the History and Theory of Art)",,1,2,1,1,0,3.60,,,,0,0,Adrian Rifkin,,,,,,,0,,art
11274001,,Liberty; a statement of the British case,2940019256747,,,,ES,,,,true,15,11274002,1,3,1,0,1975/1/1,Liberty! A Statement of the British case (Collected Works of Arnold Bennett),book,0,0,1,0,0,3.00,,,,0,0,Arnold Bennett,,,,,,,1,,
11274501,0191578746,"Guilty Robots, Happy Dogs: The Question of Alien Minds",9780191578748,,,,ES,,,,true,8,6908317,94,89,32,5,2008/1/1,,,2,8,7,11,4,2.78,,,,0,0,David McFarland,,,,,,38,0,7,"non-fiction,psychology,science"
11275001,0889086591,Marketing Your Product: A Planning Guide for Small Business,9780889086593,,,,ES,1987/10/1,Self-Counsel Press,,false,2,7538931,0,0,0,0,1987/10/28,,book,0,0,0,0,0,0.00,98,Paperback,,0,0,"Donald G. Cyr,Douglas A. Gray",,,,,,,0,,
11275501,1452632561,Thus Spoke Zarathustra: A Book for All and None,9781452632568,,,,ES,2011/5/25,Tantor Media,,false,1345,51893,230052,370541,91315,2761,1883/1/1,Also sprach Zarathustra: Ein Buch für Alle und Keinen,book,37826,30068,16456,4806,2159,4.06,0,Audio CD,Abridged,0,0,Friedrich Nietzsche,,,,,John      Lee,110525,281,13299,"academic,classic-literature,classics,fiction,history,literature,non-fiction,novels,philosophy,poetry,politics,psychology,religion,spirituality,unfinished"
11276001,0140192115,Character and Fate: The Psychology of the Birthchart,9780140192117,,,,ES,1990/4/3,Penguin Books,,false,1,11276001,9,16,4,0,1990/4/3,,,1,2,1,0,0,4.00,208,Paperback,,4,0,Katharine Merlin,,,,,,6,0,,
11276501,1456701851,The Massacre at Noe Creek: A Collection of Stories and Tales,9781456701857,,,,ES,2011/1/11,Authorhouse,,true,2,11276501,2,4,1,0,2010/12/15,,,0,1,0,0,0,4.00,,ebook,,1,0,F.A.  Shepherd,,,,,,1,0,,
11278501,,Coleridge's essays & lectures on Shakespeare: & some other old poets & dramatists,2940017150825,,,,ES,,,,true,11,11278501,5,4,1,0,2014/4/20,,,0,1,0,0,0,4.00,,,,0,0,Samuel Taylor Coleridge,,,,,,2,0,1,
11279501,9870306209,La Economia Argentina: En La Segunda Mitad del Siglo XX,9789870306207,,,,ES,,,,false,2,15245334,5,0,0,0,2005/10/28,,,0,0,0,0,0,0.00,,,,0,0,Juan Carlos de Pablo,,,,,,5,0,,
11280501,006184361X,The Black Phone,9780061843617,,,,ES,2009/2/3,William Morrow,,true,11,7241271,1086,2098,537,32,2007/10/16,,book,151,214,149,17,6,3.91,100,ebook,,2,0,Joe Hill,,,,,,451,12,15,"action,crime,fiction,ghosts,horror,paranormal,science-fiction,short-stories,supernatural,survival,thriller"
11281001,,Declaration et protestation de Monseigneur le Prince de Condé,2940030257259,,,,ES,,,,true,1,11281001,0,0,0,0,1615/1/1,,book,0,0,0,0,0,0.00,,,,0,0,Henri de Condé,,,,,,,0,,
11281501,0877930945,Together in Peace: Priest's Edition,9780877930945,,,,ES,1975/4/1,Ave Maria Press,,false,1,11281501,1,0,0,0,1975/4/28,,,0,0,0,0,0,0.00,272,Paperback,,0,0,Joseph M. Champlin,,,,,,,0,,
11282501,0307700933,Killer Verse: Poems of Murder and Mayhem,9780307700933,,,,ES,2011/9/6,Everyman's Library,eng,false,2,11282501,461,469,121,21,2011/9/1,,book,33,47,35,5,1,3.88,255,Hardcover,,120,21,,,,"Harold Schechter,Kurt Brown",,,310,15,6,"anthologies,crime,fiction,horror,literature,mystery,poetry,true-crime"
11285001,,Conduite d'une dame chr,2940031020623,,,,ES,,,,true,1,11285001,1,0,0,0,,,,0,0,0,0,0,0.00,,,,0,0,Duguet,,,,,,1,0,,
11285501,,The Doctor's Royal Love-Child,9781459202436,,,,ES,2011/5/1,Harlequin Medical Romances,,true,9,10955373,109,128,38,4,2008/1/1,,book,6,14,8,8,2,3.37,192,ebook,,0,0,Kate Hardy,,,,,,54,4,2,"contemporary,harlequin,medical,romance"
11286001,1936513153,A Road Called Life,9781936513154,,,,ES,2011/4/1,PearlStone Publishing,,false,2,11286001,0,0,0,0,2011/4/18,,,0,0,0,0,0,0.00,164,Paperback,,0,0,Erica Collins,,,,,,,0,,
11286501,0983577404,"Sex, Drugs, & a Lobster Roll",,,,,ES,,,,false,2,11423737,14,21,5,0,2011/4/20,,book,3,1,0,1,0,4.20,,,,2,0,Brett Melillo,,,,,,8,0,,humor
11287001,1418560197,"Not a Creature Was Stirring (Spinechillers Mysteries, #6)",9781418560195,,,,ES,1997/9/1,Thomas Nelson Publishers,,false,4,2944851,23,26,9,1,1997/9/1,,book,1,1,4,2,1,2.89,144,,,0,0,Fred E. Katz,,,,,,6,2,,"christian-fiction,juvenile,mystery"
11289001,185733051X,Culture Shock! South Africa: A Guide To Customs And Etiquette (Culture Shock!),9781857330519,,,,ES,,,,false,5,2830823,32,35,10,2,1993/11/1,Culture Shock!: South Africa,,2,3,3,2,0,3.50,,,,1,1,Dee Rissik,,,,,,14,1,1,"non-fiction,research"
11289501,2020362031,Single & Single,9782020362030,,,,ES,1999/9/24,Seuil,fre,false,81,1574270,5885,11909,3374,252,1995/1/1,Single & Single,book,535,1196,1247,313,83,3.53,392,Paperback,,12,0,John le Carré,,,,"Isabelle Perrin,Mimi Perrin",,1493,25,111,"adventure,business,contemporary,crime,family,fiction,literature,mystery,mystery-thriller,novels,suspense,thriller,unfinished"
11290001,,A Questionable Hero,,B004Z2DWKE,,,ES,,,eng,true,4,7904508,53,42,11,4,2010/3/19,,book,3,3,5,0,0,3.82,,,,2,0,Kiki Howell,,,,,,33,4,1,"fantasy,paranormal,romance"
11291001,,Big Diehl,,B004HD5TJS,,,ES,,,,true,4,7201840,118,161,46,12,2009/1/1,,book,10,12,17,5,2,3.50,,,,2,1,George Seaton,,,,,,49,7,,"contemporary,erotica,family,novella,romance,short-stories,suspense,war"
11291501,,Franny and Zooey,,B002JARYI0,,,ES,,,,true,2,6995663,22,55,14,0,2009/1/1,,,8,2,1,1,2,3.93,,,,9,0,Shmoop,,,,,,4,0,,"novels,short-stories"
11293001,,"The seminary: its spirit and aims. Addresses given at the annual dinner of the alumni held on May 13, 1907 and a review of the year 1906-1907 ..",2940030734903,,,,ES,,,,true,3,27096184,0,0,0,0,2015/9/27,,,0,0,0,0,0,0.00,,,,0,0,Union Theological Seminary (New York),,,,,,,0,,
11293501,,The Adventures of Johnny Chuck,2940012142221,,,,ES,,,,true,9,753032,524,1031,251,13,1913/1/1,The Adventures of Johnny Chuck,book,102,83,59,5,2,4.11,,,,0,0,Thornton W. Burgess,,,,,,149,19,10,"animals,childrens,classics,fantasy,fiction,juvenile,literature,middle-grade,nature,school,science"
11294001,8492649186,Las tinieblas,9788492649181,,,,ES,,,spa,false,1,11294001,57,119,37,6,2009/1/1,,book,3,12,13,8,1,3.22,,Paperback,,37,6,Leonid Andreyev,,,,,,16,0,,fiction
11294501,0393078779,Love & Will,9780393078770,,,,ES,2011/3/7,W. W. Norton  Company,,true,22,1373530,6055,8953,2185,62,1969/1/1,Love and Will,book,924,714,413,104,30,4.10,352,ebook,,3,0,Rollo May,,,,,,3603,4,115,"art,classics,fiction,love,non-fiction,philosophy,psychology,science,self-help,sociology,spirituality"
11295001,0842301623,Priorities (Lab Topical Studies),9780842301626,,,,ES,1996/4/12,Tyndale House Publishers,,false,1,11295001,4,0,0,0,,,,0,0,0,0,0,0.00,51,Paperback,,0,0,Anonymous,,,,,,2,0,,religion
11295501,,علم السياسة,,,,,ES,,,fre,false,7,11295501,63,38,10,1,1999/4/1,La Ciencia Politica,,3,2,5,0,0,3.80,131,,,3,1,Marcel Prélot,,,,,,5,2,1,
11296001,1118050541,Jane Austen for Dummies,9781118050545,,,,ES,2011/3/3,For Dummies,,true,4,18947,1515,2124,526,62,2006/7/31,Jane Austen For Dummies ,book,189,202,110,16,9,4.04,388,ebook,,1,0,Joan Elizabeth Klingel Ray,,,,,,873,13,17,"adult,biography,biography-memoir,classics,historical,history,non-fiction,reference,regency"
11297001,1455829366,The Watch That Ends the Night: Voices from the Titanic,9781455829361,,,,ES,2011/10/11,Candlewick on Brilliance Audio,,false,19,10814693,9830,11950,2892,652,2011/10/11,,book,1297,944,448,142,61,4.13,9,Audio CD,,20,10,Allan Wolf,,,,,,6429,36,85,"adult,american-history,biography,death,fiction,high-school,historical,historical-fiction,history,non-fiction,novels,poetry,realistic-fiction,romance,school,short-stories,survival,teen,young-adult"
11297501,0982976801,The Pathway to Love: Create intimacy and transform your relationships through self-discovery,9780982976807,,,,ES,,,,false,2,11297501,142,48,12,2,2010/5/1,,,4,4,4,0,0,4.00,,,,9,0,Julie Orlov,,,,,,120,0,1,self-help
11298001,,Un Uomo due donne,,,,,ES,1987/1/1,,ita,false,10,3459154,82,134,37,6,1985/4/1,Little Sins,book,10,9,12,6,0,3.62,,,,4,0,Meredith Rich,,,,,,22,4,4,"chick-lit,drama,erotica,fiction,romance"
11298501,,Elements of Geology,2940018661726,,,,ES,,,,true,2,11298500,0,0,0,0,,,book,0,0,0,0,0,0.00,,,,0,0,"Alonzo Gray,Charles Baker Adams",,,,,,,0,,
11300501,9631526895,"Kezét reá veté, hogy lásson--: regény",9789631526899,,,,ES,1984/1/1,,,false,1,11300501,0,0,0,0,1984/1/1,,,0,0,0,0,0,0.00,339,,,0,0,"Janos Geczi,János Géczi",,,,,,,0,,
11301001,0806976349,Contemporary Patchwork Quilts: A Stitch in Our Time,9780806976341,,,,ES,,,,false,3,9483269,1,4,1,0,1982/1/1,,,0,1,0,0,0,4.00,,,,0,0,Connie Major,,,,,,,0,,
11301501,,Effect on pretreatment on groundwater contamination from leaching beds /,2940018350927,,,,ES,,,,true,1,11301501,0,0,0,0,,,,0,0,0,0,0,0.00,,,,0,0,M.M. Ali,,,,,,,0,,
11302501,1456527304,Blood Brothers: A Novel of Courage and Treachery on the Shores of Tripoli,9781456527303,,,,ES,2011/6/9,Horizons Unlimited Inc.,,false,3,11302501,31,25,7,4,2011/6/9,,book,2,2,1,2,0,3.57,406,Paperback,,3,4,Tom Behr (E. Thomas Behr),,,,,,21,0,,
11303001,,A vonzás szabályai,,,,,ES,,,,false,72,9912,60993,130668,35248,1232,1987/9/1,The Rules of Attraction,book,7965,13438,10210,2826,809,3.71,,,,7,0,Bret Easton Ellis,,,,,,20215,59,508,"adult,adult-fiction,american,americana,classics,college,contemporary,dark,drama,education,fiction,gay,humor,lgbt,literary-fiction,literature,modern,mystery,novels,queer,realistic-fiction,romance,suspense,thriller,young-adult"
11304001,0425075079,Mother Goddam,9780425075074,,,,ES,1984/6/15,Berkley,,false,12,643482,230,439,118,12,1974/1/1,Mother Goddam : Bette Davis,book,34,32,38,13,1,3.72,423,Paperback,,3,1,Whitney Stine,,,,,,75,2,6,"autobiography,biography,biography-memoir,film,historical,lgbt,movies,non-fiction"
11305501,,Unknown Book 11305501,,,,,ES,,,,false,1,11305501,0,0,0,0,,,,0,0,0,0,0,0.00,,,,0,0,Unknown,,,,,,,0,,
11307001,1408681943,"Java, Facts and Fancies",9781408681947,,,,ES,2008/2/22,McCormick Press,,false,12,4045748,11,9,2,1,1898/1/1,Java: Facts and Fancies ,book,1,1,0,0,0,4.50,288,Paperback,,1,1,Augusta de Wit,,,,,,8,0,1,history
11307501,,"Majesty, Mistress...Missing Heir",,B003JE1GTI,,,ES,2010/5/1,Mills & Boon Modern Romance,eng,true,18,8296103,506,715,222,23,2010/5/1,,book,39,53,73,32,25,3.22,,,,8,0,Caitlin Crews,,,,,,188,8,15,"contemporary,fiction,harlequin,romance"
11308001,,Blind Seduction,2940012250599,,,,ES,,,,true,7,6332392,100,77,23,14,2008/12/21,Blind Seduction,book,4,7,7,3,2,3.35,,,,0,0,Debra Hyde,,,,,,72,6,1,"adult-fiction,bdsm,erotica,romance"
11308501,,The Making of Tibias Ivory: Through the Eyes of Innocence,2940011922145,,,,ES,,,,true,6,6990224,5,6,2,0,2009/9/30,,,0,1,0,1,0,3.00,,,,1,0,D. Allen Jenkins,,,,,,,0,,
11309001,1870166906,Dáibhí Ó Bruadair: His Historical and Literary Context (Irish Texts Society Subsidiary Series),9781870166904,,,,ES,2001/1/1,Irish Texts Society,,false,1,11309001,1,0,0,0,2001/1/1,Dáibhí Ó Bruadair: His Historical and Literary Context (Irish Texts Society Subsidiary Series),book,0,0,0,0,0,0.00,119,Paperback,,0,0,Pádraigín Riggs,,,,,,1,0,,
11310001,6131058164,Ncis (Season 2),9786131058165,,,,ES,2010/7/27,Betascript Publishing,,false,5,9898139,9,0,0,0,2010/7/27,,,0,0,0,0,0,0.00,68,Paperback,,0,0,,,,NOT A BOOK,,,4,0,,
11310501,1118096339,Professional Scrum with Team Foundation Server 2010,9781118096338,,,,ES,2011/4/4,Wrox Press,,true,8,10503541,50,67,17,3,2011/4/4,,,5,8,2,2,0,3.94,336,ebook,,0,0,"Aaron Bjork,Michael de la Maza,Steve Resnick",,,,,,21,2,2,reference
11311001,,The Myths and Legends of Ancient Greece and Rome,,B004TILUGC,,,ES,,,,true,96,4522396,4214,5626,1525,87,1880/1/1,The myths and legends of ancient Greece and Rome,book,397,466,498,119,45,3.69,,,,450,2,E.M. Berens,,,,,,1898,22,353,"amazon,classic-literature,classics,education,fantasy,fiction,historical,historical-fiction,history,literature,mythology,non-fiction,reference,religion,science-fiction,unfinished"
11311501,0203850548,"The Japanese Occupation of Borneo, 1941-45",9780203850541,,,,ES,2010/8/1,Routledge,,true,9,8121045,17,15,4,0,2010/1/1,,book,1,1,2,0,0,3.75,224,ebook,,0,0,Ooi Keat Gin,,,,,,12,0,,"history,war"
11312001,,"Hněv Pána ohně (Křišťály moci, #2)",9788025312124,,,,ES,2011/3/16,Fragment,cze,false,1,11312001,153,417,105,4,2011/3/16,Hněv Pána ohně,book,39,35,22,7,2,3.97,272,Hardcover,Křišťály moci,105,4,Michaela Burdová,,,,,,23,2,,"fantasy,magic"
11312501,,Doctor Ox's experiment,2940019925483,,,,ES,,,,true,86,1477299,2544,4855,1394,108,1872/1/1,Une fantaisie du docteur Ox,book,206,460,550,157,21,3.48,,,,2,0,Jules Verne,,,,,,641,9,33,"adult,classic-literature,classics,fantasy,fiction,france,historical-fiction,humor,literature,novels,science-fiction"
11313001,1456872915,Addicted to Altitude,9781456872915,,,,ES,2011/3/16,Xlibris Corporation,,false,2,11313001,0,0,0,0,2011/3/16,,,0,0,0,0,0,0.00,226,Paperback,,0,0,Mark Hampton,,,,,,,0,,
11314501,9876787748,La sala numero seis,9789876787741,,,,ES,,,,true,126,23791,19569,44978,10408,580,1892/1/1,Палата № 6,book,5402,3335,1361,235,75,4.32,,,,0,0,Anton Chekhov,,,,,,7140,35,320,"classics,collections,cultural,drama,fiction,history,literary-fiction,literature,mental-illness,novels,psychology,short-stories,unfinished"
11315001,0060241462,The Elephant Who Couldn't Forget,9780060241469,,,,ES,1980/3/25,HarperCollins Publishers,,false,3,976710,34,62,16,3,1980/1/1,The elephant who couldn't forget (An I can read book),book,3,8,5,0,0,3.88,62,Hardcover,,0,0,"Faith McNulty,Marc Simont",,,,,,11,11,,"adventure,animals,cultural,family,inspirational,nature,picture-books"
11315501,1449713033,Ashes to Beauty: Rising from the Pain of Abuse to the Safety of Love in Jesus,9781449713034,,,,ES,2011/3/17,WestBow Press,,false,5,11315501,7,10,2,0,2011/3/1,,,2,0,0,0,0,5.00,108,Paperback,,2,0,K.K. Berliew,,,,,,5,0,,
11317001,,Het geheimzinnige eiland - de luchtschipbreukelingen,,,,,ES,1964/1/1,Elsevier,nl,false,5,13337921,78,110,27,1,1873/1/1,,book,13,7,3,4,0,4.07,222,Paperback,Jules Verne Wonderreizen #3,4,0,Jules Verne,,,,,,29,2,2,"fantasy,fiction,science-fiction"
11317501,0470282363,"A Year Without ""Made in China"": One Family's True Life Adventure in the Global Economy [With International Economics]",9780470282366,,,,ES,,,,false,17,719411,2348,3486,1140,258,2007/1/1,"A Year Without ""Made in China"": One Family's True Life Adventure in the Global Economy",book,110,265,436,239,90,3.06,,,,2,0,Sara Bongiorni,,,,,,955,14,43,"biography,biography-memoir,business,economics,history,humor,memoir,non-fiction,politics,social-issues,sociology"
11318001,1846143675,The Enchanter: Nabokov and Happiness,9781846143670,,,,ES,,,,false,15,9654673,534,565,164,29,2011/1/1,,book,33,45,55,24,7,3.45,,,,11,2,Lila Azam Zanganeh,,,,,,229,12,11,"biography,biography-memoir,contemporary,fiction,history,literature,non-fiction,unfinished"
11318501,8496138151,Jorge Luis Borges: La Tiniebla y La Gloria,9788496138155,,,,ES,,,,false,1,11318501,0,0,0,0,2004/9/28,,,0,0,0,0,0,0.00,,,,0,0,Luis Benítez,,,,,,,0,,
11319001,,Politeia (Der Staat) ,,B004O4C1P0,,,ES,2011/2/16,Fair Price Classics,ger,true,1178,30289,317364,556574,141780,2872,-380/1/1,Πολιτεία,book,48815,48467,32868,8397,3233,3.93,,,,0,0,Plato,,,,"Wilhelm Siegmund Teuffel,Wilhelm Wiegand",,139699,431,14475,"academic,classic-literature,classics,college,education,fiction,historical,history,literature,non-fiction,philosophy,politics,psychology,reference,school,science,society,sociology,unfinished"
11319501,,Mind and Matter,,,,,ES,1958/1/1,Cambridge University Press,eng,false,8,2286854,196,355,93,8,1958/1/1,Mente y materia,,19,48,17,8,1,3.82,104,Hardcover,,10,1,Erwin Schrödinger,,,,,,71,0,8,"essays,non-fiction,philosophy,science"
11320501,1850443254,Lloyd's Ports of the World 1995,9781850443254,,,,ES,1995/10/1,L L P,,false,1,11320501,0,0,0,0,1995/10/28,,,0,0,0,0,0,0.00,800,Hardcover,,0,0,"Inc Staff Lloyd's Of London Press,Inc Staff Lloyd's Of London Press",,,,,,,0,,
11321001,0007414951,"It's Not Me, It's You",9780007414956,,,,ES,,,,false,9,10600255,4703,10340,2874,219,2011/6/23,,book,564,1054,877,294,85,3.60,,,,45,8,Jon Richardson,,,,,,1271,43,162,"autobiography,biography,comedy,contemporary,funny,humor,memoir,mental-health,non-fiction,self-help"
11322001,8132012534,With Zola in England,9788132012535,,,,ES,2008/5/8,Tutis Digital Pub,,false,20,9086245,17,26,8,1,1899/1/1,,,1,2,4,0,1,3.25,252,Paperback,Large Print,0,0,Ernest Alfred Vizetelly,,,,,,7,0,,non-fiction
11323001,8873881459,Il colombo divergente,9788873881452,,,,ES,2007/5/4,Liberodiscrivere,ita,false,1,11323001,14,16,6,5,2007/5/4,,book,0,1,2,3,0,2.67,288,Paperback,,6,5,Carlo Menzinger,,,,,,3,0,,
11323501,075462112X,Ethics and Medical Decision-Making,9780754621126,,,,ES,,,,false,5,11323501,0,0,0,0,2001/12/1,,,0,0,0,0,0,0.00,,,,0,0,Michael       Freeman,,,,,,,0,,
11324001,0786730641,Shattered Bonds: The Color of Child Welfare,9780786730643,,,,ES,2014/5/14,Basic Civitas Books,,true,8,34663,746,630,150,9,,,book,71,46,26,6,1,4.20,353,ebook,,0,0,Dorothy Roberts,,,,,,546,8,18,"academic,adult,college,feminism,non-fiction,parenting,psychology,sociology"
11325001,1455816868,"The Twilight Before Christmas (Drake Sisters, #2) (Christmas, #2)",9781455816866,,,,ES,2011/10/1,Brilliance Audio,eng,false,24,287635,13982,36112,8766,273,2003/10/28,"The Twilight Before Christmas (Includes: Drake Sisters, #2; Christmas, #2)",book,3757,2828,1729,376,76,4.12,8,Audiobook,Unabridged,21,9,Christine Feehan,,,,,Teri Clark Linden,1120,25,217,"adult,anthologies,chick-lit,christmas,contemporary,family,fantasy,fiction,holiday,magic,mystery,novella,paranormal,romance,supernatural,suspense,urban-fantasy,witches"
11325501,0203402510,Judaism,9780203402511,,,,ES,2003/5/8,Routledge,,true,18,488337,79,123,35,5,1394/1/1,Judaism,book,4,12,17,2,0,3.51,609,ebook,,0,0,Dan Cohn-Sherbok,,,,,,29,1,1,"non-fiction,religion,spirituality"
11326001,213058215X,Les 100 mots du littéraire,9782130582151,,,,ES,2011/2/9,Presses Universitaires de France - PUF,fre,false,2,11326001,3,0,0,0,2008/8/25,Les 100 mots du littéraire,book,0,0,0,0,0,0.00,,Mass Market Paperback,2e édition,0,0,"Alain Viala,Paul  Aron",,,,,,2,0,,
11327001,0758272006,"So, So Hood",9780758272003,,,,ES,2011/6/1,Kensington Publishing Corporation,,true,7,9572128,2538,2752,595,28,2011/1/1,,book,450,88,41,11,5,4.63,256,ebook,,10,1,L. Divine,,,,,,782,7,22,"contemporary,cultural,drama,paranormal,romance,young-adult"
11327501,0382061012,China,9780382061011,,,,ES,1976/12/1,Silver Burdett Press,,false,1,11327501,0,0,0,0,,,,0,0,0,0,0,0.00,,Hardcover,,0,0,Jonathan Hammond,,,,,,,0,,
11328001,1425907156,Room Enough and Time: Lor Linden Book Two,9781425907150,,,,ES,2008/9/1,Authorhouse,,false,1,11328001,0,0,0,0,2008/9/1,,,0,0,0,0,0,0.00,424,Paperback,,0,0,E. R. Barnes,,,,,,,0,,
11329001,9693527194,Barish Ki Awaz / بارش کی آواز,,,,,ES,2014/1/1,"Sang-e-Meel Publications, Lahore",urd,false,1,11329001,19,35,9,0,,بارش کی آواز,book,4,2,1,2,0,3.89,,Hardcover,,9,0,Amjad Islam Amjad,,,,,,8,0,1,poetry
11329501,4773099585,流星シロップ,9784773099584,,,,ES,2009/6/11,笠倉出版社,jpn,false,2,11329501,4,0,0,0,2009/6/11,流星シロップ,book,0,0,0,0,0,0.00,,Paperback,クロスノベルス,0,0,かわい 有美子,,,,,,2,0,1,
11330001,9606760375,Κατά τον δαίμονα εαυτού,9789606760372,,,,ES,2008/2/1,Τόπος,gre,false,1,11330001,17,38,11,1,2008/2/1,,book,2,4,3,1,1,3.45,179,Paperback,,11,1,"Giannis Antamis,Γιάννης Αντάμης",,,,,,3,0,,
11330501,1570066396,Zagat New York City Restaurants,9781570066399,,,,ES,2004/12/6,Zagat Survey,,false,3,177738,43,101,27,3,2004/10/22,Zagat Survey 2007 New York City Restaurants,,7,13,2,3,2,3.74,288,Paperback,,3,0,,,,Zagat Survey,,,5,0,,"food,reference,travel"
11331001,9155423531,Enabling of Judgment: Sir Philip Sidney and the Education of the Reader,9789155423537,,,,ES,,,,false,1,11331001,1,3,1,0,1989/10/28,,,0,0,1,0,0,3.00,,,,1,0,Ake Bergvall,,,,,,,0,,
11332501,9866377814,地下室狗頭,9789866377815,,,,ES,2010/8/1,印刻,zho,false,37,1164155,2825,6240,1642,137,2005/1/1,Hundehoved,book,394,699,410,105,34,3.80,380,Paperback,,2,0,"Morten Ramsland,莫頓·朗斯蘭",,,,丘淑芳,,824,11,24,"contemporary,detective,family,fiction,historical-fiction,humor,literary-fiction,literature,magical-realism,mystery,novels,suspense,unfinished"
11333001,1456855875,Mr. Grumpy,9781456855871,,,,ES,2011/1/24,Xlibris,,false,1,11333001,0,0,0,0,2011/1/24,,,0,0,0,0,0,0.00,28,Paperback,,0,0,Vicki Lei,,,,,,,0,,
11333501,,The Darkening Green:  The Story of an English Village,,,,,ES,1934/1/1,Doubleday Doran,eng,false,2,11333501,9,15,3,0,1934/1/1,The Darkening Green,book,3,0,0,0,0,5.00,306,Hardcover,,3,0,Compton Mackenzie,,,,,,7,0,,
11334001,,The art of teaching arithmetic; a book for class teachers,2940017632284,,,,ES,,,,true,8,26986477,0,0,0,0,2008/6/1,,,0,0,0,0,0,0.00,,,,0,0,Jeannie B. Thomson,,,,,,,0,,
11334501,0070704694,File Structures Using C++,9780070704695,,,,ES,,,,false,1,11334501,57,40,9,1,2009/1/1,,,5,3,1,0,0,4.44,,,,9,1,K.R. Venugopal,,"K.G. Srinivasa,P.M. Krishnaraj",,,,36,0,2,
11335501,,Rapid Application Development With CakePHP,2940011205781,,,,ES,,,,true,4,11335501,8,6,3,0,2011/1/31,,,0,0,1,1,1,2.00,,,,2,0,Jamie Munro,,,,,,,0,2,
11336001,0080313272,"Men & Sex: A Case Study in ""Sexual Politics""",9780080313276,,,,ES,,,,false,1,11336001,0,0,0,0,1984/6/1,,,0,0,0,0,0,0.00,,,,0,0,Liz Stanley,,,Sue Wise,,,,0,,
11337001,0546871429,"Brooks: Webster's Timeline History, 1992   1999",9780546871425,,,,ES,,,,false,1,11337001,0,0,0,0,,,,0,0,0,0,0,0.00,,,,0,0,Icon Group International,,,,,,,0,,
11340001,,Antoine de Saint-Exupéry,,,,,ES,1964/1/1,Borla,ita,false,3,11340001,12,13,3,0,1960/5/1,,book,1,2,0,0,0,4.33,159,Hardcover,Scrittori del secolo 9,3,0,Jean-Claude Ibert,,,,L. Vagliasindi,,7,0,,"biography,france,non-fiction"
11340501,0226556743,Bourgeois Dignity: Why Economics Can't Explain the Modern World,9780226556741,,,,ES,2011/11/15,University of Chicago Press,,false,9,9231119,1769,1106,268,24,2010/10/4,,book,121,91,34,13,9,4.13,592,Paperback,,19,0,Deirdre N. McCloskey,,,,,,1354,7,62,"business,economics,history,non-fiction,philosophy,politics,science,society,sociology,technology"
11341001,141856785X,God's Message for Each Day: Wisdom from the Word of God,9781418567859,,,,ES,2006/9/3,Thomas Nelson,,true,6,1119605,104,117,29,4,2004/2/1,God's Message for Each Day: Wisdom from the Word of God,,11,11,5,1,1,4.03,400,ebook,,0,0,Eugene H. Peterson,,,,,,22,1,38,"christian,christianity"
11341501,0785150625,Marvel Masterworks: The Fantastic Four - Volume 7,9780785150626,,,,ES,2011/11/9,Marvel,eng,false,4,2021390,174,376,92,13,2007/11/21,Marvel Masterworks: The Fantastic Four #61-71 + Annual #5,book,34,35,20,3,0,4.09,304,Paperback,,18,5,,Jack Kirby,,,,,56,4,2,"classics,comics,fiction,graphic-novels,graphic-novels-comics,marvel,science-fiction,superheroes"
11342001,184454964X,Amy and Blake: Love Is the Drug,9781844549641,,,,ES,2010/10/1,John Blake,,false,1,11342001,14,8,5,0,2010/10/1,,,0,0,1,1,3,1.60,214,Paperback,,5,0,Chas Newkey-Burden,,,,,,6,0,,biography
11343001,9736070030,Fábulas Jurídicas,,,,,ES,2010/1/1,Edición Privada,spa,false,1,11343001,3,3,1,1,2010/1/1,,book,0,0,1,0,0,3.00,120,Paperback,,1,1,José Pemaibag,,,,,,2,0,,
11344001,1170736777,"The Speech of the Honourable Charles James Fox, in the House of Commons, on Monday, the 3D of February, 1800, on a Motion for an Address to the Throne, Approving of the Refusal of Ministers to Treat with the French Republic.",9781170736777,,,,ES,2010/6/10,"Gale Ecco, Print Editions",,false,2,11344002,0,0,0,0,2010/5/29,,,0,0,0,0,0,0.00,58,Paperback,,0,0,Charles James Fox,,,,,,,0,,
11344501,,Kaukiantis malūnininkas,9789955233756,,,,ES,2010/1/1,„Baltos lankos“,lit,false,48,1030632,3262,7674,2027,158,1981/1/1,Ulvova mylläri,book,436,866,598,109,18,3.79,230,Paperback,,44,6,,,,,,,416,5,21,"adventure,classics,comedy,contemporary,fiction,funny,humor,literature,novels"
11345501,0671789899,Clawhammer,9780671789893,,,,ES,1994/1/1,Pocket Books,,false,8,458880,62,148,36,1,1994/1/1,Clawhammer,,14,12,10,0,0,4.11,,Hardcover,,1,0,Sam Llewellyn,,,,,,15,3,1,"fiction,mystery,mystery-thriller"
11346501,,"Girls, Muddy, Moody Yet Magnificent",,B003X4L536,,,ES,,,,true,6,1871411,471,670,181,6,2008/6/2,Zoe and Chloe: Out to Lunch Bk. 2,book,56,44,59,15,7,3.70,,,,1,0,Sue Limb,,,,,,170,3,51,"funny,humor,middle-grade,young-adult"
11347001,,The letters and poems of John Keats ..,2940019154715,,,,ES,,,,true,5,34394543,3,0,0,0,,,,0,0,0,0,0,0.00,,,,0,0,John Keats,,,,,,3,0,,
11348501,1440427054,I Will Not Cry: Undiscovered Greatness,9781440427053,,,,ES,2008/10/1,Createspace,,false,1,11348501,0,0,0,0,2008/10/20,,,0,0,0,0,0,0.00,472,Paperback,,0,0,Afsaneh Varzaly,,,,,,,0,,
11349001,,"Check list of publications on American railroads before 1841; a union list of printed books and pamphlets, including state and federal documents, dealing with charters, by-laws, legislative acts, speeches, debates, land grants, officers' and engineers' re",2940027533335,,,,ES,,,,true,1,11349001,0,0,0,0,,,,0,0,0,0,0,0.00,,,,0,0,Thomas Richard Thomson,,,,,,,0,,
11351001,,Mishkat-al-Masabih 2/4,,,,,ES,,,,false,1,11351001,4,11,3,0,,,book,0,2,1,0,0,3.67,,,,3,0,Fazlul Karim,,,,,,,0,,
11351501,0374529825,In Good Hands,9780374529826,,,,ES,2004/8/1,"Farrar, Straus and Giroux",,false,2,11351501,3,3,1,0,2004/8/1,,,0,0,1,0,0,3.00,240,Paperback,,1,0,Charles Fish,,,,,,2,1,,
11352001,,"The master key: an electrical fairy tale, founded upon the mysteries of electricity and the optimism of its devotees ...",2940021005265,,,,ES,,,,true,105,1294222,551,761,223,21,1901/1/1,"The Master Key: An Electrical Fairy Tale, Founded Upon the Mysteries of Electricity and the Optimism of Its Devotees",book,50,53,76,27,17,3.41,,,,0,0,L. Frank Baum,,,,,,249,12,10,"adventure,american,childrens,classics,fairy-tales,fantasy,fiction,novels,philosophy,science-fiction,science-fiction-fantasy,speculative-fiction,technology,young-adult"
11352501,,The Size of the Universe,,,,,ES,1948/1/1,Pelican Books,eng,false,1,11352501,4,3,1,0,1948/1/1,,book,0,0,1,0,0,3.00,175,Paperback,,1,0,F.J. Hargreaves,,,,,,3,0,,non-fiction
11353001,1563120062,The Black Cat and Selected Works,,,,,ES,,,eng,false,108,1241006,5019,9753,2514,247,1843/1/1,,book,736,973,611,154,40,3.88,106,,,0,0,Edgar Allan Poe,,,,,,1674,18,179,"animals,anthologies,classics,crime,fantasy,fiction,gothic,high-school,horror,mystery,novels,school,short-stories"
11355001,017005330X,Writers And Writing,9780170053303,,,,ES,,,,false,1,11355001,2,0,0,0,,,,0,0,0,0,0,0.00,,,,0,0,Susan Drury,,,,,,,0,,
11356001,,The wonderland of the Antipodes; and other sketches of travel in the north island of New Zealand,2940024644935,,,,ES,,,,true,1,11356001,1,0,0,0,,,,0,0,0,0,0,0.00,,,,0,0,J. Ernest Tinne,,,,,,,0,,
11356501,,Sahih Muslim Abridged 2/2,,,,,ES,,,,false,2,18688899,39,61,13,1,,,,10,2,1,0,0,4.69,,,,1,0,مسلم بن الحجاج,,,,,,27,0,,
11357001,0736068554,Therapeutic Recreation Leadership and Programming,9780736068550,,,,ES,2010/6/14,Human Kinetics Publishers,,false,2,11357001,19,15,4,0,2010/6/14,,,2,0,1,1,0,3.75,405,Hardcover,,2,0,"Frances Stavola Daly,Robin Kunstler",,,,,,8,1,,non-fiction
11358001,0071407022,McGraw-Hill's GED Social Studies,9780071407021,,,,ES,,,,false,1,11358001,2,0,0,0,2002/9/13,,,0,0,0,0,0,0.00,,,,0,0,"Jeri Bayer,Kenneth Tamarkin",,,,,,1,0,,
11359001,,"#Conversationstoppers: Puns, Non Sequiturs, Impossible Scenarios",,B004S7F2VS,,,ES,2011/3/14,Leon Shure,en-GB,true,3,11359001,125,187,67,5,2011/2/24,,book,12,8,18,12,17,2.79,10,,,67,5,Leon Shure,,,,,,41,1,6,"amazon,collections,language"
11360001,1607547295,The Wishing Well,9781607547297,,,,ES,2010/2/1,Skyview Books,,false,7,2123607,88,109,31,3,1998/11/4,The Wishing Well (Creepers),book,8,6,12,4,1,3.52,,Paperback,,0,0,Edgar J. Hyde,,,,,,37,2,1,"adventure,chapter-books,childrens,horror,mystery,thriller"
11362001,,Billy Bunny and Uncle Bull Frog,2940000847268,,,,ES,,,,true,9,20734611,3,0,0,0,1920/1/1,,,0,0,0,0,0,0.00,,,,0,0,David Cory,,,,,,3,1,,
11362501,,"Burning liquid fuel, a practical treatise on the perfect combustion of oils and tars, giving analyses, calorific values and heating temperatures of various gravitites, with information on the design and proper installation of equipment for all classes of",2940019333639,,,,ES,,,,true,6,30860270,0,0,0,0,2008/8/1,,,0,0,0,0,0,0.00,,,,0,0,William Newton Best,,,,,,,0,,
11363001,,Time to Pretend,,B004XVY684,,,ES,,,,true,4,10860999,463,722,189,9,2011/3/31,,book,45,88,36,17,3,3.82,,,,27,0,Michele Zurlo,,,,,,213,15,6,"adult-fiction,bdsm,contemporary,erotica,lgbt,menage,romance"
11363501,1101219939,Dreamboat,9781101219935,,,,ES,2005/10/1,Signet Book,,true,10,1265133,259,435,137,17,2005/1/1,Dreamboat,,25,24,55,16,17,3.18,400,ebook,,0,0,Judith Gould,,,,,,69,7,1,"adventure,chick-lit,romance"
11364501,,Jio Vol. 15,9786020002316,,,,ES,2011/5/1,Level Comics,ind,false,6,5071404,177,426,108,3,2008/4/10,666 ～サタン～ 15,book,37,36,28,6,1,3.94,200,Paperback,,2,0,Seishi Kishimoto,,,,,,9,7,1,"adventure,comics,demons,fantasy,graphic-novels,manga,mystery"
11365001,055791776X,And I Am Always Leaving,9780557917761,,,,ES,2011/1/12,Lulu.com,,false,1,11365001,2,10,2,0,2011/1/12,,,2,0,0,0,0,5.00,92,Paperback,,2,0,Rebecca Shepard,,,,,,,0,,
11365501,9035104897,Herinneringen aan Anne Frank,9789035104891,,,,ES,1987/1/1,Bert Bakker,nl,false,56,5509,79816,224145,52455,716,1987/1/1,Anne Frank Remembered,book,27400,15558,6952,1512,1033,4.27,242,Paperback,,32,1,"Alison Leslie Gold,Miep Gies",,,,"Frans van der Wiel,Molly van Gelder,Rita Vermeer",,26210,39,198,"adult,autobiography,biography,biography-memoir,childrens,classics,historical,historical-fiction,history,literature,memoir,non-fiction,religion,survival,war,young-adult"
11366501,8320705894,24 współczesne opowiadania południowoafrykańskie,,,,,ES,1984/1/1,Iskry,pol,false,1,11366501,2,3,1,0,1984/1/1,,book,0,0,1,0,0,3.00,279,Paperback,,1,0,Various,,,,,,,0,,
11367001,,Locked in Time,,,,,ES,1986/10/1,Laurel Leaf,eng,false,4,47751,7278,17547,4466,285,1985/4/1,Locked in Time ,book,1402,1627,1193,206,38,3.93,210,Mass Market Paperback,,24,4,Lois Duncan,,,,,,1493,19,73,"adult,childrens,fantasy,fiction,gothic,horror,magic,middle-grade,mystery,mystery-thriller,novels,paranormal,romance,speculative-fiction,supernatural,suspense,teen,thriller,time-travel,urban-fantasy,young-adult"
11367501,0938289713,"American Military History, Vol. 2: 1902-1996",9780938289715,,,,ES,1996/5/22,Da Capo Press,,false,2,11367501,32,37,9,1,1996/5/22,,,2,6,1,0,0,4.11,432,Paperback,,8,1,,,,Maurice Matloff,,,19,2,2,
11368001,389518845,Die Klimapolitik Katastrophe Deutschland Im Dunkel Der Energiesparlampe,9783895188459,,,,ES,,,,false,1,11368001,2,3,1,0,2010/1/1,,,0,0,1,0,0,3.00,,,,1,0,Joachim Weimann,,,,,,1,0,,
11368501,,Secrets of an Accidental Duchess (Donovan Sisters #2),,B004RCNGQC,,,ES,,,,true,15,12051261,1577,2233,596,85,2012/1/1,Secrets of an Accidental Duchess,book,142,239,156,40,19,3.75,432,,,29,1,Jennifer Haymore,,,,,,142,20,17,"adult,family,historical,historical-fiction,love,regency,romance"
11369501,1458401073,Hal Leonard Guitar Method: Fender Special Edition [With SD Card],9781458401076,,,,ES,,,,false,1,11369501,0,0,0,0,2011/4/1,,,0,0,0,0,0,0.00,,,,0,0,Will Schmid,,,,,,,0,,
11371001,1847972462,Francis-Barnett Coventry: The Complete Story,9781847972460,,,,ES,2011/5/15,The Crowood Press UK,,false,1,11371001,3,10,2,0,2011/5/15,,,2,0,0,0,0,5.00,208,Hardcover,,2,0,Arthur Gent,,,,,,,0,,
11372501,1611760364,Red Mist: Scarpetta (Book 19),9781611760361,,,,ES,2011/12/6,Penguin Audio,,false,53,11057626,39524,79807,21211,1712,2011/12/6,Red Mist,book,5679,7426,5958,1686,462,3.76,,Audio CD,,78,28,,,,,,Kate Burton,10861,61,827,"adult,adult-fiction,crime,detective,drama,fiction,medical,murder-mystery,mystery,mystery-thriller,suspense,thriller"
11374501,9350092611,The Prince and The Sannyasi,9789350092613,,,,ES,2011/1/1,Hachette India,eng,false,4,421715,478,387,98,12,2002/1/1,Princely Imposter? The Kumar of Bhawal and the Secret History of Indian Nationalism,book,34,38,17,5,4,3.95,650,Paperback,For Sale in the Indian Subcontinent only,19,4,Partha Chatterjee,,,,,,326,2,18,"biography,history,mystery,non-fiction,novels"
11376001,,How To Raise Emotionally Healthy Children: Meeting The Five Critical Needs of Children...and Parents Too! Updated Edition,2940012241511,,,,ES,,,,true,6,13311709,595,713,199,13,1999/1/1,How To Raise Emotionally Healthy Children: Meeting The Five Critical Needs Of Children...And Parents Too!,book,48,67,50,21,13,3.58,,,,0,0,Gerald Newmark,,,,,,282,14,43,"amazon,education,family,non-fiction,parenting,psychology,reference,self-help,teaching"
11377001,,A brief German course,2940038952231,,,,ES,,,,true,1,11377001,0,0,0,0,,,book,0,0,0,0,0,0.00,,,,0,0,"Carl Friedrich Kayser,Frederick Montaner",,,,,,,0,,
11377501,1446503739,"Life Drawing Made Easy - A Practical Guide for the Would-Be Artist, Written in a Simple and Entertaining Style",9781446503737,,,,ES,2000/10/15,Van Doren Press,,false,3,11377500,0,0,0,0,2000/10/15,,,0,0,0,0,0,0.00,76,Hardcover,,0,0,Eric Watson,,,,,,,0,,
11378001,1409421988,The Faith of Girls: Children's Spirituality and Transition to Adulthood,9781409421986,,,,ES,2011/8/1,Routledge,,false,8,11378001,0,0,0,0,2011/8/1,,book,0,0,0,0,0,0.00,218,Hardcover,,0,0,Anne Phillips,,,,,,,0,,
11378501,,Cry Of The Hawk,,,,,ES,,,,false,1,11378501,1,3,1,0,,,book,0,0,1,0,0,3.00,,,,1,0,Hy Steirman,,,,,,,1,,
11379001,,"Blood and Gold (The Vampire Chronicles, #8)",,B0031RS3S0,,,ES,,,,true,59,31341,56891,118881,30570,633,2001/1/1,Blood and Gold: The Vampire Marius,book,10061,10129,7790,2100,490,3.89,,,,33,0,Anne Rice,,,,,,17763,22,297,"adult,adult-fiction,american,dark,fantasy,fiction,gothic,historical,historical-fiction,history,horror,lgbt,mystery,novels,paranormal,romance,science-fiction-fantasy,supernatural,thriller,urban-fantasy,vampires"
11379501,0557059712,Cruising In A Big Way,9780557059713,,,,ES,,,,false,1,11379501,1,4,1,0,2011/8/1,,,0,1,0,0,0,4.00,,,,1,0,Richard Cook,,,,,,,0,,
11380001,0594121655,Always on the Go! (Nick Jr. Carry-Along Boxed Set Series),9780594121657,,,,ES,,,eng,false,2,7399266,11,7,2,1,2008/1/1,,book,1,0,0,1,0,3.50,,,,0,1,"Alexis Romay,Art Mawhinney,Christine Ricci,John Hom,Nick Jr. Family Magazine,Robert Roper,Warner McGee,Wendy Wax",,,,,,7,0,,
11380501,,"A candid examination of Dr. Mayhew's Observations on the charter and conduct of the Society for the Propagation of the Gospel in Foreign Parts: interspers'd with a few brief reflections upon some other of the doctor's writings. To which is added, A let",2940018057727,,,,ES,,,,true,1,11380501,0,0,0,0,,,,0,0,0,0,0,0.00,,,,0,0,Henry Caner,,,,,,,0,,
11382501,0756984386,Is It Heavier Than an Elephant?,9780756984380,,,,ES,2008/3/1,Perfection Learning,,false,1,11382501,0,0,0,0,2008/3/28,,,0,0,0,0,0,0.00,16,Hardcover,,0,0,Allyson Valentine,,,,,,,0,,
11383001,,"The Empty Chair (Lincoln Rhyme, #3)",,B002V091M0,,,ES,,,,true,71,142540,32597,86058,21174,755,2000/5/9,The Empty Chair ,book,7117,9065,4337,547,108,4.06,,,,292,8,Jeffery Deaver,,,,,,6093,30,414,"action,adult,adventure,contemporary,crime,detective,fiction,horror,modern,murder-mystery,mystery,mystery-thriller,novels,suspense,thriller"
11383501,,ANGRY BIRDS - The Complete Expansion Packs: DOWNLOAD RIO and get all 5 SEASONS ABSOLUTELY FREE! (Angry Birds RIO + Halloween + Christmas + Valentine's Day + St. Patrick's Day + Easter),2940012414243,,,,ES,,,,true,1,11383501,8,10,2,0,2011/5/14,,,2,0,0,0,0,5.00,,,,2,0,Apps Limited,,,,,,6,0,,
11384001,1439039755,"Microsoft Office 2007: Brief Concepts and Techniques, Video Companion",9781439039755,,,,ES,2009/6/3,Course Technology,,true,3,2525728,14,36,11,0,2007/5/1,Microsof Office 2007: Brief Concepts and Techniques (Shelly Cashman Series),,3,3,1,2,2,3.27,,ebook,,0,0,Gary B. Shelly,,,,,,2,0,,school
11384501,1597226076,Just Like Heaven,9781597226073,,,,ES,2007/10/1,Wheeler Publishing,,false,9,287815,1173,1754,473,51,2007/2/27,Just Like Heaven,book,122,166,126,43,16,3.71,421,Paperback,Large Print,0,0,Barbara Bretton,,,,,,442,10,66,"amazon,chick-lit,contemporary,drama,family,fiction,romance"
11386001,0545354013,"A King's Ransom (The 39 Clues: Cahills vs. Vespers, #2)",9780545354011,,,,ES,2011/12/6,Scholastic Audio Books,eng,false,19,10706120,27299,82517,19911,365,2011/11/1,A King's Ransom,book,9383,5511,3877,787,353,4.14,0,Audio CD,Unabridged,32,10,Jude Watson,,,,,David Pittu,5336,54,129,"action,adventure,childrens,contemporary,family,fantasy,fiction,historical-fiction,history,juvenile,middle-grade,modern,mystery,mystery-thriller,realistic-fiction,science-fiction,thriller,young-adult"
11386501,,Heart Songs: Poetic Verses From The Heart,,B003ZUY9DQ,,,ES,,,,true,1,11386501,1,3,1,0,2010/8/6,,,0,0,1,0,0,3.00,,,,1,0,Justice Chikandamina,,,,,,,0,,
11388001,2234061628,Pour Les Siècles Des Siècles: Nouvelles,9782234061620,,,,ES,,,,false,3,9671397,7,15,4,1,2008/1/1,,,2,0,1,1,0,3.75,,,,1,0,Anne Plantagenet,,,,,,4,0,,
11388501,,"A Handbook of physical diagnosis of diseases of the organs of respiration and heart, and of ...",2940023685274,,,,ES,,,,true,5,11388502,0,0,0,0,,,,0,0,0,0,0,0.00,,,,0,0,Richard Channing Moore Page,,,,,,,0,,
11389001,1402245998,"Hailey Twitch and the Campground Itch (Hailey Twitch, #3)",9781402245992,,,,ES,2011/5/1,Sourcebooks Jabberwocky,,true,5,9978135,85,112,29,4,2011/1/1,Hailey Twitch and the Campground Itch,book,12,7,5,4,1,3.86,144,ebook,,0,0,"Lauren Barnholdt,Suzanne Beaky",,,,,,43,1,2,"chapter-books,fantasy,fiction"
11390001,1406751332,American Reference Library,9781406751338,,,,ES,2007/3/15,Hesperides Press,,false,1,11390001,0,0,0,0,2007/3/1,,,0,0,0,0,0,0.00,520,Paperback,,0,0,Hesperides,,,,,,,0,,
11391001,1157062571,"C l ra i County: C l ra i, A2 Motorway, Olteni a, Fundulea, Bude ti, Lehliu Gar , Fc Dun rea C l ra i, Balta Ialomi ei, Stadionul Municipal",9781157062578,,,,ES,,,,false,1,11391001,0,0,0,0,2010/5/27,,,0,0,0,0,0,0.00,,,,0,0,Books LLC,,,,,,,0,,
11392001,1452102929,Cake Pops Kit,9781452102924,,,,ES,2011/11/23,Chronicle Books,,false,1,11392001,71,157,40,2,2011/11/23,,,12,17,8,2,1,3.92,0,Other Format,,40,2,Bakerella,,,,,,31,0,,"cookbooks,cooking,non-fiction"
11392501,,American Red cross text-book on home dietetics,2940018130062,,,,ES,,,,true,6,8398243,0,0,0,0,2008/1/1,,,0,0,0,0,0,0.00,,,,0,0,Ada Z. Fish,,,,,,,0,,
11393001,0071458425,The U.S. Army Leadership Field Manual,9780071458429,,,,ES,2004/3/21,McGraw-Hill Education,,true,6,1176347,225,316,79,3,2004/2/20,The U.S. Army Leadership Field Manual,book,27,30,18,3,1,4.00,300,ebook,,0,0,"Center F The Center for Army Leadership,Leadership The Center For Army",,,,,,62,2,6,"business,leadership,non-fiction,politics,survival,textbooks,war"
11393501,0606211101,"Nick of Time (Nick McIver, #1)",9780606211109,,,,ES,2009/9/1,Turtleback Books,,false,12,2278470,3772,7580,1947,354,2000/12/7,Nick Of Time,book,632,682,470,119,44,3.89,434,Hardcover,,4,0,Ted Bell,,,,,,1363,11,59,"action,adult,adventure,childrens,fantasy,fiction,historical,historical-fiction,history,juvenile,middle-grade,school,science-fiction,science-fiction-fantasy,time-travel,travel,unfinished,war,young-adult"
11394001,8820048493,Come il mare d'inverno,9788820048495,,,,ES,2010/4/6,Sperling & Kupfer,ita,false,46,3392089,119343,219193,53695,6214,2008/9/22,The Winter Sea,book,20603,20700,9399,2188,805,4.08,408,Hardcover,,29,6,Susanna Kearsley,,,,Alessandra Petrelli,,3859,353,1943,"adult,adult-fiction,adventure,chick-lit,contemporary,fantasy,fiction,gothic,historical,historical-fiction,history,love-story,magical-realism,mystery,novels,paranormal,romance,science-fiction,supernatural,time-travel,unfinished"
11395501,,Dialogos en que se trata de quitar la presumpcion y brio al hombre: A quien el fauor y ...,2940031795606,,,,ES,,,,true,1,11395501,0,0,0,0,,,,0,0,0,0,0,0.00,,,,0,0,Francisco de Avila,,,,,,,0,,
11396001,1615660895,Casper Joe,9781615660896,,,,ES,2009/12/1,Tate Publishing & Enterprises,,false,2,11396001,0,0,0,0,2009/12/1,,,0,0,0,0,0,0.00,24,Paperback,,0,0,Connie Randolph,,,,,,,0,,
11396501,,The dear old lady of Eighty-sixth street;,2940019595129,,,,ES,,,,true,1,11396501,0,0,0,0,,,book,0,0,0,0,0,0.00,,,,0,0,Shaemas O. Sheel,,,,,,,0,,
11397501,1603181679,Relatively Crazy,9781603181679,,,,ES,,,,true,6,8436207,96,43,10,8,2010/4/10,,,3,7,0,0,0,4.30,,,,1,0,Ellen Dye,,,,,,83,3,,
11398501,1850587876,Born Under a Grange End Star,9781850587873,,,,ES,2002/1/1,Sigma Leisure,,false,1,11398501,0,0,0,0,2002/1/28,,,0,0,0,0,0,0.00,126,Unknown Binding,,0,0,David Collins,,,,,,,0,,
11399001,0756929377,The Red Rose Box,9780756929374,,,,ES,2003/12/1,Perfection Learning,,false,11,314326,467,889,227,45,2002/1/1,The Red Rose Box,book,72,82,59,10,4,3.92,136,Hardcover,,0,0,Brenda Woods,,,,,,162,12,3,"childrens,family,fiction,historical,historical-fiction,history,middle-grade,realistic-fiction,relationships,school,young-adult"
11400001,1402142080,In Lincoln Green: A Merrie Tale Of Robin Hood,9781402142086,,,,ES,,,,false,2,11400001,9,3,1,1,,,book,0,0,1,0,0,3.00,,,,1,0,Edward Gilliat,,,,,,6,1,,
11400501,1846943701,Finding Your Other Half: The Ultimate Game of Hide and Seek,9781846943706,,,,ES,2010/8/16,O Books,,false,1,11400501,0,0,0,0,2010/8/16,,,0,0,0,0,0,0.00,134,Paperback,,0,0,Declan Kerr,,,,,,,0,,
11402001,1611044545,Ethan Frome,9781611044546,,,,ES,2011/2/2,Readaclassic.com,eng,false,822,5246,149076,332002,98126,4769,1911/1/1,Ethan Frome,book,19305,28803,28450,13347,8221,3.38,90,Paperback,Unabridged,0,0,Edith Wharton,,,,,,34451,992,1081,"adult,adult-fiction,american,classic-literature,classics,drama,fiction,high-school,historical,historical-fiction,literary-fiction,literature,novella,novels,realistic-fiction,romance,school,short-stories,tragedy,young-adult"
11403001,,Si Rusa Bertanduk Cantik,,,,,ES,,Galeri Ilmu Sdn Bhd,msa,false,1,11403001,1,5,1,0,,,book,1,0,0,0,0,5.00,,,,1,0,Zulina Hassan,,,,,,,1,,
11403501,061535033X,Straining to Parallel Park in an Empty Field: A series of interruptions on the way to getting somewhere.,9780615350332,,,,ES,2010/1/1,YMMSBILYA Press,,true,1,11403501,1,3,1,0,2010/1/1,,,0,0,1,0,0,3.00,,ebook,,1,0,Jessica Kane,,,,,,,0,,
11404001,,The Best of John W. Campbell,2940012078964,,,,ES,,,,true,4,757764,581,846,214,18,1976/1/1,The Best of John W. Campbell,book,68,87,43,13,3,3.95,,,,0,0,John W. Campbell Jr.,,,,,,298,19,6,"adventure,anthologies,dystopia,fiction,horror,post-apocalyptic,science-fiction,short-stories,speculative-fiction,suspense"
11404501,,The Lost Prince,2940011903052,,,,ES,,,,true,195,646351,5405,9031,2365,163,1915/1/1,The Lost Prince,book,743,772,593,192,65,3.82,,,,0,0,Frances Hodgson Burnett,,,,,,2401,19,184,"adventure,childrens,classic-literature,classics,fantasy,fiction,historical,historical-fiction,juvenile,middle-grade,mystery,novels,school,young-adult"
11405001,0134534980,Improvising Jazz,9780134534985,,,,ES,,,,false,6,1062414,166,271,71,5,1986/9/15,Improvising Jazz (A Fireside Book),book,15,32,20,4,0,3.82,,,,1,0,Jerry Coker,,,,,,8,1,10,"music,reference,textbooks"
11405501,1617396389,Charlie Horse Down by the River,9781617396380,,,,ES,2011/3/22,Tate Publishing & Enterprises,,false,2,11405501,0,0,0,0,2011/3/22,,,0,0,0,0,0,0.00,,Paperback,,0,0,Janna Bierschwale,,,,,,,0,,
11406501,8887469571,Corrispondenza di guerra per codardi,9788887469578,,,,ES,2010/1/1,GCE,ita,false,9,241457,1089,2111,577,79,2005/6/6,War Reporting for Cowards,book,103,233,189,45,7,3.66,336,Paperback,,1,0,Chris Ayres,,,,Simone Garzella,,371,13,16,"biography,biography-memoir,business,historical,history,humor,memoir,non-fiction,school,travel,war"
11407001,1411442938,"The Candy Country; and, How They Ran Away",9781411442931,,,,ES,2011/2/1,Barnes & Noble,eng,true,2,8105150,18,10,4,1,2008/4/28,,book,0,1,1,1,1,2.50,68,ebook,,0,0,Louisa May Alcott,,,,,,10,1,,"childrens,classics,fantasy,short-stories"
11407501,1455831530,Yankee Clipper and the Adventure of the Golden Sphinx: A Radio Dramatization,9781455831531,,,,ES,2011/10/11,The Colonial Radio Theatre on Brilliance Audio,,false,2,11407500,7,17,5,1,2011/10/11,,,1,1,2,1,0,3.40,,Audio CD,,1,1,,,J.T. Turner,,,,2,0,,adventure
11408001,059304052X,The Monkey House,9780593040522,,,,ES,1996/12/31,Not Avail,,false,18,217463,267,395,119,13,1996/1/1,The Monkey House,book,14,34,50,18,3,3.32,286,Unknown Binding,,0,0,John Fullerton,,,,,,100,4,8,"crime,fiction,historical-fiction,mystery,novels,thriller,war"
11408501,0307761312,Mistler's Exit,9780307761316,,,,ES,2010/12/8,Ballantine Books,,true,9,45381,174,278,85,10,1998/1/1,Mistler's Exit,book,11,21,36,14,3,3.27,224,ebook,,0,0,Louis Begley,,,,,,50,6,1,"american,fiction,historical-fiction,novels"
11409501,,Daughters of the Revolution,,B004G60EPA,,,ES,,,,true,6,9789850,1283,1045,399,106,2011/1/1,,,20,53,134,139,53,2.62,,,,13,2,Carolyn Cooke,,,,,,781,12,11,"contemporary,education,feminism,fiction,gay,historical,historical-fiction,novels,sociology,unfinished"
11410001,,Λοστρέ,9789600335354,,,,ES,2003/1/1,Καστανιώτης,gre,false,1,11410001,410,1053,275,11,2003/1/1,,book,77,107,68,13,10,3.83,334,Paperback,,275,11,"Lenos Christidis,Λένος Χρηστίδης",,,,,,84,0,3,"european-literature,fiction,funny,humor,literature,novels,politics"
11411501,1554695651,A Puppy Is for Loving,9781554695652,,,,ES,2007/1/1,Orca Book Publishers,,true,7,8519334,31,36,8,2,2007/1/1,,book,5,2,1,0,0,4.50,32,ebook,,2,0,Mary Labatt,,,,,,13,1,,childrens
11412501,0012071927,"Psmith in the City (Psmith, #2)",,,,,ES,,,eng,true,129,149812,4359,11741,2889,218,1910/1/1,Psmith in the City,book,974,1228,588,96,3,4.06,,,,0,0,P.G. Wodehouse,,,,,,836,27,65,"adult-fiction,british-literature,classics,comedy,fiction,funny,historical-fiction,humor,literature,novels"
11413501,1607082942,A Prophetic History: Part One,9781607082941,,,,ES,2010/4/1,Morningstar Publications (NC),,false,1,11413501,54,60,15,2,2010/4/1,,,6,5,3,0,1,4.00,173,Paperback,,15,2,Rick Joyner,,,,,,35,1,,"history,spirituality"
11415001,1445012596,Dark Matter,9781445012599,,,,ES,2011/5/1,ISIS Audio Books,eng,false,32,8350864,17728,33178,8382,1190,2010/10/21,Dark Matter,book,2590,3417,1895,395,85,3.96,6,DVD Audio,Unabridged,0,0,Michelle Paver,,,,,,8250,110,150,"adult,adult-fiction,adventure,contemporary,drama,fantasy,fiction,ghosts,gothic,historical,historical-fiction,history,horror,lgbt,mystery,novels,paranormal,supernatural,suspense,thriller"
11415501,1615457453,The Evil Genius,9781615457458,,,,ES,2009/7/1,,,false,1,295739,796,1163,330,41,1886/1/1,The Evil Genius: A Domestic Story,book,57,102,132,35,4,3.52,,,,0,0,Wilkie Collins,,,,,,366,9,9,"american,british-literature,classics,criticism,english-literature,family,fiction,gothic,historical,historical-fiction,literature,mystery,novels,romance,school,victorian"
11416501,0117014524,Churches In Retirement: A Gazetteer,9780117014527,,,,ES,1990/5/1,H.M.S.O.,,false,1,11416501,2,6,2,1,1990/5/1,,,0,0,2,0,0,3.00,,Paperback,,2,1,Redundant Churches Fund,,,,,,,0,,
11418001,9010054012,De terugkeer van Martin Guerre,,,,,ES,1995/1/1,Elsevier.,,false,32,333301,4993,10873,2946,207,1983/1/1,Le retour de Martin Guerre,book,647,1095,911,232,61,3.69,144,Paperback,,3,0,Natalie Zemon Davis,,,,,,1261,39,41,"academic,biography,biography-memoir,classics,college,crime,feminism,fiction,france,grad-school,historical,historical-fiction,history,literature,medieval,mystery,non-fiction,novels,school,textbooks,true-crime,war"
11419001,,"NASCAR Kids ""My NASCAR Colors and Shapes Book""",,,,,ES,,Bendon Publishing International,,false,1,11419001,4,0,0,0,,,book,0,0,0,0,0,0.00,,,,0,0,,"Lance Raichert,Paul E. Nunn",,,,,2,0,,
11420001,,Barshalder 1. A cemetery in Gr,2940024300800,,,,ES,,,,true,1,11420001,2,0,0,0,,,,0,0,0,0,0,0.00,,,,0,0,Martin Rundkvist,,,,,,1,0,,
11421001,0525169059,Notes In Hand,9780525169055,,,,ES,,,,false,4,1791157,19,38,9,2,,Notes in Hand,book,5,3,0,0,1,4.22,,,,0,0,Claes Oldenburg,,,,,,7,0,,"art,non-fiction"
11421501,9758904086,Büyücüler Loncası Tanışma (Kara Büyücü Serisi #2),,,,,ES,2007/1/1,Laika Yayıncılık,tur,false,2,12196069,81,183,45,1,2001/1/1,The Magicians' Guild,book,18,14,11,2,0,4.07,218,Paperback,,10,0,Trudi Canavan,,,,Egemen Görçek,,12,0,,"epic-fantasy,fantasy"
11422001,072168288X,Respiratory Care Exam Review: Review for the Entry Level and Advanced Exam,9780721682884,,,,ES,2000/8/1,Saunders,,false,4,8081468,187,129,29,1,2000/4/1,,,19,7,1,1,1,4.45,250,Paperback,,1,0,Gary Persing,,,,,,118,0,7,reference
11424001,3899644271,Die hellen Tage,9783899644272,,,,ES,,Audiobuch OHG,ger,false,14,10453436,1368,2879,734,67,2011/1/1,Die hellen Tage,book,277,233,140,58,26,3.92,7,Audiobook,,6,2,Zsuzsa Bánk,,,,,,431,10,56,"contemporary,drama,family,feminism,fiction,love"
11424501,0595335683,The Corcoran Affair,9780595335688,,,,ES,2004/12/1,iUniverse,,false,3,11424501,1,4,1,1,2004/12/1,,,0,1,0,0,0,4.00,164,Paperback,,1,1,philip lentz,,,,,,,0,,
11425001,0333087836,Portrait in a Mirror,9780333087831,,,,ES,1929/1/1,Macmillan,eng,false,4,11425001,36,54,14,2,1929/1/1,Portrait in a Mirror,book,4,5,4,1,0,3.86,320,Hardcover,,13,2,Charles Morgan,,,,,,14,0,,
11425501,,Priscilla juniors' crochet book; models and directions for crocheting adapted to girls from 8 to 12 years,2940023174853,,,,ES,,,,true,9,11425501,2,0,0,0,2013/10/3,,,0,0,0,0,0,0.00,,,,0,0,Belle Robinson,,,,,,1,0,,
11426501,,alnaho,2940038972147,,,,ES,,,,true,1,11426501,0,0,0,0,,,,0,0,0,0,0,0.00,,,,0,0,Asti Kurniawati,,,,,,,0,,
11427001,,The Blue Fairy Book,,B0045OUOOO,,,ES,,,,true,37,543164,24434,34481,8478,307,1887/1/1,The Blue Fairy Book,book,3418,2853,1715,342,150,4.07,,,,0,0,Andrew Lang,,,,,,13074,48,1346,"amazon,anthologies,childrens,classics,collections,fairy-tales,fantasy,fiction,juvenile,literature,magic,mythology,non-fiction,reference,romance,school,short-stories,unfinished,victorian,young-adult"
11427501,,A NEW CONVERSATION GRAMMAR OF THE GERMAN LANGUGAGE,2940023802961,,,,ES,,,,true,1,11427501,0,0,0,0,,,,0,0,0,0,0,0.00,,,,0,0,Augustus Boltz,,,,,,,0,,
11428001,4576110632,"闇を照らす恋人 (ブラック・ダガー・ブラザーフッド, #4)",9784576110639,,,,ES,2011/5/23,二見書房,jpn,false,56,42898,156648,489442,113694,4224,2007/3/6,Lover Revealed,book,58274,36056,15799,2886,679,4.30,712,Paperback,,2,0,J.R. Ward,,,,,,9645,507,1101,"action,adult,adult-fiction,chick-lit,contemporary,dark,erotica,fantasy,fiction,new-adult,paranormal,romance,supernatural,suspense,urban-fantasy,vampires"
11428501,0937548030,Exploring the Sea,9780937548035,,,,ES,1982/6/1,Plexus Publishing (NJ),,false,1,11428501,0,0,0,0,1982/6/28,,,0,0,0,0,0,0.00,152,Hardcover,,0,0,John C. Fine,,,,,,,0,,
11429501,,Double Entry,,B003WMA6HA,,,ES,,,,true,3,11429501,11,15,3,1,2009/9/3,,,3,0,0,0,0,5.00,,,,3,1,Quan Williams,,,,,,7,0,,
11430501,,Treasure Island,2940012422675,,,,ES,,,,true,3487,295,551805,1346189,351694,9487,1882/1/28,Treasure Island,book,97532,130048,96372,21479,6263,3.83,,,,0,0,Robert Louis Stevenson,,,,,,131134,720,19252,"action,adventure,british-literature,childrens,classic-literature,classics,english-literature,fantasy,fiction,historical,historical-fiction,history,juvenile,literary-fiction,literature,middle-grade,novels,school,thriller,victorian,young-adult"
11431501,0203199561,Critical Dictionary of Sociology,9780203199565,,,,ES,,,,true,10,4319770,15,8,2,0,1982/1/1,,,0,2,0,0,0,4.00,,,,0,0,"François Bourricaud,Raymond Boudon",,,,,,7,0,,sociology
11432001,,"People Of Babel (Ark Chronicles, #3)",2940012485021,,,,ES,,,eng,true,3,9193703,219,585,147,2,2010/6/10,People Of Babel,book,47,60,30,10,0,3.98,,,,1,0,Vaughn Heppner,,,,,,47,0,10,"christianity,historical-fiction"
11432501,,Men at Birth,9781921462238,,,,ES,2011/5/1,Finch Publishing,eng,false,4,7763965,35,68,15,2,2006/1/1,,,10,3,2,0,0,4.53,212,Paperback,2nd,3,1,,,,David Vernon,,,16,0,,
11433001,,"Rossale: a tale : Ceilia and Nora, or the warning and other pieces in rhyme",2940022894820,,,,ES,,,,true,1,11433001,0,0,0,0,,,,0,0,0,0,0,0.00,,,,0,0,Emilia Munro,,,,,,,0,,
11435001,0786104767,Enchanted April,9780786104765,,,,ES,1994/9/1,Blackstone Audiobooks,,false,263,3077,31691,53690,13583,2012,1922/1/1,The Enchanted April,book,4356,5298,3058,673,198,3.95,,Audiobook,,0,0,Elizabeth von Arnim,,,,,,15472,129,721,"adult,adult-fiction,british-literature,chick-lit,classic-literature,classics,contemporary,cultural,drama,fiction,historical,historical-fiction,humor,literary-fiction,literature,modern-classics,novels,relationships,romance,travel"
11436001,,Stages: An Autobiography,,B004DNWFVW,,,ES,,,,true,4,8905513,73,158,44,5,2010/8/15,,,12,10,15,6,1,3.59,,,,7,0,Jay Osmond,,,,,,22,0,2,"autobiography,biography,non-fiction"
11437001,9794079073,Sejarah Bengkulu 1500-1990,,,,,ES,1996/1/1,Balai Pustaka,ind,false,1,11437001,10,13,3,0,1996/1/1,,book,1,2,0,0,0,4.33,190,Paperback,1st ed.,3,0,Abdullah Siddik,,,,,,7,0,,history
11437501,,The Sorcerer's Songs,2940011909245,,,,ES,,,,true,4,8673854,34,25,5,6,2010/7/19,,,5,0,0,0,0,5.00,,,,0,0,Kiki Howell,,,,,,23,0,,paranormal
11438501,1456755811,I Am Sea Glass: A Collection of Poetic Pieces,9781456755812,,,,ES,2011/4/26,Authorhouse,,false,2,11438501,1,0,0,0,2011/4/26,,book,0,0,0,0,0,0.00,52,Paperback,,0,0,Richard     Morgan,Pat Morgan,,,,,,0,1,
11439501,1609690060,Waterproof Bible-NLT,9781609690069,,,,ES,2010/8/30,Bardin & Marsee Pub,,false,3,11069572,5,18,4,0,2010/11/1,,,2,2,0,0,0,4.50,759,Paperback,,1,0,,,,,,,,0,1,
11441001,,The Story Of The Mind (Illustrated Edition),,B004TRUE60,,,ES,,,,true,42,11441001,237,193,57,1,1899/1/1,,book,11,15,21,5,5,3.39,,,,52,1,James Mark Baldwin,,,,,,124,8,44,"academic,non-fiction,philosophy,psychology"
11442001,0896215199,Winter Grass,9780896215191,,,,ES,1983/12/31,Thorndike Press,,false,6,5971512,29,89,23,3,1983/1/1,Winter Grass,,6,9,7,1,0,3.87,350,Hardcover,Large Print,0,0,Richard S. Wheeler,,,,,,2,0,,historical-fiction
11442501,1609109228,ICU Mom: 40 Days and Nights in a Pediatric Intensive Care Unit,9781609109226,,,,ES,2011/3/31,Booklocker.com,,false,1,11442501,2,5,1,0,2011/3/31,,,1,0,0,0,0,5.00,326,Paperback,,1,0,Maureen Leonard Thomas,,,,,,,0,,memoir
11443501,0193694301,Symphony No. 8: Study Score,9780193694309,,,,ES,1969/3/31,"Oxford University Press, USA",,false,1,11443501,0,0,0,0,1969/3/31,,,0,0,0,0,0,0.00,96,Paperback,,0,0,,,,,,,,0,,
11444001,1740937376,The Gulf Conspiracy,9781740937375,,,,ES,2006/12/1,Bolinda Publishing,,false,16,1269901,387,745,191,17,2004/1/1,The Gulf Conspiracy,book,50,86,45,6,4,3.90,,Audio CD,,2,1,Ken McClure,,,,,John Keogh,135,11,6,"crime,fiction,medical,mystery,realistic-fiction,thriller,war"
11444501,,"Codice di procedura penale italiano, commentato da Giuseppe Borsani e Luigi Casorati ..",2940035743757,,,,ES,,,,true,7,11444496,0,0,0,0,,,,0,0,0,0,0,0.00,,,,0,0,Giuseppe Borsani,,,,,,,0,,
11445001,1456527363,There's a Hole in the Sky: Tracking Down God in the Company of the de-Churched,9781456527365,,,,ES,2011/4/11,Createspace,,false,1,11445001,2,0,0,0,2011/4/11,,,0,0,0,0,0,0.00,230,Paperback,,0,0,Terry Giles,,,,,,1,0,,
11445501,,In Brazil you would say 'Universo Paralello (Twisted travel tales Book 1),,B004YEMTHA,,,ES,,,,true,1,11445501,7,11,3,1,2011/4/27,,,2,0,0,0,1,3.67,,,,3,1,Bryce W. James,,,,,,3,0,,
11446001,,"Absolution (Suspense Series, #5)",2940012303615,,,,ES,,,eng,true,6,9692233,2545,4812,1127,86,2010/10/26,"Absolution (Suspense Series, #5)",book,566,364,144,41,12,4.27,,,,4,3,Kaylea Cross,,,,,,1128,11,42,"action,adult,chick-lit,contemporary,fiction,love,romance,suspense,war"
11446501,2265039527,Attaque Subterrestre,9782265039520,,,,ES,,,,false,1,11446501,3,1,1,0,1988/1/1,,,0,0,0,0,1,1.00,,,,1,0,Max-André Rayjean,,,,,,2,0,,
11448001,0203831918,Disability and New Media,9780203831915,,,,ES,2011/5/11,Routledge,,true,11,10826000,16,15,3,1,2010/12/17,Disability and New Media,book,3,0,0,0,0,5.00,184,ebook,,0,0,"Katie Ellis,Mike   Kent",,,,,,11,0,,
11450001,,"A Grand Duchess: The Life of Anna Amalia, Duchess of Saxe-Weimar-Eisenach, and the Classical ...",2940023783079,,,,ES,,,,true,1,11450001,0,0,0,0,,,,0,0,0,0,0,0.00,,,,0,0,Frances A. Gerard,,,,,,,0,,
11451001,0409324477,Investigative Interviewing Explained,9780409324471,,,,ES,2008/1/1,Butterworth-Heinemann,,false,3,11451001,2,5,2,0,1999/2/1,,,0,0,1,1,0,2.50,138,Paperback,,2,0,Brian Ord,,,,,,,0,,
11451501,,OCCULT CHEMISTRY Clairvoyant Observations on the Chemical Elements,2940012406682,,,,ES,,,,true,53,541058,304,256,68,5,1919/1/1,Occult Chemistry Clairvoyant Observations on the Chemical Elements,book,26,16,15,6,5,3.76,,,,0,0,"Annie Besant,Charles W. Leadbeater",,,,,,169,2,27,"classics,magic,non-fiction,personal-development,philosophy,psychology,science,self-help,spirituality"
11452001,0385676093,Inside WikiLeaks: My Time with Julian Assange at the World's Most Dangerous Website,9780385676090,,,,ES,2012/2/14,Doubleday Canada,,false,46,10068893,2019,3539,1068,133,2011/1/1,Inside WikiLeaks,book,116,312,467,137,36,3.31,224,Paperback,,0,0,Daniel Domscheit-Berg,,,,,,672,15,50,"autobiography,biography,biography-memoir,contemporary,film,history,memoir,non-fiction,politics,technology"
11452501,0785150951,Thor: Black Galaxy Saga,9780785150954,,,,ES,2011/8/3,Marvel,,false,1,11452501,59,87,26,8,2011/8/3,,,0,11,13,2,0,3.35,232,Paperback,,26,8,Ron Frenz,,,,,,22,2,1,"comics,graphic-novels,marvel,superheroes"
11453001,0814908020,Solti: The Art of the Conductor,9780814908020,,,,ES,1979/12/1,Vanguard Press,,false,3,3839408,2,4,1,0,1979/1/28,Solti (Art of the conductor),book,0,1,0,0,0,4.00,168,Hardcover,,0,0,Paul A. Robinson,,,,,,1,0,,
11453501,0688011942,Rodeo: The Great American Sport,9780688011949,,,,ES,,,,false,2,5135561,1,0,0,1,1982/1/1,Rodeo: The Great American Sport,,0,0,0,0,0,0.00,,,,0,0,Murray Tinkelman,,,,,,,0,,
11454001,1453584218,The Power of Choice,9781453584217,,,,ES,2010/10/8,Xlibris Corporation,,false,1,11454001,2,0,0,0,2010/10/8,,,0,0,0,0,0,0.00,86,Paperback,,0,0,Kristy Burrus,,,,,,2,0,,
11454501,,"Hidden (Otherworld Stories, #10.6)",,,,,ES,2011/12/28,Subterranean Press,eng,false,4,10853751,7794,17910,4177,258,2011/1/1,Hidden,book,2021,1465,590,74,27,4.29,200,Leather Bound,Signed Limited Edition; ISBN:1596064234,13,5,Kelley Armstrong,Angilram,,,,,2646,40,16,"adult,adult-fiction,contemporary,fantasy,fiction,graphic-novels,horror,magic,mystery,novella,paranormal,romance,shapeshifters,short-stories,supernatural,urban-fantasy,vampires,werewolves,witches,young-adult"
11455501,3596901375,Das Erdbeben in Chili und andere Erzählungen,9783596901371,,,,ES,,,ger,false,3,11455501,19,12,4,1,,,book,0,1,2,1,0,3.00,,Paperback,,3,1,Heinrich von Kleist,,,,,,6,1,1,"classics,short-stories"
11456001,,"Nyal cook book, practical recipes that have been tested in actual use",2940021760089,,,,ES,,,,true,5,20314980,1,0,0,0,2008/10/1,,book,0,0,0,0,0,0.00,,,,0,0,Janet McKenzie Hill,,,,,,1,1,,
11456501,1615078347,"Holy Cow and Ed, Too!",9781615078349,,,,ES,2011/4/16,CrossBooks Publishing,,false,1,11456501,2,5,1,1,2011/4/16,,,1,0,0,0,0,5.00,92,Paperback,,1,1,Ginny Knight-Simon,,,,,,1,0,,
11457001,3548373461,Einspruch!: Das große Buch der Rechtsirrtümer,9783548373461,,,,ES,2010/1/1,Ullstein Taschenbuchvlg,ger,false,2,11457001,13,32,8,1,2010/1/1,,book,1,6,1,0,0,4.00,,Paperback,,8,1,Ralf Höcker,,,,,,3,0,,
11457501,1607506408,Human Language Technologies: The Baltic Perspective: Proceedings of the Fourth International Conference Baltic Hlt 2010,9781607506409,,,,ES,,,,false,1,11457501,0,0,0,0,,,,0,0,0,0,0,0.00,,,,0,0,Inguna Skadina,,,Andrejs Vasiljevs,,,,0,,
11458501,,Ein Mann will nach oben: Die Frauen und der Träumer,,B004TQQZ0K,,,ES,2011/1/1,Aufbau,ger,true,24,1490740,250,519,126,13,1953/1/1,Ein Mann will nach oben: Die Frauen und der Träumer,book,41,63,18,4,0,4.12,764,,,3,0,Hans Fallada,,,,,,91,3,8,"classics,contemporary,fiction,historical,history,novels"
11460001,0806132949,North American Box Turtles: A Natural History,9780806132945,,,,ES,2001/6/10,University of Oklahoma Press,,false,2,40803,29,71,16,0,2001/7/1,North American Box Turtles: A Natural History (Animal Natural History Series),,9,5,2,0,0,4.44,364,Hardcover,,1,0,C. Kenneth Dodd Jr.,,,,,,9,0,1,science
11460501,,Unknown Book 11460501,,,,,ES,,,,false,1,11460501,0,0,0,0,,,,0,0,0,0,0,0.00,,,,0,0,Unknown,,,,,,,0,,
11461001,0913546968,Knowledge of Freedom: Time to Change (Nyingma psychology series),9780913546963,,,,ES,,,,false,3,2083780,45,79,20,0,1984/1/1,Knowledge of Freedom: Time to Change (Nyingma Psychology Series),,7,6,6,1,0,3.95,,,,0,0,Tarthang Tulku,,,,,,19,0,1,"non-fiction,philosophy,religion,spirituality"
11461501,,Every Head Bowed,,B00528I6DI,,,ES,,,,true,1,11461501,17,10,2,0,2011/5/22,,book,2,0,0,0,0,5.00,,ebook,,2,0,Beverly  Taylor,,,,,,15,0,,
11462001,,"The three voyages of Martin Frobisher [microform]: in search of a passage to Cathaia and India by the North-West, A.D. 1576-8 : reprinted from the first edition of Hakluyt's Voyages : with selections from manuscript documents in the British Museum and St",2940027476786,,,,ES,,,,true,15,1033023,4,10,3,0,2005/8/17,"The Three Voyages of Martin Frobisher, in Search of a Passage to Cathay and India by the North-West, A.D. 1576-8",book,0,1,2,0,0,3.33,,,,0,0,George  Best,,,,,,,0,,
11464001,,The Wind in the Willows,,B004P1J4XE,,,ES,,,,true,1619,5659,275162,638330,160172,5031,1908/10/8,The Wind in the Willows,book,59191,54228,35199,8312,3242,3.99,,,,1,0,Kenneth Grahame,,,,,,84835,724,5523,"adventure,animals,british-literature,chapter-books,childrens,classic-literature,classics,fantasy,fiction,humor,juvenile,literature,middle-grade,novels,school,young-adult"
11465001,1854792059,It's Not Unusual: History Of Lesbian And Gay Britain In The Twentieth Century,9781854792051,,,,ES,1997/1/1,Michael O'Mara Books Ltd,en-GB,false,4,5003463,90,70,19,1,1997/3/7,It's Not Unusual: A History of Lesbian and Gay Britain in the Twentieth Century,book,3,8,7,1,0,3.68,224,Hardcover,Television tie-in edition,2,0,Alkarim Jivani,,,,,,54,2,,"gay,historical,history,lgbt,non-fiction,queer,reference,research"
11465501,078876103X,"Not Dead, Only Resting (Charles Paris Series #10)",9780788761034,,,,ES,,,,false,12,2140118,337,658,179,13,1984/9/1,"Not Dead, Only Resting: A Charles Paris Mystery (Charles Paris Mysteries)",book,29,75,66,6,3,3.68,,,,0,0,Simon Brett,,,,,,97,8,5,"cozy-mystery,crime,detective,fiction,france,murder-mystery,mystery,mystery-thriller"
11467501,0983160619,Picasso in Barcelona,9780983160618,,,,ES,2011/2/1,Paper Kite Press,,false,2,11467501,8,14,3,2,2011/2/1,,,2,1,0,0,0,4.67,96,Paperback,,3,1,Bob Holman,,,,,,3,0,,poetry
11468001,7214064235,Master Your Metabolism,9787214064233,,,,ES,2010/9/1,Jiang Su Ren Min Chu Ban She,,false,20,6240114,7335,14224,3836,545,2009/1/1,Master Your Metabolism: The 3 Diet Secrets to Naturally Balancing Your Hormones for a Hot and Healthy Body!,book,913,1345,1196,309,73,3.71,,Paperback,,2,0,Jillian Michaels,,,,,,257,35,315,"adult,cookbooks,cooking,food,health,medical,non-fiction,reference,self-help"
11468501,9706906819,Sangre Azteca,9789706906816,,,,ES,,,,false,17,79167,2606,5374,1429,56,2001/8/18,Aztec Blood,book,384,497,402,114,32,3.76,,,,1,0,Gary Jennings,,,,,,530,10,31,"adventure,fantasy,fiction,historical,historical-fiction,history,novels"
11469001,0891126473,What Jesus Said about the Holy Spirit: And How It Applies to Your Life,9780891126478,,,,ES,2010/7/1,ACU Press/Leafwood Publishers,,false,3,11469001,5,18,4,0,2010/7/1,,,2,2,0,0,0,4.50,,Paperback,,4,0,Tim Woodroof,,,,,,1,0,,
11471001,,Frat Slut: Bottoms Up (Book Two),,B004PLO9RK,,,ES,,,,true,4,11471001,4,6,2,0,2011/2/26,,book,0,1,0,1,0,3.00,,,,2,0,Bree Sanders-Summers,,,,,,2,0,,
11471501,3426198029,Die Expedition,9783426198025,,,,ES,2010/10/4,,ger,false,1,11471501,18,30,7,1,2010/10/4,Die Expedition,book,4,1,2,0,0,4.29,,Hardcover,,7,1,Monika Bittl,,,,,,9,1,,historical
11472501,,Revue philosophique de Louvain,2940031720257,,,,ES,,,,true,4,11529286,0,0,0,0,,,,0,0,0,0,0,0.00,,,,0,0,"Societe philosophique de Louvain,Universite catholique de Louvain (1835-1969)",,,,,,,0,,
11473001,9781456078,"Trips of Daisy, a journey through a thousand days of deployment",,,,,ES,2011/7/24,PublishAmerica,eng,false,1,11473001,1,0,0,0,2011/7/24,,book,0,0,0,0,0,0.00,130,Paperback,First,0,0,Susan Oliver Nelson,,,,,,1,0,,
11474001,0929600568,"Acceptability of Risk from Radiation - Application to Human Space Flight: Application to Human Space Flight: Held May 29, 1996, Arlington, Virginia",9780929600567,,,,ES,,,,false,1,11474001,0,0,0,0,1997/4/1,,,0,0,0,0,0,0.00,,,,0,0,National Research Council,,,,,,,0,,
11475501,3941923072,Wikinger-Geschichten f?r Kinder: Geschichten-Sonderausgabe,9783941923072,,,,ES,,,,true,1,11475501,0,0,0,0,2009/12/1,,,0,0,0,0,0,0.00,,,,0,0,"Mathias Weber,Rolf Krenzer,Stephen Janetzko",,,,,,,0,,
11476001,,"Appendices to the sermon preached by the Rev. E.B. Pusey, D.D. on the fifth of November, 1837: containing I. An explanation of points mistaken by the author of Passive obedience contrary to the Holy Scripture, II. Remarks on the Revolution of 1688, and t",2940017723593,,,,ES,,,,true,8,7919708,0,0,0,0,2009/4/9,,,0,0,0,0,0,0.00,,,,0,0,Edward Bouverie Pusey,,,,,,,0,,
11476501,1619262312,Bald Eagle (Zeus's Pack #7),9781619262317,,,,ES,2012/1/7,"Siren-Bookstrand, Inc.",eng,true,3,11476501,1414,4159,1008,32,2012/1/7,,book,418,342,210,33,5,4.13,125,ebook,,919,31,Lynn Hagen,,,,,,128,6,11,"abuse,adult,contemporary,dark,demons,erotica,fantasy,fiction,gay,menage,mystery,paranormal,romance,shapeshifters,supernatural,urban-fantasy,vampires,werewolves"
11477001,4106036665,Kahei Shinkaron: Seichō Naki Jidai No Tsūka Shisutemu,9784106036668,,,,ES,,,,false,1,11477001,1,0,0,0,2010/1/1,,,0,0,0,0,0,0.00,,,,0,0,"Mitsuru Iwamura,Ryūta Kamiya",,,,,,1,0,,
11479001,0543961966,La Dégringolade: Tome 2. Les Maillefert (French Edition),9780543961969,,,,ES,,,,false,7,13266582,3,7,2,0,1871/1/1,La Dégringolade - Tome 2/3,book,0,1,1,0,0,3.50,,,,0,0,Émile Gaboriau,,,,,,,0,1,fiction
11479501,1903254647,"Cinema Sewer, Vol. 3",9781903254646,,,,ES,2011/9/5,FAB Press,,false,1,11479501,118,346,74,3,2011/7/29,,book,53,18,3,0,0,4.68,192,Paperback,,74,3,,,,Robin Bougie,,,34,3,1,"adult,art,comics,film,horror,humor,movies,non-fiction,reference"
11480001,9513523217,Kaasukammion varjossa: suomalaiskohtaloita Stutthofin kuolemanleirillä,9789513523213,,,,ES,1980/1/1,,fin,false,1,11480001,18,24,7,0,1980/1/1,,book,1,3,2,0,1,3.43,309,Hardcover,,7,0,Oskar Reponen,,,,,,7,0,,non-fiction
11480501,,Psicopatologia della vita quotidiana,,,,,ES,2011/5/1,RCS Quotidiani,ita,false,220,132449,12181,14242,3688,144,1904/1/1,Zur Psychopathologie des Alltagslebens ,book,1109,1335,947,219,78,3.86,328,Hardcover,"Biblioteca della Mente, 1",4,2,Sigmund Freud,,,,Maria Novella Pierini,,6959,16,399,"academic,classics,essays,non-fiction,philosophy,psychology,science,sociology,unfinished"
11483501,,Dis,,B0052UWT2U,,,ES,,,,true,3,11483501,17,63,15,10,2011/5/25,,,6,6,3,0,0,4.20,,,,14,9,Margo Lerwill,,,,,,1,1,,"paranormal,urban-fantasy"
11485001,,A Book of Myths: With 16 Original Illustrations (b&w),2940012328106,,,,ES,,,,true,37,1527654,166,154,41,3,1915/1/1,Book of Myths,book,8,17,14,2,0,3.76,,,,0,0,Jean Lang,,,,,,15,3,27,"adult,classics,fantasy,history,mythology,reference,short-stories"
11486001,1564323706,"""They beat me like a dog""",,,,,ES,,,,false,1,11486001,0,0,0,0,,,,0,0,0,0,0,0.00,,,,0,0,Human Rights Watch,,,,,,,0,,
11486501,902541320x,Mevrouw Mao (Pandora),9789025413200,,,,ES,2002/1/1,Contact,nl,false,39,9750,7864,14991,4214,364,2000/6/1,Becoming Madame Mao,book,788,1480,1366,453,127,3.56,320,Paperback,,2,0,Anchee Min,,,,,,2801,12,116,"adult,adult-fiction,biography,biography-memoir,contemporary,cultural,feminism,fiction,historical,historical-fiction,history,literary-fiction,literature,memoir,non-fiction,novels,politics,romance"
11487001,,"Priestess of the White (Age of the Five, #1)",,B003E1M6T0,,,ES,2010/1/7,Orbit,eng,true,19,28248,24207,54759,14189,446,2005/10/26,Priestess of the White,book,4253,5218,3479,946,293,3.86,,,,213,1,Trudi Canavan,,,,,,6419,38,320,"adult,adult-fiction,adventure,epic,epic-fantasy,fantasy,fiction,high-fantasy,magic,novels,religion,romance,science-fiction-fantasy,unfinished,young-adult"
11487501,5852201049,Эротические танки,9789661553032,,,,ES,1991/3/15,"Москва ""Панорама""",rus,false,2,11487501,12,14,4,2,1991/3/15,,book,1,2,0,0,1,3.50,64,Paperback,,3,1,Рубоко Шо,,,,,,7,0,,
11488001,,The Varieties of Religious Experience,2940000714751,,,,ES,,,,true,422,28820,28930,36352,9007,396,1901/1/1,The Varieties of Religious Experience: A Study in Human Nature,book,3570,3088,1679,443,227,4.04,,,,0,0,William James,,,,,,16978,49,1394,"academic,american,anthropology,christian,christianity,classics,college,essays,faith,history,literature,non-fiction,philosophy,psychology,reference,religion,science,sociology,spirituality,theology,unfinished"
11489501,3540442510,Dateien Und Datenbanken: Eine Anwendungsorientierte Einfuhrung,9783540442516,,,,ES,2003/3/17,Springer,,false,2,14723160,0,0,0,0,1989/3/28,,,0,0,0,0,0,0.00,370,Paperback,,0,0,Markus Lusti,,,,,,,0,,
11490501,,Album der Tiedge-stiftung: Gaben deutscher Schriftsteller gesammelt und hrsg. Von dem Comit,2940034012274,,,,ES,1843/1/1,,,true,1,11490501,0,0,0,0,1843/1/1,,book,0,0,0,0,0,0.00,,,,0,0,Tiedge-Stiftung,,,,,,,0,,
11491001,0768929806,Master the GMAT--Analytical Writing Assessment,9780768929805,,,,ES,2010/6/1,Peterson's,,true,2,8685818,3,0,0,0,2010/6/1,,,0,0,0,0,0,0.00,,ebook,,0,0,"Mark Alan Stewart,Peterson's",,,,,,1,0,1,
11491501,0062109928,"The Thackery T. Lambshead Cabinet of Curiosities: Exhibits, Oddities, Images, and Stories from Top Authors and Artists",9780062109927,,,,ES,2011/7/12,HarperCollins e-books,,true,4,9466840,3217,2304,637,91,2011/7/1,The Thackery T. Lambshead Cabinet of Curiosities,book,138,219,198,62,20,3.62,336,ebook,,0,0,"Ann VanderMeer,Jeff VanderMeer",,,,,,1903,15,8,"anthologies,art,fantasy,fiction,horror,non-fiction,paranormal,science,science-fiction,short-stories,speculative-fiction,steampunk,supernatural,unfinished,urban-fantasy"
11492001,0615442536,The Respect Dare,9780615442532,,,,ES,2011/2/22,Greater Impact Publishing,,false,9,14287149,870,1023,252,26,2009/1/1,,,116,67,46,14,9,4.06,,Paperback,,36,4,Nina Roesner,,,,,,362,8,147,"christian,christianity,faith,family,inspirational,marriage,non-fiction,parenting,psychology,relationships,religion,self-help"
11492501,,C,2940031068786,,,,ES,,,,true,1,11492501,0,0,0,0,,,,0,0,0,0,0,0.00,,,,0,0,Jean Augustin Bost,,,,,,,0,,
11493001,,Bd 1.: Die bewohnte Insel [u.a.],,B004OVF0PG,,,ES,,,,true,7,15852992,257,766,169,1,1987/1/1,,book,108,44,16,1,0,4.53,,,,2,0,"Arkady Strugatsky,Boris Strugatsky",,,,,,48,5,8,"dystopia,fantasy,fiction,horror,novels,science-fiction"
11493501,1451647581,"The Life of Greece (Story of Civilization, Vol 2)",9781451647587,,,,ES,2011/6/7,Simon  Schuster,,true,28,174730,3492,5654,1307,123,1939/1/1,"The Story of Civilization, Part II: The Life of Greece",book,658,456,159,29,5,4.33,756,ebook,,13,0,Will Durant,,,,,,1192,23,147,"american,art,classics,historical,history,mythology,non-fiction,philosophy,politics,reference,religion,science"
11495501,,The Expositor's Greek Testament,2940033356546,,,,ES,,Hodder and Stoughton (London),eng,true,17,3340160,40,37,8,1,1897/1/1,The Expositor's Greek Testament,book,5,3,0,0,0,4.62,,,,0,0,,,,,,,13,3,2,"language,reference,theology"
11496001,1550812092,Horsy-Hops,9781550812091,,,,ES,2003/11/1,Breakwater Books Ltd. ,,false,2,11496000,6,8,2,0,2003/11/1,,,0,2,0,0,0,4.00,,Hardcover,,1,0,Anthony Barton,,,,,,1,0,,
11497501,0708881866,Sector General,9780708881866,,,,ES,1983/1/1,Orbit,eng,false,6,1701289,542,1260,308,12,1983/1/1,Sector General,book,104,136,60,8,0,4.09,196,Paperback,,14,2,James White,,,,,,88,18,,"adult,fiction,funny,medical,science,science-fiction,science-fiction-fantasy,short-stories"
11498501,0115509933,Let's Go Out,9780115509933,,,,ES,1991/12/1,Bernan Press(PA),,false,1,11498501,0,0,0,0,1991/12/1,,,0,0,0,0,0,0.00,64,Paperback,,0,0,Jan Gridley-Sigsworth,,,,,,,0,,
11499501,,"History of the town of Hampton Falls, New Hampshire: from the time of the first settlement within its borders, 1640 until 1900",2940021101103,,,,ES,,,,true,4,11499501,2,0,0,0,2010/1/10,,,0,0,0,0,0,0.00,,,,0,0,Warren Brown,,,,,,2,0,,
11500001,,Recipes From a Messy Kitchen,2940012485571,,,,ES,,,,true,2,11500001,0,0,0,0,2011/4/28,,book,0,0,0,0,0,0.00,,,,0,0,J.D.   Peterson,,,,,,,0,,
11500501,0865931968,Aguilas,9780865931961,,,,ES,2002/4/1,Rourke Publishing (FL),,false,3,11500501,1,0,0,0,1993/6/1,Aves (Depredadores),book,0,0,0,0,0,0.00,24,Hardcover,,0,0,Lynn M. Stone,,,,,,,1,,
11501001,,The Pravda Messenger,,B002MB96HI,,,ES,,,,true,6,6002127,88,119,33,8,2009/8/21,Pravda Messenger: A Novel,book,3,17,11,1,1,3.61,,,,2,1,"Alton Gansky,Robert Cornuke",,,,,,25,2,1,"christian,christian-fiction,contemporary,fiction,historical,historical-fiction,mystery,religion,suspense,thriller"
11501501,143437291X,Waterfalls in My Backyard: Central and Western New York State,9781434372918,,,,ES,2008/3/11,Authorhouse,,false,1,11501501,0,0,0,0,2008/3/1,,,0,0,0,0,0,0.00,64,Paperback,,0,0,Grey T. Larison,,,,,,,0,,
11502001,1592241433,Red Eve,9781592241439,,,,ES,2003/5/29,Wildside Press,,false,15,2351287,267,353,98,10,1911/1/1,,book,22,29,35,10,2,3.60,228,Paperback,,0,0,H. Rider Haggard,,,,,,139,2,10,"action,adventure,british-literature,classics,english-literature,fiction,historical-fiction,horror,medieval,novels"
11502501,0615456537,Make the Rules or Your Rivals Will,9780615456539,,,,ES,,,,false,6,177469,92,89,27,3,2004/4/20,Make the Rules or Your Rivals Will,book,6,6,6,8,1,3.30,,,,1,0,"Richard Shell,Richard Shell",,,,,,54,0,7,"business,education"
11503001,141967658X,AFSANA,9781419676581,,,,ES,2007/11/6,BookSurge Publishing,,false,1,11503001,2,0,0,0,2007/10/24,,book,0,0,0,0,0,0.00,38,Paperback,,0,0,Vineet Mohan,,,,,,,0,,
11503501,903454771X,De gele ballon,9789034547712,,,,ES,2007/1/1,Malmberg,nl,false,6,363636,266,697,161,37,2003/1/1,De gele ballon,book,86,49,22,1,3,4.33,28,Paperback,,15,2,Charlotte Dematons,,,,,,58,5,1,"adventure,art,childrens,fantasy,fiction,nature,picture-books,school"
11504001,,Animal Farm,2940012253453,,,,ES,,,,true,1262,170448,3143409,9035999,2310380,44680,1945/8/1,Animal Farm: A Fairy Story,book,793598,813047,482167,147752,73816,3.91,,,,1,1,George Orwell,,,,,,594244,5530,17115,"adult,adult-fiction,animals,british-literature,classic-literature,classics,drama,dystopia,english-literature,fantasy,fiction,high-school,historical,historical-fiction,history,literary-fiction,literature,modern-classics,novella,novels,philosophy,politics,school,science-fiction,young-adult"
11504501,,Unknown Book 11504501,,,,,ES,,,,false,1,11504501,1,0,0,0,,,,0,0,0,0,0,0.00,,,,0,0,Unknown,,,,,,,0,,
11507501,,A history and description of the collie or sheep dog in his British varieties,2940021511704,,,,ES,,,,true,5,11507501,0,0,0,0,2010/1/4,,,0,0,0,0,0,0.00,,,,0,0,Rawdon Briggs Lee,,,,,,,0,,
11508001,,Studies on the time course of salinity and temperature adaptation in the commercial brown penaeus aztecus ives: final report,2940030591902,,,,ES,,,,true,1,11508001,0,0,0,0,,,,0,0,0,0,0,0.00,,,,0,0,U.S. Army Corps of Engineers,,,,,,,0,,
11508501,0132596423,Is a New Bigger Bubble Coming?,9780132596428,,,,ES,2010/9/29,FT Press,,true,3,9464306,2,3,1,0,2010/9/29,,,0,0,1,0,0,3.00,11,ebook,,0,0,John Authers,,,,,,1,0,,
11509001,1459208269,"Private Justice (The Kelley Legacy, #1)",9781459208261,,,,ES,2011/7/1,Harlequin Books,,true,11,11049195,146,145,45,7,2011/1/1,Private Justice,book,5,9,23,7,1,3.22,224,ebook,Harlequin Romantic Suspense,0,0,Marie Ferrarella,,,,,,78,11,3,"adult,contemporary,erotica,fiction,harlequin,love-story,romance,suspense"
11509501,,"The Empress File (Kidd & LuEllen, #2)",,,,,ES,2008/1/1,,eng,true,14,567945,7505,17630,4458,153,1991/4/1,The Empress File,book,1369,1767,1105,185,32,3.95,,ebook,,5,0,"John Camp,John Sandford",,,,,,1371,19,190,"action,adult,crime,detective,fiction,mystery,mystery-thriller,novels,suspense,thriller"
11510501,,The rock tombs of El Amarna,2940022874372,,,,ES,,,,true,22,2580108,18,21,5,1,2010/1/28,The Rock Tombs Of El-Amarna: The Tomb Of Meryre/The Tombs Of Panehesy And Meyra II,,1,4,0,0,0,4.20,,,,0,0,Norman De Garis Davies,,,,,,8,0,,history
11511501,1584159529,Design Your Family Tree,9781584159520,,,,ES,2011/7/15,Mitchell Lane Publishers,,false,1,11511501,6,19,5,1,2011/7/15,,,1,2,2,0,0,3.80,47,Hardcover,,5,1,Amie Jane Leavitt,,,,,,1,0,,"middle-grade,non-fiction"
11512001,,الإسناد من الدين وصفحة مشرقة من تاريخ سماع الحديث عند المحدثين,,,,,ES,,,ara,false,2,11342616,90,75,18,1,,,book,10,2,5,1,0,4.17,,,,0,1,عبد الفتاح أبو غدة,,,,,,63,0,2,
11512501,0830610278,Building Model Airplanes from Scratch,9780830610273,,,,ES,,,,false,1,11512501,1,0,0,0,1978/9/1,,,0,0,0,0,0,0.00,,,,0,0,H. D. Jackson,,,,,,1,0,,
11513001,,Portraits,,,,,ES,,,,false,2,11513001,12,15,3,0,,,book,3,0,0,0,0,5.00,,,,3,0,Vasudeo Kamath,,,,,,8,0,,
11513501,,Where's Unimportant,2940012478382,,,,ES,,,,true,4,11823157,117,66,17,15,2011/5/2,Where's Unimportant,book,3,9,5,0,0,3.88,,,,5,4,Daniel Shortell,,,,,,90,-2,2,fiction
11514001,,The Burning Season (Joe Hannibal Mystery #1),,B004ZCJ8HU,,,ES,,,eng,false,3,2182792,43,32,9,2,1988/5/1,,book,1,3,5,0,0,3.56,,Hardcover,,2,1,Wayne D. Dundee,,,,,,15,2,,"fiction,mystery-thriller"
11516001,115722086X,"Rolando Alarc n Albums: El mundo folkl rico de Rolando Alarc n, Por Cuba y Vietnam, Canciones de la Guerra Civil Espa ola",9781157220862,,,,ES,,,,false,1,11516001,1,0,0,0,2010/5/28,,,0,0,0,0,0,0.00,,,,0,0,Books LLC,,,,,,1,0,,
11517001,0897325427,Peaceful Places: Boston: 121 Tranquil Sites in the City and Beyond,9780897325424,,,,ES,2011/12/13,Menasha Ridge Press,,false,3,11517001,6,10,2,0,2011/12/13,,,2,0,0,0,0,5.00,240,Paperback,,1,0,Lynn Schweikart,,,,,,1,0,,
11517501,115749904X,"Pakistani Guitarists: Salman Ahmad, Shallum Asher Xavier, Asad Ahmed, Ali Alam, Qurram Hussain, Fareed Haque, Aamir Zaki, Sarmad Abdul Ghafoor",9781157499046,,,,ES,,,,false,1,11517501,-1,5,1,0,2010/5/31,,,1,0,0,0,0,5.00,,,,1,0,Books LLC,,,,,,3,0,,
11518001,1554695252,Reckless,9781554695256,,,,ES,2010/3/1,Orca Book Publishers,,true,6,7861708,81,115,29,8,2010/1/1,,,9,10,10,0,0,3.97,112,ebook,,0,0,Lesley Choyce,,,,,,29,3,6,"fiction,realistic-fiction,school,war,young-adult"
11519001,1459202341,"The Cowboy's Triplets (Callahan Cowboys, #1)",9781459202344,,,,ES,2011/5/1,Harlequin American Romance,,true,6,11094625,648,1065,266,17,2011/5/1,The Cowboy's Triplets,book,110,77,54,20,5,4.00,,ebook,Harlequin American Romance #1354,3,0,Tina Leonard,,,,,,277,15,9,"american,comedy,contemporary,family,fiction,harlequin,humor,romance"
11520001,,"Biblioteca modenese, o, Notizie della vita e delle opere degli scrittori natii degli stati del ...",2940035774492,,,,ES,,,,true,4,11519998,0,0,0,0,,,,0,0,0,0,0,0.00,,,,0,0,Girolamo Tiraboschi,,,,,,,0,,
11521001,389500698X,Brunnen In Den Stadten Des Westlichen Romischen Reiches,9783895006982,,,,ES,2010/3/31,Reichert Verlag,,false,1,11521001,0,0,0,0,2010/3/11,,,0,0,0,0,0,0.00,185,Paperback,,0,0,Andrea Schmoelder-Veit,,,,,,,0,,
11522001,0960562400,Experiencing Jewish Boston,9780960562404,,,,ES,,,,false,1,11522001,0,0,0,0,1981/5/1,,,0,0,0,0,0,0.00,,,,0,0,Brigite S. Grossman,,,,,,,0,,
11523501,1841001619,Art Class: A Beginner's Complete Guide to Painting and Drawing,9781841001616,,,,ES,1999/3/1,Quadrillion Media LLC,,false,4,5140645,25,12,3,0,1950/1/1,Art Class: A Beginner's Complete Guide to Painting and Drawing,book,1,1,1,0,0,4.00,240,Paperback,,0,0,,,,Ken Howard,,,7,0,2,"art,reference"
11524501,1442443111,The Canterwood Crest Stable of Books: Take the Reins; Chasing Blue; Behind the Bit; Triple Fault,9781442443112,,,,ES,2011/7/26,Aladdin,,true,4,12403343,339,799,170,9,2011/7/26,,book,135,23,8,4,0,4.70,1088,ebook,,4,0,Jessica Burkhart,,,,,,121,5,9,fiction
11525001,,The 17 Day Slow Cooker Diet Recipes,2940012889805,,,,ES,,,,true,2,11305151,0,0,0,0,2011/4/24,,,0,0,0,0,0,0.00,,,,0,0,Marion Mead,,,,,,,0,,
11525501,,The boy hikers homeward bound,2940017917961,,,,ES,,,,true,6,26959894,0,0,0,0,2008/10/1,,,0,0,0,0,0,0.00,,,,0,0,Chelsea Curtis Fraser,,,,,,,0,,
11526001,1612190502,"Hollywood Economist 2.0, The",9781612190501,,,,ES,,,,false,4,11526001,425,682,177,15,,,,39,83,46,8,1,3.85,,,Revised Edition,128,13,Edward Jay Epstein,,,,,,152,7,23,"business,economics,film,modern,movies,non-fiction,school,unfinished,writing"
11526501,0746046251,"Light, Sound And Electricity",9780746046258,,,,ES,,,,false,3,2122106,10,20,6,0,2001/1/1,"Light, Sound and Electricity (Internet-linked Library of Science)",,1,2,1,2,0,3.33,,,,1,0,"Alastair Smith,Kirsteen Rogers,P. Clarke",,,,,,1,1,,science
11527501,0551009470,Ten Principles of a Happy Marriage,9780551009479,,,,ES,,,,false,1,11527501,3,4,1,0,2000/2/29,,,0,1,0,0,0,4.00,,,,1,0,Selwyn Hughes,,,,,,1,0,,
11528001,0872330702,Chocorua and Other Poems,9780872330702,,,,ES,1983/1/1,William L. Bauhan,,false,1,11528001,1,5,1,0,1983/6/28,,,1,0,0,0,0,5.00,114,Paperback,,1,0,"Cedric Hubbell Whitman,Robert Fitzgerald",,,,,,,0,,
11528501,9788389533,"Emanuelle, Bianca",,,,,ES,2009/1/1,Wydawnictwo Mireki,pol,false,1,11528501,32,49,13,0,2009/1/1,"Emanuelle Bianca, una storia eccessiva",book,2,6,5,0,0,3.77,372,Hardcover,,13,0,Guido Crepax,,,,,,14,0,2,
11529001,037389743X,Prisionera En El Paraiso,9780373897438,,,,ES,2011/8/2,Harlequin,,false,19,9457762,204,271,85,8,2010/1/1,,book,10,15,45,11,4,3.19,160,Paperback,,3,0,Trish Morey,,,,,,36,10,4,"adult,classics,contemporary,harlequin,romance"
11529501,,La piedra lunar,9788484502784,,,,ES,2008/1/1,DeBolsillo,spa,false,994,6138,115853,260434,66674,3884,1868/8/1,The Moonstone,book,20745,25491,15284,3739,1415,3.91,718,Paperback,,101,14,Wilkie Collins,,,,,,57232,326,2380,"adult,adult-fiction,adventure,british-literature,classic-literature,classics,crime,detective,english-literature,fiction,gothic,historical,historical-fiction,literary-fiction,literature,mystery,mystery-thriller,novels,romance,school,suspense,thriller,unfinished,victorian"
11530001,,"Memoranda relating to the family of Forbes of Waterton; from a ms. of the deceased John Forbes. (b. 1754, who was served heir to the last Thomas Forbes of Waterton in 1775), and is now printed solely for the use of members of the family",2940020586826,,,,ES,,,,true,3,11530001,0,0,0,0,2010/9/4,,,0,0,0,0,0,0.00,,,,0,0,John Forbes,,,,,,,0,,
11530501,,The Mountain Top,9781604352504,,,,ES,,,,true,4,26136499,1,1,1,1,2015/1/8,,book,0,0,0,0,1,1.00,60,,,0,0,Jennifer   Mueller,,,,,,,0,,
11531001,,Adolfo. Cecília,,,,,ES,1957/1/1,Portugália Editora,por,false,3,11531001,20,36,11,1,1957/1/1,,book,0,5,4,2,0,3.27,270,Paperback,,4,0,Benjamin Constant,,,,,,6,0,,
11531501,0733324282,Wayne Bennett: The Man in the Mirror,9780733324284,,,,ES,2009/5/1,ABC Books,eng,false,3,11531501,84,151,37,3,2009/5/1,,book,13,17,5,1,1,4.08,384,Hardcover,,37,3,"Steve Crawley,Wayne Bennett",,,,,,35,0,2,"biography,non-fiction"
11532001,,"Angel (Wyoming, #3)",,B00512LSNK,,,ES,2011/6/21,HarperCollins,eng,true,19,412939,9390,25048,6162,155,1992/12/1,"Angel (Wyoming, #3)",book,2452,2018,1388,248,56,4.06,420,,,271,7,Johanna Lindsey,,,,,,1694,25,58,"adult,adult-fiction,american,chick-lit,drama,family,fiction,historical,historical-fiction,love,romance"
11533001,0387068287,Control Mechanisms of Drinking,9780387068282,,,,ES,,,,false,4,15962937,1,0,0,0,1975/3/24,,,0,0,0,0,0,0.00,,,,0,0,"G. Peters,J. T. Fitzsimmons,L. Peters-Haefeli",,,,,,1,0,,
11534001,071908010X,Pageantry and Power: A Cultural History of the Early Modern Lord Mayor's Show 1585-1639,9780719080104,,,,ES,2011/1/15,Manchester University Press,,false,1,11534001,3,8,2,0,2011/1/15,,,0,2,0,0,0,4.00,320,Hardcover,,2,0,Tracey Hill,,,,,,1,0,,
11534501,,A Malazan Book of the Fallen Collection 3,,B0035OC80S,,,ES,,,,true,2,11534501,244,385,85,2,2009/11/1,,book,57,20,5,2,1,4.53,,Kindle Edition,,77,1,Steven Erikson,,,,,,88,8,1,"drama,fantasy,fiction,high-fantasy,paranormal,supernatural"
11535501,,La Espada Del Inmortal 26,,,,,ES,,Ediciones Glénat,spa,false,7,9801535,45,121,29,2,2010/5/21,,,10,15,3,1,0,4.17,240,Paperback,Seinen Manga,10,0,Hiroaki Samura,,,,,,5,1,,"action,historical,historical-fiction,manga"
11536001,1406894761,The Right Knock,9781406894769,,,,ES,2010/1/26,Echo Library,,false,9,20573787,4,2,1,0,2009/2/1,,,0,0,0,1,0,2.00,180,Paperback,,0,0,Helen Van-Anderson,,,,,,2,1,1,
11537001,8467403780,Viet Blues (Alack Sinner #3),9788467403787,,,,ES,2004/4/1,Planeta DeAgostini,,false,6,11537001,38,89,22,2,1986/1/1,Alack Sinner: Viet Blues,book,7,10,4,1,0,4.05,128,Paperback,,15,0,Carlos Sampayo,José Muñoz,,,,,10,0,,"crime,fiction"
11540001,115765245X,"Battles Involving Bulgaria: Battle of Adrianople, Battle of Varna, Belgrade Offensive, Monastir Offensive, Vienna Offensive, Battle of Velbazhd",9781157652458,,,,ES,2011/8/12,"Books LLC, Wiki Series",,false,1,11540001,0,0,0,0,2010/6/5,,,0,0,0,0,0,0.00,,Paperback,,0,0,Books LLC,,,,,,,0,,
11541001,9623272782,Vietnamese Bible: Cadman Version,9789623272780,,,,ES,,,,false,1,11541001,1,0,0,0,,,,0,0,0,0,0,0.00,,,,0,0,Anonymous,,,,,,,0,,
11542001,0511994478,"Bombay Islam: The Religious Economy of the West Indian Ocean, 1840-1915",9780511994470,,,,ES,,,,true,8,8975634,79,62,16,2,2011/1/1,,,3,8,5,0,0,3.88,,,,0,0,Nile Green,,,,,,54,0,4,"history,non-fiction,religion,research,school"
11543001,0203023323,Tiny Revolutions in Russia,9780203023327,,,,ES,,,,true,9,322392,35,66,16,2,2005/1/1,Tiny Revolution Russia: Twentieth Century Soviet and Russian History in Anecdotes and Jokes (Routledgecurzon Studies on the History of Russia and Eastern Europe),,8,3,4,1,0,4.12,,,,0,0,Bruce Adams,,,,,,14,0,2,history
11543501,,A Ghost of a Chance,,,,,ES,2011/6/22,Resplendence Publishing,eng,true,6,11543501,67,82,21,12,,,,5,11,3,2,0,3.90,150,Kindle Edition,First,20,11,Minnette Meador,,,,,,46,3,1,"contemporary,fiction,ghosts,paranormal,romance"
11544501,1416985433,"The Hidden (The Hollow, #3)",9781416985433,,,,ES,2011/9/6,Simon Pulse,,true,15,9918128,18118,35435,8548,616,2011/9/6,,book,4170,2278,1458,457,185,4.15,400,ebook,,18,3,Jessica Verday,,,,,,7880,56,105,"classics,contemporary,death,fantasy,fiction,ghosts,gothic,horror,love,magic,mystery,novels,paranormal,romance,supernatural,teen,urban-fantasy,young-adult"
11545501,3828977677,Nobiltà / In Sachen Signora Brunetti. Zwei Romane in einem Band,9783828977679,,,,ES,2006/1/1,Weltbild,ger,false,1,11545501,14,25,6,0,,A Noble Radiance / Fatal Remedies,book,2,3,1,0,0,4.17,511,Unknown Binding,,6,0,"Donna Leon,Monika Elwenspoek",,,,,,2,0,,
11546001,1436309484,The Mourning,9781436309486,,,,ES,,,,false,1,11546001,1,0,0,0,,,,0,0,0,0,0,0.00,,,,0,0,Sandra Rains,,,,,,1,0,,
11546501,0571233015,The Flying Fizzler,9780571233014,,,,ES,2008/7/3,Faber  Faber,,false,1,11546501,8,16,4,1,2008/7/3,,book,2,0,2,0,0,4.00,257,Paperback,,4,1,Tim   Walker,,,,,,1,0,,
11547001,1456011804,My Quiet Life,9781456011802,,,,ES,2011/2/4,America Star Books,,false,1,11547001,0,0,0,0,2011/2/4,,,0,0,0,0,0,0.00,148,Paperback,,0,0,Deeann Miller,,,,,,,0,,
11548001,0615369618,Nicky Epstein's Enchanting Collection,9780615369617,,,,ES,,,,false,1,11548001,7,4,1,0,,,,0,1,0,0,0,4.00,,,,1,0,Nicky Epstein,,,,,,4,0,,
11548501,8420489506,Traves,9788420489506,,,,ES,,,,true,14,60034,498,916,272,33,1972/1/1,Travesia del horizonte,book,23,91,126,27,5,3.37,,,,1,0,Javier Marías,,,,,,149,3,5,"drama,fiction,juvenile,language,literature,novels,victorian,writing"
11549001,3839110149,Sophie und das Geheimnis der alten Villa,9783839110140,,,,ES,2009/7/6,Books on Demand,,false,1,11549001,0,0,0,0,2009/7/6,,,0,0,0,0,0,0.00,128,Paperback,,0,0,Sabine Timmer-Brockmeyer,,,,,,,0,,
11552501,1446646521,Ten More Days,9781446646526,,,,ES,2010/11/28,Lulu.com,,false,1,11552501,0,0,0,0,2010/11/28,,,0,0,0,0,0,0.00,340,Paperback,,0,0,Wolter SMIT,,,,,,,0,,
11553001,,"A Scots earl in Covenanting times: being life and times of Archibald, 9th earl of Argyll (1629-1685)",2940017344019,,,,ES,,,,true,17,11552994,2,0,0,0,2008/4/28,"A Scots Earl in Covenanting Times; Being Life and Times of Archibald, 9th Earl of Argyll, 1629-1685",book,0,0,0,0,0,0.00,,,,0,0,John Willcock,,,,,,1,0,1,
11556001,8840006222,Parigi Nell'occhio Di Maigret,9788840006222,,,,ES,,,,false,1,11556001,5,7,2,0,2000/1/1,,,0,1,1,0,0,3.50,,,,2,0,Marco Vitale,,,,,,1,0,,
11556501,954260355X,"Големият лош вълк (Алекс Крос, #9) ",,,,,ES,2005/1/1,Хермес,bul,false,23,6588,73996,175720,44071,1051,2003/10/13,The Big Bad Wolf  ,book,14203,17485,10349,1684,350,3.99,320,Paperback,,14,0,James Patterson,,,,,,12141,51,575,"action,adult,adult-fiction,american,crime,detective,fiction,murder-mystery,mystery,mystery-thriller,psychology,suspense,thriller"
11557501,1895997062,Investigating Statistics with the TI-92,9781895997064,,,,ES,,,,false,1,11557501,1,0,0,0,1996/10/16,,,0,0,0,0,0,0.00,,,,0,0,Brendan Kelly,,,,,,,0,,
11560001,,"Catalogue of the manuscripts in the library of Trinity College, Dublin, to which is added a list of the Fagel collection of maps in the same library; complied by T.K. Abbott",2940027330125,,,,ES,,,,true,3,11560001,0,0,0,0,,,,0,0,0,0,0,0.00,,,,0,0,Trinity College Dublin Ireland,,,,,,,0,,
11560501,,"Le lutin couleur de feu, ou, Mes tablettes d'une ann",2940028136870,,,,ES,,,,true,1,11560501,0,0,0,0,,,,0,0,0,0,0,0.00,,,,0,0,Georges Touchard-Lafosse,,,,,,,0,,
11563501,,تو مشغول مردن ات بودي ,,,,,ES,,,,false,3,6809674,1296,2353,680,50,2009/1/1,تو مشغول مردن‌ات بودی,book,118,216,234,85,27,3.46,,,,12,2,محمدرضا فرزاد,,,,,,158,3,17,"art,collections,literature,poetry,unfinished"
11564001,088962447X,Maria B,9780889624474,,,,ES,,,,false,1,11564001,0,0,0,0,,,,0,0,0,0,0,0.00,,,,0,0,Marion Andre,,,,,,,0,,
11566001,1552371395,Surrena's Choice,9781552371398,,,,ES,,,,false,1,11566001,0,0,0,0,1997/5/15,,,0,0,0,0,0,0.00,,,,0,0,Paul Susan,,,,,,,0,,
11568501,,True Detective Stories,,B004TPFY7Q,,,ES,,,,true,6,11568501,366,495,145,8,2007/10/1,,,30,35,50,25,5,3.41,,,,123,4,Cleveland Moffett,,,,,,114,0,80,"crime,fiction,history,mystery,non-fiction"
11569001,,Days of Darkness: The Feuds of Eastern Kentucky,,B002WC9CY4,,,ES,1994/11/15,The University Press of Kentucky,eng,true,7,1377865,195,190,53,9,1994/11/15,Days of Darkness: The Feuds of Eastern Kentucky,book,9,17,24,2,1,3.58,240,,,7,0,John Ed Pearce,,,,,,113,2,12,"american-history,history,non-fiction,psychology,research"
11570501,9004169253,Solomon's Vineyard: Literary and Linguistic Studies in the Song of Songs,9789004169258,,,,ES,2009/12/14,Brill Academic Publishers,,false,2,7445213,7,7,2,1,2009/12/31,,book,0,1,1,0,0,3.50,168,Hardcover,,0,0,"Gary A. Rendsburg,Scott Noegel",,,,,,3,0,,
11571001,,Return of the Runaway Bride,2940012929396,,,,ES,,,,true,1,6322397,1339,2061,596,72,1994/2/1,Return Of The Runaway Bride,book,113,162,230,67,24,3.46,,,,1,1,"Donna Clayton,Donna Fasano",,,,,,541,28,24,"amazon,chick-lit,contemporary,fiction,novella,romance"
11571501,,Hotel No Tell (Zephyr Zuckerman #2),,B004J4WK5Q,,,ES,,,eng,true,5,10046958,321,499,148,48,2011/1/1,,book,20,51,52,14,11,3.37,,,,6,0,Daphne Uviller,,,,,,138,13,3,"adult,chick-lit,cozy-mystery,fiction,funny,humor,mystery,mystery-thriller,romance"
11572001,0310877601,"Covenant: God's Purpose, God's Plan",9780310877608,,,,ES,2010/8/10,Zondervan,,true,3,5870427,70,99,26,0,1994/5/26,Covenant,,3,15,8,0,0,3.81,,ebook,,0,0,John H. Walton,,,,,,36,0,4,"christianity,non-fiction,religion,theology"
11573001,,Becoming Nancy,,B004VS7DUM,,,ES,,,,true,4,10936727,350,660,171,38,2011/4/9,,book,53,63,38,12,5,3.86,,,,11,0,Terry Ronald,,,,,,143,9,3,"adult-fiction,biography,fiction,gay,lgbt,queer,romance,unfinished,young-adult"
11573501,,"Calendar of the State Papers relating to Scotland and Mary, Queen of Scots 1547-1603, Vol. IV, A ...",2940023901688,,,,ES,,,,true,2,23070369,2,0,0,0,2014/5/14,,book,0,0,0,0,0,0.00,,,,0,0,William K. Boyd,,,,,,2,0,,
11579501,,True Tails,2940012204394,,,,ES,,,,true,4,12077966,11,15,3,0,2010/2/13,,book,3,0,0,0,0,5.00,,,,0,0,"J.H. Soeder,Lynne Pembroke",,,,,,5,0,,
11580501,1155398599,"Six Flags Theme Parks: Six Flags Great Adventure, Six Flags Great America, Six Flags Magic Mountain, Six Flags New England",9781155398594,,,,ES,2011/8/16,"Books LLC, Wiki Series",,false,1,11580501,0,0,0,0,2010/5/3,,,0,0,0,0,0,0.00,,Paperback,,0,0,Source Wikipedia,,,,,,,0,,
11582001,,The Afterlife,,B003K16PQE,,,ES,,,,true,9,54387,2935,5211,1518,317,2003/1/1,The Afterlife,book,346,399,437,238,98,3.43,,,,17,0,Gary Soto,,,,,,966,18,110,"american,contemporary,death,family,fantasy,fiction,ghosts,high-school,novels,paranormal,poetry,realistic-fiction,romance,school,supernatural,teen,young-adult"
11587001,,The Song of Hiawatha ,2940011897498,,,,ES,,,,true,287,780875,5188,9842,2520,196,1855/1/1,The Song of Hiawatha,book,849,835,636,149,51,3.91,,,,0,0,Henry Wadsworth Longfellow,,,,,,1931,33,129,"adventure,american,american-history,biography,childrens,classic-literature,classics,cultural,drama,fantasy,fiction,historical,historical-fiction,history,juvenile,literature,mythology,nature,non-fiction,picture-books,poetry,school,young-adult"
11589001,0153074159,Pe Pract Bk Signatures 97 Gr 3 Bk 1,9780153074158,,,,ES,1999/3/1,,,false,1,11589001,1,0,0,0,1999/3/1,,,0,0,0,0,0,0.00,,Paperback,,0,0,Harcourt Brace,,,,,,1,0,,
11591501,1780050127,Insight Guides Step by Step Sydney,9781780050126,,,,ES,2011/10/1,"APA Publications UK, Ltd",en-GB,false,2,7205942,3,9,2,0,2009/1/1,,book,1,1,0,0,0,4.50,128,Paperback,,0,0,"Insight Guides,Ute Junker",,,,,,,0,,
11592001,,Die Nebenwirkungen der Arzneimittel. Pharmakologisch-klinisches Handbuch,2940033911820,,,,ES,,,,true,10,26448447,0,0,0,0,1899/1/1,,,0,0,0,0,0,0.00,,,,0,0,Louis Lewin,,,,,,,0,,
11595501,006211395X,"The Asylum (The Vampire Diaries: Stefan's Diaries, #5)",9780062113955,,,,ES,2012/1/17,Hodder Children's Books,en-US,false,25,11595501,13729,19082,4617,117,2012/1/1,"The Asylum (The Vampire Diaries: Stefan's Diaries, #5) ",book,2305,1066,908,231,107,4.13,221,Paperback,,4287,99,"Julie Plec,Kevin  Williamson",,,,,,1640,33,77,"fantasy,fiction,horror,magic,mystery,novels,paranormal,romance,supernatural,teen,urban-fantasy,vampires,werewolves,witches,young-adult"
11597001,0785148329,Thor: Heaven & Earth,9780785148326,,,,ES,2011/12/7,Marvel,,false,3,11597001,103,206,58,15,2011/12/7,,book,12,19,16,11,0,3.55,112,Hardcover,,56,14,,,,,,,24,5,,"christian-fiction,comics,fantasy,fiction,graphic-novels,historical-fiction,marvel,superheroes"
11598001,0615485928,The Corruption of Capitalism: A Strategy To Rebalance The Global Economy And Restore Sustainable Growth,9780615485928,,,,ES,,,,false,4,7569304,107,112,29,2,2009/12/14,,,8,13,4,4,0,3.86,,,,2,1,Richard Duncan,,,,,,67,1,6,"economics,non-fiction,personal-development"
11598501,096318458X,In Search of Eternal Light: A Revealing True Life Story About Humanity's Rarest Discoveries Still Unrecognized by Science and Most Religions,9780963184580,,,,ES,,,,false,1,11598501,1,1,1,0,1992/6/1,,,0,0,0,0,1,1.00,,,,1,0,Victor Brickus,,,,,,,0,,
11599501,8425347149,La cocina actual de la Casa de Alba,9788425347146,,,,ES,,,,true,1,11599501,1,0,0,0,2011/4/29,,,0,0,0,0,0,0.00,,,,0,0,Eva Celada,,,,,,,0,,
11603501,031049379X,Making Sense of Man and Sin: One of Seven Parts from Grudem's Systematic Theology,9780310493792,,,,ES,2011/2/1,Zondervan,,true,5,9855829,34,32,7,0,2011/1/25,Making sense of man and sin,book,5,1,1,0,0,4.57,128,ebook,,0,0,Wayne Grudem,,,,,,21,1,1,"christian,non-fiction,theology"
11604501,,101 Ways to Score Higher on Your LSAT: What You Need to Know About the Law School Admission Test Explained Simply,2940012491251,,,,ES,,,,true,4,6100874,6,10,5,2,2008/11/6,101 Ways to Score Higher on Your LSAT: What You Need to Know About the Law School Admission Test Explained Simply,book,0,0,2,1,2,2.00,,,,0,0,Linda C. Ashar,,,,,,,1,,
11605501,,Just Desserts (Bed-and-Breakfast Mysteries #1),,B001U0RDB8,,,ES,,,,false,11,553752,5649,10039,2704,134,1991/1/1,Just Desserts,book,732,843,828,222,79,3.71,,,,0,0,Mary Daheim,,,,,,2374,11,64,"adult,adult-fiction,american,chick-lit,cozy-mystery,crime,fiction,humor,murder-mystery,mystery,mystery-thriller,unfinished"
11606501,,The Christmas Eve Bride,,B002RI9CF2,,,ES,2009/2/1,Mills & Boon,eng,true,8,6287457,296,620,179,11,2008/12/19,The Christmas Eve Bride,book,35,45,72,22,5,3.46,,,Mills &amp; Boon 100th Birthday Collection #23,41,0,Lynne Graham,,,,,,72,10,3,"christmas,fiction,harlequin,novella,romance"
11608001,,The Memoirs of Sherlock Holmes,2940012567963,,,,ES,,,,true,936,194373,120010,319650,73963,1707,1894/1/1,The Memoirs of Sherlock Holmes,book,36783,26190,9441,1103,446,4.32,,,,0,0,Arthur Conan Doyle,,,,,,34547,232,2290,"adult,adult-fiction,adventure,british-literature,classic-literature,classics,crime,detective,english-literature,fiction,historical,historical-fiction,literature,mystery,mystery-thriller,novels,short-stories,suspense,thriller,victorian"
11609501,1442037776,Copernicus: Founder of Modern Astronomy,9781442037779,,,,ES,,,,false,4,645503,25,37,11,3,1994/1/1,,,1,4,4,2,0,3.36,,,,0,0,Catherine M. Andronik,,,,,,6,2,,"biography,history,non-fiction,science"
11610501,1605923079,Midnight Star,9781605923079,,,,ES,2011/5/1,"Noble Romance Publishing, LLC",,false,7,9661364,180,202,49,7,2010/11/2,Midnight Star,book,23,14,8,3,1,4.12,486,Paperback,,0,0,Billi Jean,,,,,,100,4,5,"contemporary,demons,drama,new-adult,paranormal,romance,shapeshifters,survival,suspense,vampires,werewolves"
11612501,8434580950,Antología,,,,,ES,1982/1/1,Salvat Editores,spa,false,3,11612501,19,36,10,2,1982/1/1,Antología,book,0,6,4,0,0,3.60,174,Paperback,"Biblioteca Básica Salvat, #92",7,0,Gustavo Adolfo Bécquer,,,,,,5,0,,"fantasy,poetry"
11613001,,An estimate of the number and size of dna replicating units in cultured human /hela s3/ cells,2940020492295,,,,ES,,,,true,1,11613001,1,0,0,0,,,,0,0,0,0,0,0.00,,,,0,0,D.A. Jermany,,,,,,1,0,,
11614501,1413018580,The Working Week. Teachers' Notes: Spoken Business English with a Lexical Approach,9781413018585,,,,ES,2007/9/1,"Thomson,",,false,1,11614501,0,0,0,0,2007/9/1,,,0,0,0,0,0,0.00,31,Paperback,,0,0,Morgan Lewis,,,,,,,0,,
11616001,,30 + Projects Using Fat Quarters,,,,,ES,1999/1/1,Leisure Arts,eng,false,1,11616001,3,3,1,1,1999/1/1,,book,0,0,1,0,0,3.00,43,Paperback,,1,1,Leisure Arts Inc.,,,,,,1,0,,non-fiction
11621001,1170807569,"The Rambler. by Samuel Johnson, L.L.D. Volume 1 of 4",9781170807569,,,,ES,2010/6/10,"Gale Ecco, Print Editions",,false,14,2713487,17,23,5,0,2010/6/10,The Rambler: Part 1 (The Works of Samuel Johnson - Volume 1),,4,0,1,0,0,4.60,320,Paperback,,1,0,Samuel Johnson,,,,,,9,3,1,"british-literature,classics,collections,english-literature,essays"
11625001,3805513755,"European Congress on Ballistocardiography and Cardiovascular Dynamics, 8th, Ljubliana, 1971, Vol. 2",9783805513753,,,,ES,,,,false,1,11625001,0,0,0,0,1974/4/28,,,0,0,0,0,0,0.00,,,,0,0,"European Congress on Ballistocardiography and Cardiovascular Dynamics Staf,G. Juznic",,,,,,,0,,
11627501,1434471896,The Road to Oz,9781434471895,,,,ES,2008/5/30,Wildside Press,,false,276,179639,19176,36862,9782,448,1909/1/1,The Road to Oz,book,2691,3174,3015,764,138,3.77,264,Paperback,,0,0,L. Frank Baum,,,,,,6373,76,420,"adventure,american,childrens,classic-literature,classics,fairy-tales,fantasy,fiction,juvenile,literature,magic,middle-grade,novels,science-fiction-fantasy,young-adult"
11629001,1405323833,Digital Photography,9781405323833,,,,ES,2008/6/6,Not Avail,,false,3,1117143,5,0,0,0,2005/10/6,,,0,0,0,0,0,0.00,72,Unknown Binding,,0,0,Alan Buckingham,,,,,,2,0,,
11629501,8877467908,Vedere L'italia,9788877467904,,,,ES,,,,false,1,11629501,5,0,0,0,1995/1/1,,,0,0,0,0,0,0.00,,,,0,0,Hermann Hesse,,,,,,2,0,,
11633001,0205695639,Government by the People,9780205695638,,,,ES,2009/1/2,Longman Publishing Group,,false,93,11333852,271,241,73,7,1952/1/1,,book,13,17,28,9,6,3.30,896,Unbound,,0,0,"David B. Magleby,Paul C. Light",,,,,,116,3,11,"college,education,history,non-fiction,politics,reference,school,textbooks"
11634501,,"Believe in Love: The Life, Ministry and Teachings of John Paul II",2940012302472,,,,ES,,,,true,2,14433804,2,0,0,0,2011/4/13,,,0,0,0,0,0,0.00,,,,0,0,Brendan Leahy,,,,,,,0,,
11635001,0879971290,To Die in Italbar,9780879971298,,,,ES,1974/9/17,DAW,,false,21,1393081,892,1990,544,30,1973/1/1,To Die In Italbar,book,101,215,180,37,11,3.66,,Paperback,,0,0,Roger Zelazny,,,,,,174,16,20,"amazon,fiction,science-fiction,science-fiction-fantasy"
11636501,0060823941,The Informant,9780060823948,,,,ES,2004/11/30,HarperAudio,,false,23,1025114,1580,3214,835,45,1996/9/1,The Informant,book,200,369,218,36,12,3.85,,Audio,Abridged,0,0,"James Grippando,James Naughton",,,,,,394,15,26,"action,adult,crime,detective,fiction,mystery,mystery-thriller,suspense,thriller"
11639501,0545356628,A Girl Named Disaster,9780545356626,,,,ES,2012/1/1,Scholastic Paperbacks,,false,10,133775,7989,16128,4220,485,1996/1/1,A Girl Named Disaster,book,1260,1481,1054,317,108,3.82,336,Paperback,,77,11,Nancy Farmer,,,,,,2526,19,157,"adult,adventure,chapter-books,childrens,classics,cultural,fantasy,feminism,fiction,historical,historical-fiction,history,juvenile,middle-grade,realistic-fiction,school,science-fiction,survival,young-adult"
11641501,0912685042,"Common Values, Common Cause: German Statesmen in the United States, American Statesmen in Germany 1953-1983: Statements and Speeches",9780912685045,,,,ES,,,,false,1,11641501,0,0,0,0,1983/1/1,,,0,0,0,0,0,0.00,,,,0,0,"German Information Center (New York, N.Y.) Staff",,,,,,,0,,
11643001,1156291224,"Members of Direction - Social Democracy: Robert Fico, Du an Galis, Pavol Pa ka, Maro ef ovi , J n Kubi , Sergej Kozl k, Jozef Miga",9781156291221,,,,ES,,,,false,1,11643001,0,0,0,0,2010/5/31,,,0,0,0,0,0,0.00,,,,0,0,Books LLC,,,,,,,0,,
11643501,1411435923,The Renaissance (Barnes & Noble Digital Library),9781411435926,,,,ES,2011/2/1,Barnes & Noble,,true,135,609042,3266,4866,1222,46,1873/1/1,Studies in the history of the renaissance,book,484,375,251,81,31,3.98,252,ebook,,0,0,Walter Pater,,,,,,1713,12,65,"academic,art,biography,british-literature,classics,criticism,essays,fiction,history,literature,non-fiction,philosophy,poetry,reference,victorian,writing"
11647501,0788753150,Slightly Shady,9780788753152,,,,ES,2001/1/1,Recorded Books,,false,40,367690,7198,17211,4523,206,2001/1/1,Slightly Shady,book,1200,1603,1409,261,50,3.81,,Audiobook,,1,1,Amanda Quick,,,,,Barbara Rosenblat,1209,15,96,"adult,adult-fiction,adventure,chick-lit,crime,detective,fiction,historical,historical-fiction,history,mystery,paranormal,regency,romance,suspense,victorian"
11649001,1604864877,Vida,9781604864878,,,,ES,2011/12/12,PM Press,,false,15,157544,1220,2683,702,39,1979/1/1,Vida,book,185,269,196,42,10,3.82,416,Paperback,,14,5,Marge Piercy,,,,,,348,10,10,"feminism,fiction,historical-fiction,history,lgbt,literary-fiction,literature,love,modern-classics,novels,politics,science-fiction"
11652501,,The Brethren Inside the Supreme Cpurt,,B004U7SJ5M,,,ES,,,,false,14,27516,9142,16262,3965,213,1979/1/1,The Brethren: Inside the Supreme Court,book,1437,1669,714,114,31,4.10,,,,2,0,Bob Woodward,,,,,,2503,35,167,"american,american-history,americana,biography,classics,history,non-fiction,politics,school,unfinished"
11655001,1456503820,The Waiting Time: The Love Story of the King and His Bride,9781456503826,,,,ES,2011/5/15,Createspace Independent Publishing Platform,,false,2,11655001,2,5,1,1,2011/5/15,,,1,0,0,0,0,5.00,190,Paperback,,1,1,Evan C. Miller,,,,,,1,0,,
11656501,0768910722,High Stakes: Science 1st Ed,9780768910728,,,,ES,2003/1/18,ARCO,,false,1,11656501,0,0,0,0,2003/1/18,,,0,0,0,0,0,0.00,329,Paperback,,0,0,"Gwen Gordon,Gwen Gordon",,,,,,,0,,
11658001,,El abate Constanín,2940012411945,,,,ES,,Clásico español Novelas,spa,true,62,10025597,45,60,19,3,1882/1/1,L'Abbé Constantin,book,2,2,13,1,1,3.16,,,,0,0,Ludovic Halévy,,,,,,19,2,2,"fiction,historical,literature"
11659501,0345244230,Paul Bunyan,9780345244239,,,,ES,,,,false,7,2731890,58,75,22,1,1925/1/1,paul bunyan,book,2,8,9,3,0,3.41,,,,0,0,James     Stevens,,,,,,7,1,,"american,classics,fantasy,fiction,mythology"
11662501,,Golf Make Up Of A Golfer: Swing The Handle with Eddie Merrins,,B0052PJPOK,,,ES,,,,false,2,11662501,6,0,0,0,2011/2/22,,,0,0,0,0,0,0.00,,,,0,0,"Charles River Editors,Eddie Merrins",,,,,,4,0,,amazon
11665001,0470917822,Dicho y hecho: Beginning Spanish [with Audio CD],9780470917824,,,,ES,2011/1/18,John Wiley & Sons,,false,42,923119,79,83,24,3,1989/7/3,Dicho y hecho,book,5,8,6,3,2,3.46,608,Unbound,,1,0,"Kim Potowski,Laila M. Dawson,Silvia Sobral",,,,,,26,2,5,"international,language,non-fiction,psychology,reference,textbooks"
11667001,1882601378,Big Annie: An American Tall Tale (Christmas) (Book And Cd) (See More's Workshop Series),9781882601370,,,,ES,,,,false,5,2999656,6,3,1,0,,Big Annie: An American Tall Tale (Christmas),,0,0,1,0,0,3.00,,,,0,0,Sandra  Robbins,,,,,,4,3,,
11667501,9048148022,Bioethics Yearbook: Theological Developments in Bioethics: 1992 1994,9789048148028,,,,ES,2010/12/5,Springer,,false,2,9292549,1,0,0,0,1997/3/31,,,0,0,0,0,0,0.00,304,Paperback,,0,0,,,,B.A. Lustig,,,,0,,
11670501,1432722344,Looking Back: Whatever Did I Miss?,9781432722340,,,,ES,2008/5/30,Outskirts Press,,false,2,3735272,1,0,0,0,2008/5/30,LOOKING BACK: Whatever Did I Miss?,,0,0,0,0,0,0.00,196,Hardcover,,0,0,Ralph Pidge Davies,,,,,,1,0,,
11671001,,THE ART OF WAR & THE PRINCE,2940011855221,,,,ES,,,,true,79,99323,1912,2750,690,23,1521/1/1,,book,275,208,146,44,17,3.99,,,,1,0,"Niccolò Machiavelli,Sun Tzu",,,,,,932,8,77,"classics,collections,historical,history,leadership,non-fiction,personal-development,philosophy,politics,psychology,war"
11671501,0449202690,Easy Answers,9780449202692,,,,ES,1983/7/12,Random House Publishing Group,,false,2,4432278,2,3,1,0,1982/1/1,Easy Answers,,0,0,1,0,0,3.00,256,Mass Market Paperback,,1,0,Judith Greber,,,,,,1,0,,
11673001,,"Nests and eggs of familiar British birds, described and illustrated: with an account of the haunts and habits of the feathered architects, and their times and modes of building",2940021549240,,,,ES,,,,true,8,11673001,3,3,1,1,2013/3/13,,,0,0,1,0,0,3.00,,,,1,1,Henry Gardiner Adams,,,,,,2,0,,poetry
11676001,0335156002,Student Learning: research in education and cognitive psychology,9780335156009,,,,ES,1987/5/1,Open University Press,,false,2,11676001,2,0,0,0,1987/5/28,,book,0,0,0,0,0,0.00,240,Paperback,,0,0,"David W. Piper,John T.E. Richardson,Michael W. Eysenck",,,,,,2,0,,
11676501,,You Are Special: Words of Wisdom for All Ages from a Beloved Neighbor,,B004IE9R0I,,,ES,,,,true,10,728131,1215,1689,393,65,1981/1/1,You Are Special: Neighborly Wisdom from Mister Rogers,book,193,138,52,6,4,4.30,,,,23,1,Fred Rogers,,,,,,350,17,49,"adult,education,essays,inspirational,love,non-fiction,parenting,personal-development,philosophy,self-help"
11679001,0472116916,Excavations in the Area Sacra of Vesta (1987-1996),9780472116911,,,,ES,2009/7/15,University of Michigan Press,,false,1,11679001,0,0,0,0,2009/7/15,,,0,0,0,0,0,0.00,256,Hardcover,,0,0,,,,Russell Scott,,,,0,,
11680001,,"Popular fairy tales: or, A liliputian library; containing twenty-six choice pieces of fancy and fiction, by those renowned personages King Oberon, Queen Mab, Mother Goose, Mother Bunch, Master Puck, and other distinguished personages at the court of the",2940023209609,,,,ES,,,,true,1,11680001,1,0,0,0,2007/1/1,,,0,0,0,0,0,0.00,,,,0,0,Benjamin Tabart,,,,,,1,0,,
11683501,0788754645,Piranha to Scurfy and Other Stories,9780788754647,,,,ES,2001/11/1,Recorded Books,,false,6,308568,867,1868,507,48,2000/1/1,Piranha to Scurfy: And Other Stories,book,101,192,170,41,3,3.68,,Audiobook,,0,0,Ruth Rendell,,,,,Jenny Sterlin,192,13,12,"crime,fiction,horror,mystery,mystery-thriller,short-stories,thriller"
11686001,,Deathbird Stories ,,,,,ES,1976/9/1,"Dell Publishing Co., Inc.",eng,false,32,219376,9269,15714,3763,255,1975/2/1,Deathbird Stories,book,1680,1298,597,143,45,4.18,347,Mass Market Paperback,First Dell,7,1,Harlan Ellison,,,,,,4616,30,264,"anthologies,classics,collections,dark,death,dystopia,fantasy,fiction,horror,mythology,religion,science,science-fiction,science-fiction-fantasy,short-stories,speculative-fiction,thriller"
11687001,,WIND-TUNNEL EXPERIMENTS CONCERNING THE DYNAMIC BEHAVIOR OF A LOW-SPEED SLOWLY SPINNING FIN-STABILIZED ROCKET,2940020260757,,,,ES,,,,true,1,11687001,0,0,0,0,,,,0,0,0,0,0,0.00,,,,0,0,J. D. Bird,,,,,,,0,,
11687501,,Maurice,9789754704365,,,,ES,2000/7/1,İletişim Yayınları,tur,false,85,3103,53467,92401,23031,1300,1971/1/1,Maurice,book,8185,8755,4676,1013,402,4.01,239,Paperback,,5,0,E.M. Forster,,,,Sadri Ülkü,,26831,133,558,"adult,adult-fiction,british-literature,classic-literature,classics,college,contemporary,drama,english-literature,fiction,gay,historical,historical-fiction,history,lgbt,literary-fiction,literature,love,modern-classics,novels,queer,romance"
11688501,288890389X,"Descendance (Le Voyage Des Pères: 2e Époque, L'exode Selon Yona, #1)",9782888903895,,,,ES,2011/2/16,,fre,false,2,11688501,15,38,10,0,2011/1/1,,book,2,5,2,1,0,3.80,48,Hardcover,,7,0,David Ratte,,,,,,2,0,,"comics,graphic-novels,historical-fiction"
11689001,1741797802,India (Lonely Planet Country Guide),9781741797800,,,,ES,2011/10/1,,eng,false,17,109227,2008,4288,1067,35,1981/1/1,Lonely Planet: India,book,392,386,221,53,15,4.02,,,"14th edition, 30th anniversary edition",54,1,"Abigail Blasi,Abigail Hole,Amy Karafin,Anirban Mahapatra,Bradley Mayhew,Daniel McCrohan,John Noble,Kate James,Katja Gaskell,Kevin Raub,Lindsay Brown,Lonely Planet,Mark Elliot,Mark Elliott,Michael Benanav,Sarina Singh,Stuart Butler,Trent Holden",,,,,,634,7,43,"magic,non-fiction,reference,research,travel"
11690001,,Outdoor Navigation with GPS,,B004QWZ9FO,,,ES,,,,true,6,1784080,85,173,45,3,2004/4/4,"Outdoor Navigation With Gps: Hiking, Geocaching, Canoeing, Kayaking, Fishing, Outdoor Photography, Backpacking, Mountain Biking",book,9,23,10,3,0,3.84,,,,11,0,Stephen W. Hinch,,,,,,16,1,6,"non-fiction,travel"
11691501,0855324023,Painting Landscapes In Oils,9780855324025,,,,ES,1980/1/1,Search Press,,false,3,11691501,2,0,0,0,1980/1/1,Painting Landscapes in Oils,book,0,0,0,0,0,0.00,32,Paperback,,0,0,Norman Battershill,,,,,,2,0,,
11692501,,The Battered Suitcase Summer 2011,,B0053DQSPU,,,ES,,,,true,2,11692501,4,10,2,0,2011/5/29,,book,2,0,0,0,0,5.00,,,,2,0,"Fawn Neun,Laury A. Egan,Michael Lee Johnson,Robert Wexelblatt,Ry Kincaid",,,N. Apythia Morges,,,,1,,
11694001,,aakarpost,2940039329094,,,,ES,,,,true,12,10005323,0,0,0,0,1901/1/1,,book,0,0,0,0,0,0.00,,,,0,0,Aakar,,,,,,,0,,
11695001,1451275056,The Keys of the Beast,9781451275056,,,,ES,2010/9/20,America Star Books,,false,1,11695001,0,0,0,0,2010/9/20,,,0,0,0,0,0,0.00,102,Paperback,,0,0,T.H. Sabin,,,,,,,0,,
11695501,,"Joanna Trollope, coffret",,,,,ES,,,,false,20,17999096,2506,5795,1703,184,2014/1/1,,book,260,532,618,220,73,3.40,,,,0,0,Joanna Trollope,,,,,,445,23,97,"adult-fiction,contemporary,family,fiction,novels,romance"
11696001,,City of Lies,,1407219847,,,ES,,,,false,15,2797862,1114,1690,464,48,2006/1/1,City of Lies,book,99,174,133,42,16,3.64,,Paperback,,2,0,R.J. Ellory,,,,,,218,8,16,"contemporary,crime,drama,family,fiction,mystery,mystery-thriller,suspense,thriller"
11696501,1101543809,The Lost Dogs: Michael Vick's Dogs and Their Tale of Rescue and Redemption,9781101543801,,,,ES,2011/9/1,Gotham Books,,true,1,7816264,13448,23992,5492,774,2009/9/16,,book,3046,1664,609,106,67,4.37,304,ebook,,3,2,Jim Gorant,,,,,,7102,39,197,"abuse,adult,animals,biography,biography-memoir,crime,essays,history,inspirational,memoir,nature,non-fiction,society,sociology,sports,true-crime"
11698001,1607037823,In the Cold Caress,9781607037828,,,,ES,2008/12/15,America Star Books,,false,1,11698001,1,3,1,0,2008/12/15,,,0,0,1,0,0,3.00,194,Paperback,,1,0,vISION,,,,,,,0,,
11699501,2819936296,"Divine Comedy, Norton's Translation, Hell",9782819936299,,,,ES,2010/9/15,Pubone.Info,,true,1177,15645,270306,496384,124264,4195,1320/1/1,,book,46172,42709,26141,7023,2219,3.99,,ebook,,0,0,Dante Alighieri,,,,,,113650,744,5968,"adult,adult-fiction,christian,christianity,classic-literature,classics,college,epic,european-literature,fantasy,fiction,high-school,historical,historical-fiction,history,horror,literature,medieval,mythology,novels,philosophy,poetry,religion,school,spirituality,theology,unfinished"
11700001,,Claiming His Baby,,B0042JSRGY,,,ES,2010/9/20,Harlequin Romance,eng,true,12,1308355,117,188,58,6,2001/9/1,Claiming His Baby,book,7,16,24,6,5,3.24,288,Kindle Edition,"Harlequin Romance #3673, Ready for Baby #5",5,0,Rebecca Winters,,,,,,42,0,2,"fiction,harlequin,romance"
11701501,2914657110,La Morte Du Canal (4),9782914657112,,,,ES,2006/2/1,,fre,false,1,11701501,5,11,3,0,2006/2/1,,book,0,2,1,0,0,3.67,224,,Polars en nord,3,0,Emmanuel Sys,,,,,,,1,,
11702001,,"Inflation Investing: A Guide for the 2010s, Volume 1",,B0051GU06W,,,ES,,,,true,1,11702001,4,7,2,1,2011/5/17,,book,0,1,1,0,0,3.50,,,,2,1,Daryl Montgomery,,,,,,2,0,,
11702501,0321802772,Fundamentals of Anatomy and Physiology - With Atlas and Application Man.,9780321802774,,,,ES,,,,false,159,10079332,1220,1525,377,24,1988/1/1,Fundamentals of Anatomy & Physiology,book,163,114,65,24,11,4.05,,,,0,0,Frederic H. Martini,,,,,,541,8,69,"art,education,medical,non-fiction,psychology,reference,school,science,textbooks"
11703001,1601422032,Fierce Beauty: Choosing to Stand for What Matters Most,9781601422033,,,,ES,2011/10/4,Multnomah,,false,4,11703001,456,551,131,28,2011/1/1,,book,65,38,19,8,1,4.21,182,Paperback,,118,26,Kim Meeder,,,,,,280,10,15,"christian,faith,inspirational,memoir,non-fiction,religion"
11704001,5553328861,Deadly Greed,9785553328863,,,,ES,1994/1/1,Nelson Bibles,,false,6,1924928,362,602,153,19,1991/1/1,Deadly Greed: The Riveting True Story of the Stuart Murder Case That Rocked Boston and Shocked the Nation,book,56,47,39,6,5,3.93,,Hardcover,,0,0,Joe Sharkey,,,,,,102,8,48,"non-fiction,true-crime"
11705001,1401032222,The Hills Of T'ang: Forty Years In South China,9781401032227,,,,ES,2002/8/1,Xlibris Corporation,,false,1,11705001,1,0,0,0,,,,0,0,0,0,0,0.00,557,Paperback,,0,0,Muriel C. Pilley,,,,,,1,0,,historical
11706001,,The Adventures of Captain Horn ,,B003YCPJDO,,,ES,,,eng,true,93,1939834,115,183,52,6,1895/1/1,The Adventures of Captain Horn,book,11,16,17,5,3,3.52,,,,0,0,Frank R. Stockton,,,,,,44,0,6,"adventure,american,childrens,classics,fiction,historical,historical-fiction,history"
11706501,8449324831,¿Hacia dónde va el mundo?,9788449324833,,,,ES,2011/2/17,Paidós,spa,false,9,13562331,263,197,55,11,2007/1/1,,book,9,21,20,3,2,3.58,92,Paperback,,4,2,Edgar Morin,,,,Álvaro Malaina Martín,,188,2,6,"non-fiction,philosophy"
11707501,,Chasot. Zur Geschichte Friedrichs des Grossen und seiner Zeit,2940039397543,,,,ES,,,,true,1,11707501,0,0,0,0,,,,0,0,0,0,0,0.00,,,,0,0,Kurd von Schlo,,,,,,,0,,
11708001,,Consider the lilies,2940019770519,,,,ES,,,,true,1,11708001,0,0,0,0,,,,0,0,0,0,0,0.00,,,,0,0,Harriet Lodge,,,,,,,0,,
11709001,,Don't Dig for Water under the Outhouse and Other Cowboy Commandments,9781423606987,,,,ES,2009/10/1,Gibbs Smith Publishers,eng,false,7,11709001,15,33,9,0,2000/8/18,Don't Dig for Water under the Outhouse and Other Cowboy Commandments,book,3,2,2,2,0,3.67,,Paperback,,4,0,Texas Bix Bender,,,,,,3,1,1,"adult,humor"
11711001,,Growing in the prophetic - Mike Bickle,2940026894062,,,,ES,,,,true,1,11711001,18,39,9,0,,,,4,4,1,0,0,4.33,,,,9,0,Ivin Viljoen,,,,,,7,0,1,
11711501,0695413538,"Not I, Not I",9780695413538,,,,ES,,,,false,11,1378323,69,63,18,6,1950/1/1,"Not I, Not I (Modern Curriculum Press Beginning to Read Series)",book,6,3,5,2,2,3.50,,,,1,1,"Diana Magnuson,Margaret Hillert",,,,,,22,13,,"childrens,picture-books"
11712001,0954904974,"Wild in the City: A Celebration of the Open Spaces of Putney, Barnes and Richmond",9780954904975,,,,ES,2009/10/1,Unity Print and Publishing Ltd,,false,1,11712001,1,0,0,0,2009/10/1,,book,0,0,0,0,0,0.00,132,Paperback,,0,0,Andrew          Wilson,Julianna Franchetti,,,,,1,0,,
11713001,8577990192,O Poderoso Chefão,9788577990191,,,,ES,2007/1/1,BestBolso,por,false,320,22034,454840,1284678,293980,7090,1969/3/10,The Godfather,book,162366,90462,31745,6358,3049,4.37,656,Mass Market Paperback,Edição de Bolso,46,2,Mario Puzo,,,,Carlos Nayfeld,,132999,932,4927,"action,adult,adult-fiction,american,classics,contemporary,crime,drama,family,fiction,historical,historical-fiction,literature,modern-classics,movies,mystery,mystery-thriller,novels,suspense,thriller"
11714001,,La caccia degli ucelli di Vincenzo Tanara: da un manoscritto inedito della Biblioteca communale ...,2940038250290,,,,ES,,,,true,1,11714001,0,0,0,0,,,,0,0,0,0,0,0.00,,,,0,0,Vincenzo Tanara,,,,,,,0,,
11714501,,"Uma Pequena Cidade na Campina (Little House, #7)",,,,,ES,,Record,por,false,83,8253,97047,318040,76037,1015,1941/1/1,Little Town on the Prairie,book,34846,24545,13359,2266,1021,4.18,214,Hardcover,,0,0,Laura Ingalls Wilder,,,,P.A. do Nascimento Silva,,3032,365,294,"american,autobiography,biography,chapter-books,childrens,classics,family,fiction,historical,historical-fiction,history,juvenile,literature,memoir,middle-grade,non-fiction,young-adult"
11715001,1250006619,The Official Mad Men Cookbook: A Swinging Collection of Delicious Recipes & Entertaining Tips from Sterling Cooper Draper Pryce,9781250006615,,,,ES,2012/1/31,St. Martin's Press,,false,1,11715001,5,5,1,0,2011/11/22,,book,1,0,0,0,0,5.00,256,Hardcover,,1,0,"Heather  Maclean,Rick Rodgers",,,,,,5,0,,
11715501,1453509097,Psyche Transfixed,9781453509098,,,,ES,2010/8/17,Xlibris Corporation,,false,3,14560819,1,0,0,0,2010/8/17,,,0,0,0,0,0,0.00,188,Paperback,,0,0,Misty Lee,,,,,,1,0,,
11717001,,Put the Billy On,,B001O0DEFI,,,ES,,,,true,4,7038819,16,35,9,1,2008/11/15,,book,3,3,2,1,0,3.89,,ebook,,2,0,Ann Jones,,,,,,4,1,,
11717501,059523206X,Tautological Oxymorons: Deconstructing Scientific Materialism: An Onto-Theological Approach,9780595232062,,,,ES,2002/6/25,iUniverse,,false,1,11717501,3,0,0,0,2002/6/25,,,0,0,0,0,0,0.00,384,Paperback,,0,0,John Brey,,,,,,3,0,,
11719001,0143001892,The Femails,9780143001898,,,,ES,2005/1/1,Penguin Group Australia,eng,false,2,11719001,16,33,10,2,2005/1/1,The Femails,book,1,3,4,2,0,3.30,300,Paperback,1st edition,9,2,Margaret Clark,,,,,,1,1,,"chick-lit,relationships"
11722501,1429910909,"Kushiel's Dart (Phèdre's Trilogy, #1)",9781429910903,,,,ES,2002/3/15,Tor Books,,true,46,153008,116682,257115,63619,3776,2001/6/23,Kushiel's Dart,book,28758,18210,9926,3982,2743,4.04,704,ebook,,115,27,Jacqueline Carey,,,,,,43680,162,1967,"adult,adult-fiction,adventure,bdsm,dark,epic,epic-fantasy,erotica,fantasy,fiction,high-fantasy,historical,historical-fiction,lgbt,magic,novels,paranormal,queer,romance,science-fiction,science-fiction-fantasy,speculative-fiction,unfinished"
11724001,,Comptes rendus hebdomadaires des se,2940030962641,,,,ES,,,,true,1,11724001,0,0,0,0,,,,0,0,0,0,0,0.00,,,,0,0,"Acade?mie des sciences,Centre national de la recherche scientifique",,,,,,,0,,
11724501,1460939166,Prison Earth - A Loss of Face,9781460939161,,,,ES,2011/4/22,Createspace Independent Publishing Platform,,false,2,10650068,2,0,0,0,2011/2/16,,book,0,0,0,0,0,0.00,472,Paperback,,0,0,Clifford M. Scovell,,,,,,1,0,,
11725001,1563097737,When My Faith Feels Shallow: Pursuing the Depths of God,9781563097737,,,,ES,2004/1/6,New Hope Publishers (AL),,false,1,11725001,4,10,3,0,2004/6/1,,,0,1,2,0,0,3.33,191,Paperback,,3,0,Minette Drumwright Pratt,,,,,,1,0,,christian
11727001,,The Spy Who Snagged Me (#1-4),,B0055V3C90,,,ES,,Changeling Press,eng,true,1,11727001,91,41,12,0,2010/3/26,,book,6,0,2,1,3,3.42,,,,12,0,Dakota Cassidy,,,,,,75,1,,
11729001,1456760769,Gods' Gold,9781456760762,,,,ES,2011/7/1,Authorhouse,,true,3,11464408,3,10,2,1,2011/5/19,,,2,0,0,0,0,5.00,,ebook,,0,0,Frank Prete,,,,,,1,0,,
11729501,,"Maska démona (Usagi Yojimbo, #14)",9788074490255,,,,ES,2011/1/1,Crew,cze,false,8,716625,687,2069,474,11,2001/1/1,"Usagi Yojimbo, book 14: Demon Mask ",book,229,192,50,3,0,4.36,224,Paperback,,5,1,Stan Sakai,,,,Ľudovít Plata,,111,11,2,"adventure,comics,fantasy,fiction,graphic-novels,graphic-novels-comics,historical,historical-fiction,manga,picture-books,short-stories"
11732001,1846858410,The Secret of the Cross (Andrew Murray Christian Classics),9781846858413,,,,ES,,,,false,19,11732001,68,75,19,2,1998/1/1,,,7,6,4,2,0,3.95,,,,12,1,Andrew Murray,,,,,,39,1,5,"christianity,religion,theology"
11732501,,Iota Unum. Analiza zmian w Kościele katolickim w XX wieku,9788389920417,,,,ES,2009/1/1,Antyk,pol,false,3,1852363,102,129,28,5,1996/3/1,Iota Unum: A Study of Changes in the Catholic Church in the Twentieth Century,book,19,7,2,0,0,4.61,912,Hardcover,,1,0,Romano Amerio,,,,,,52,3,11,"christianity,history,philosophy,religion,spirituality,theology,unfinished"
11733001,0073358061,Basic College Mathematics,9780073358062,,,,ES,,,,false,18,7140831,13,12,5,0,2005/1/1,,book,1,0,1,1,2,2.40,,,,0,0,"Julie  Miller,Molly  O'Neill,Nancy Hyde",,,,,,4,0,,textbooks
11733501,,The Prince,2940012914910,,,,ES,,,,true,2241,28862,441258,823169,216582,6845,1513/1/1,Il principe,book,61847,75602,58167,16059,4907,3.80,,,,0,0,Niccolò Machiavelli,,,,,,167377,383,16739,"academic,adult,business,classic-literature,classics,college,essays,fiction,high-school,historical,history,leadership,literature,medieval,non-fiction,novels,philosophy,politics,psychology,reference,school,science,self-help,sociology,unfinished,war"
11734001,,Mama,,,,,ES,,,eng,true,5,13421907,267,129,32,8,2011/5/4,Mama,book,11,14,5,1,1,4.03,,Kindle Edition,,1,0,Robin Morris,,,,,,213,6,,"adult-fiction,horror"
11737001,0143026720,Money Alchemy: Into Wealth And Beyond,9780143026723,,,,ES,2011/6/15,Penguin Global,,false,1,11737001,13,13,3,1,2011/6/15,,,1,2,0,0,0,4.33,204,Paperback,,3,1,Kiki  Theo,,,,,,7,0,1,
11739001,1461020859,The Art Of Public Speaking,9781461020851,,,,ES,2011/4/26,Createspace,,false,254,3363618,14597,10542,2701,127,1915/1/1,The Art of Public Speaking,book,973,859,598,176,95,3.90,408,Paperback,,0,0,"Dale Carnegie,J. Berg Esenwein",,,,,,8974,12,2364,"american,business,classics,contemporary,leadership,non-fiction,personal-development,psychology,reference,self-help,unfinished"
11739501,,The Nonsuch King,,B0053YQN4K,,,ES,2011/5/5,,eng,true,3,11739501,27,52,13,2,2011/5/1,The Nonsuch King,book,4,5,4,0,0,4.00,,,,10,0,Benjamin J. Myers,,,,,,11,0,1,
11740001,1157497632,"Indian Film Awards: Sangeet Natak Akademi Award, Asianet Film Awards, National Film Awards, Anandalok Awards, List of Chak de India Awards",9781157497639,,,,ES,2011/8/14,,,false,1,11740001,1,4,1,0,2010/5/31,,,0,1,0,0,0,4.00,,Paperback,,1,0,Books LLC,,,,,,3,0,,
11741501,1444708139,Pet Sematary,9781444708134,,,,ES,2011/11/10,Hodder & Stoughton,,false,57,33124137,482978,1341662,339466,8447,1983/11/14,Pet Sematary,book,115920,119892,80187,18466,5001,3.95,465,Paperback,,1335,220,Stephen King,,,,,,94890,374,6620,"adult,adult-fiction,american,animals,classics,contemporary,dark,death,fantasy,fiction,horror,modern,mystery,mystery-thriller,novels,paranormal,science-fiction,supernatural,suspense,thriller,zombies"
11742501,0900807415,Old Ebbw Vale In Photographs,9780900807411,,,,ES,,,eng,false,2,3923143,1,0,0,0,,Old Ebbw Vale in Photographs,book,0,0,0,0,0,0.00,,,,0,0,Keith   Thomas,,,,,,1,0,,
11743001,0674007212,Affairs of State: Public Life in Late Nineteenth Century America,9780674007215,,,,ES,1977/1/1,Belknap Press,,false,4,913554,26,36,10,0,1977/1/1,Affairs of State: Public Life in Late Nineteenth-Century America (Belknap Press),,2,2,6,0,0,3.60,631,Unknown Binding,,0,0,Morton Keller,,,,,,12,1,1,history
11745001,8480761636,El Cultivo de Hortalizas,9788480761635,,,,ES,,,spa,false,1,11745001,2,4,1,0,1995/9/28,,book,0,1,0,0,0,4.00,,,,1,0,John Seymour,,,,,,,0,1,
11746001,0007319525,"The Night Eternal (The Strain Trilogy, #3)",9780007319527,,,,ES,2011/10/13,Harper Collins,eng,false,76,6945530,41958,93391,25362,2114,2011/10/13,The Night Eternal,book,5882,9030,7531,2349,570,3.68,371,Hardcover,,101,14,"Chuck Hogan,Guillermo del Toro",,,,,,12408,122,524,"action,adult,adult-fiction,adventure,dark,dystopia,fantasy,fiction,horror,mystery,novels,paranormal,post-apocalyptic,science-fiction,science-fiction-fantasy,supernatural,suspense,thriller,urban-fantasy,vampires,zombies"
11750501,1459209265,To Touch a Sheikh,9781459209268,,,,ES,2011/8/1,Harlequin Desire,,true,19,11327421,991,1981,486,66,2011/1/1,To Touch a Sheikh,book,232,113,102,24,15,4.08,192,ebook,,0,0,Olivia Gates,,,,,,373,8,16,"adult,contemporary,harlequin,romance"
11752501,3766331531,Geschichte Der Gewerkschaften in Der Bundesrepublik Deutschland: Von Den Anfangen Bis Heute,9783766331533,,,,ES,,,,false,1,11752501,1,0,0,0,,,book,0,0,0,0,0,0.00,,,,0,0,,,,,,,,0,,
11753001,,Histoire litte,2940027876722,,,,ES,,,,true,3,11753000,0,0,0,0,,,,0,0,0,0,0,0.00,,,,0,0,Charles Schmidt,,,,,,,0,,
11754001,,Atlante cromatico,,,,,ES,,,,false,1,11754001,1,0,0,0,,,book,0,0,0,0,0,0.00,,,,0,0,Fulco douglas scotti,,,,,,1,0,,
11754501,,"Evenings by Eden-side, or, Essays and poems",2940019676118,,,,ES,,,,true,3,34126338,0,0,0,0,,,,0,0,0,0,0,0.00,,,,0,0,George Pearson,,,,,,,0,,
11758001,187753420X,Emma,9781877534201,,,,ES,2010/5/31,First Edition Ltd.,,false,2779,6969,941025,2241799,561395,14129,1815/12/23,Emma,book,206252,199806,113580,28818,12939,3.99,414,Paperback,,0,0,Jane Austen,,,,,,296182,1638,22241,"adult,adult-fiction,british-literature,chick-lit,classic-literature,classics,drama,english-literature,fiction,historical,historical-fiction,humor,literary-fiction,literature,love,novels,regency,romance,school,unfinished"
11760001,1577654641,Mosquitoes (Insects),9781577654643,,,,ES,2001/11/1,Checkerboard Books,,false,1,11760001,3,4,1,0,2001/11/1,,book,0,1,0,0,0,4.00,24,Hardcover,,1,0,Cari Meister,,,,,,1,1,,non-fiction
11762001,,The Retrieval (A Digital Short),2940012347640,,,,ES,,,,true,2,11082838,5,14,3,0,2011/3/28,,book,2,1,0,0,0,4.67,,,,0,0,J.R. Chartrand,,,,,,2,0,,
11763001,,A Manual of Midwifery for Midwives,,B004VY59S4,,,ES,,,,true,3,11763001,2,0,0,0,1883/1/1,,,0,0,0,0,0,0.00,,,,0,0,Robert Sydenham Fancourt Barnes,,,,,,1,0,,
11763501,9045704218,Dialogen schrijven: laat je personages spreken,9789045704210,,,,ES,2010/4/1,L.J. Veen,nl,false,2,11763501,49,43,13,5,2010/1/1,,book,0,7,3,3,0,3.31,,Paperback,,11,5,Don Duyns,,,,,,25,1,2,"non-fiction,writing"
11764501,1606524259,Reverse Diabetes Forever: Your Ultimate Guide to Controlling Your Blood Sugar,9781606524251,,,,ES,2011/12/22,Reader's Digest,,false,1,11764501,19,26,6,2,2011/10/27,,,4,0,2,0,0,4.33,304,Paperback,,6,2,,,,,,,9,0,1,cookbooks
11766001,,Eyes on the Prize: America's Civil Rights Years 1954-1965 (Classroom Companion to PBS TV Series),,,,,ES,1987/1/1,"Blackside, Inc.",eng,false,1,11766001,2,0,0,0,1987/1/1,,book,0,0,0,0,0,0.00,70,,,0,0,,,,Steven Cohen,,,2,0,,
11766501,082800546X,The Happy Path,,,,,ES,,,,false,1,11766501,205,138,33,2,1975/1/1,,,21,3,5,2,2,4.18,,,,33,2,Lawrence Maxwell,,,,,,145,0,12,christian
11767501,1402077378,Robust Electronic Design Reference Book,9781402077371,,,,ES,2003/11/1,Kluwer Academic Publishers,,false,1,11767501,6,5,1,0,2003/11/1,,,1,0,0,0,0,5.00,2,Hardcover,,1,0,John R. Barnes,,,,,,5,0,,
11769001,0340199482,Omnibus,9780340199480,,,,ES,,,,false,1,11769001,3,3,1,0,1975/1/1,,,0,0,1,0,0,3.00,,,,1,0,Francis Clifford,,,,,,2,0,,
11769501,1610811372,"Casey, Crime Photographer, Volume 1",9781610811378,,,,ES,,,,false,1,11769501,2,5,1,0,2008/1/1,,,1,0,0,0,0,5.00,,,,1,0,RadioArchives.com,,,,,,,0,,
11770001,,Dumhach Thrá,6660012110155,,,,ES,,,,false,1,11770001,1,0,0,0,2011/1/1,,,0,0,0,0,0,0.00,,,,0,0,Brian O. Baoill,,,,,,1,0,,
11770501,081530112X,The Pasticcios,9780815301127,,,,ES,1993/3/1,Routledge,,false,1,11770501,0,0,0,0,1993/3/1,,,0,0,0,0,0,0.00,752,Hardcover,,0,0,,,,Ernest Warburton,,,,0,,
11771001,,"Silk Hope, NC",,B0054QSN2M,,,ES,,,,true,3,513447,131,215,69,10,1994/1/1,"Silk Hope, NC (A Harvest Book)",book,3,23,26,13,4,3.12,,,,2,0,Lawrence Naumoff,,,,,,38,2,1,"fiction,novels"
11773501,8466316418,El bosque de Hollow,9788466316415,,,,ES,2008/7/1,Punto de Lectura,spa,false,54,2195309,40902,113009,27419,982,2008/5/6,The Hollow,book,11309,9605,5269,1001,235,4.12,427,Paperback,,21,4,Nora Roberts,,,,,,3611,115,248,"adult,adult-fiction,adventure,chick-lit,contemporary,demons,fantasy,fiction,horror,magic,mystery,paranormal,romance,supernatural,suspense,thriller,urban-fantasy,witches"
11774501,,Unknown Book 11774501,,,,,ES,,,,false,1,11774501,1,0,0,0,,,,0,0,0,0,0,0.00,,,,0,0,Unknown,,,,,,,0,,
11775501,,Revelation for Dummies!,,B0051BJLU8,,,ES,,,,true,2,11723228,1,3,1,0,2011/4/30,,book,0,0,1,0,0,3.00,,,,1,0,W. Jim Britt,,,,,,,0,,
11776001,,"Ready for Anything, Anywhere! (Mills & Boon by Request)",,0263883442,,,ES,,,eng,false,5,12680067,63,27,7,1,2011/4/1,,book,3,1,2,1,0,3.86,,,,0,0,"Beverly Barton,Catherine Mann,Merline Lovelace",,,,,,14,1,,
11776501,0443016232,"Paediatric Cardiology, 1977",9780443016233,,,,ES,,,,false,1,11776501,0,0,0,0,,,,0,0,0,0,0,0.00,,,,0,0,Robert H. Anderson,,,Elliot A. Shinebourne,,,,0,,
11778501,1419963600,Desperate Alliance,9781419963605,,,,ES,2011/5/1,Ellora's Cave,,false,3,8004901,59,74,21,0,2008/1/16,,,3,8,8,1,1,3.52,222,Paperback,,0,0,Robie Madison,,,,,,32,2,2,adult-fiction
11779001,,"Simon Says (Friends and Lovers, #2)",,B0056NX3ZU,,,ES,2011/6/17,Black Door Press,en-GB,true,3,11779001,602,1021,289,39,2011/6/17,,book,51,106,92,26,14,3.53,73,Kindle Edition,,287,39,Gillian Colbert,,,,,,241,16,4,"adult,bdsm,contemporary,erotica,historical,romance,short-stories"
11780501,,الإبداع الأدبي,,,,,ES,1997/1/1,,ara,false,1,11780501,8,5,2,0,1997/1/1,,book,0,0,1,1,0,2.50,242,Paperback,,2,0,حسين عيد,,,,,,6,0,,
11783501,0373261993,Stand-In For Murder,9780373261994,,,,ES,1996/2/23,Worldwide Library,,false,2,2815047,13,20,8,1,1994/8/1,Stand-In for Murder (A Cole January Mystery),,0,2,2,2,2,2.50,256,Paperback,,2,0,Lynn Bradley,,,,,,5,0,,
11784001,2878219856,"Le Tueur De Talladega (Eve Duncan, #2)",9782878219852,,,,ES,,,fre,false,41,78131,38492,114450,27333,465,1999/1/1,The Killing Game,book,11495,10316,4803,583,136,4.19,,,,0,0,Iris Johansen,,,,,,6477,15,247,"action,adult,adult-fiction,adventure,contemporary,crime,dark,detective,drama,fiction,murder-mystery,mystery,mystery-thriller,novels,paranormal,romance,suspense,thriller"
11786001,,Economy of Grace,2940000811764,,,,ES,,,,true,4,1518220,155,197,56,5,2005/6/17,Economy Of Grace,,7,25,15,8,1,3.52,,,,0,0,Kathryn Tanner,,,,,,64,5,11,"grad-school,non-fiction,philosophy,politics,religion,social-issues,sociology,spirituality,theology"
11786501,2266171550,Retour À Kiss River,9782266171557,,,,ES,,,fre,false,29,827357,8451,18021,4612,325,2003/1/1,Kiss River,book,1325,1826,1210,211,40,3.91,,,,0,0,Diane Chamberlain,,,,,,1364,29,143,"chick-lit,contemporary,drama,family,fiction,historical,historical-fiction,literary-fiction,love,mystery,romance,unfinished"
11788001,,Mother Jones (SparkNotes Biography Guide Series),2940000050347,,,,ES,,,,true,2,11787996,1,0,0,0,2007/10/11,,,0,0,0,0,0,0.00,,,,0,0,SparkNotes,,,,,,1,0,,
11788501,0809244268,Reader's Choice: Connections,9780809244263,,,,ES,1989/9/1,NTC/Contemporary Publishing Company,,false,1,11788501,0,0,0,0,1989/9/28,,,0,0,0,0,0,0.00,100,Paperback,,0,0,"Connie Spencer Ackerman,Julie Landau",,,Peggy A. Griffin,,,,0,,
11789501,1425730124,Strange and Passing Gypsies,9781425730123,,,,ES,,,,false,1,11789501,1,0,0,0,2007/5/23,,,0,0,0,0,0,0.00,,,,0,0,Joan H. Carter,,,,,,,0,,
11791501,,101 Tips to Stop Your Child's Bedwetting Forever,2940012491701,,,,ES,,,,true,1,11791501,1,0,0,0,2011/6/17,,,0,0,0,0,0,0.00,,,,0,0,eBook Legend,,,,,,,0,,
11793501,1615640959,The Complete Idiot's Guide to Electronics 101,9781615640959,,,,ES,2011/7/5,Alpha,,false,3,11793501,69,70,19,5,2011/7/5,,,6,4,6,3,0,3.68,352,Paperback,,18,5,"Jean Riescher Westcott,Sean Westcott",,,,,,36,1,3,technology
11794001,1101503009,The Complete Idiot's Guide to Strategic Planning,9781101503003,,,,ES,2011/3/1,Not Avail,,true,4,10849095,26,16,5,0,2011/3/1,,,0,2,2,1,0,3.20,336,ebook,,0,0,Lin Grensing-Pophal,,,,,,12,1,1,"business,non-fiction"
11795501,0006619312,The Great Marathon Football Match,9780006619314,,,,ES,,,,false,1,11795501,7,5,1,0,,,,1,0,0,0,0,5.00,,,,1,0,"Allan Ahlberg,Janet Ahlberg",,,,,,1,0,,picture-books
11796501,1604419741,Fun at the Beach,9781604419740,,,,ES,2008/3/10,America Star Books,,false,1,11796501,0,0,0,0,2008/3/30,,,0,0,0,0,0,0.00,20,Paperback,,0,0,Tami Ramirez,,,,,,,0,,
11797001,,"Texas Blaze (Texas, #1)",2940043338112,,,,ES,,,eng,true,3,9187167,35,52,13,1,2010/6/1,,book,5,3,5,0,0,4.00,,,,0,0,Brenda Huber,,,,,,20,1,,romance
11797501,031609448X,The Team That Stopped Moving,9780316094481,,,,ES,2009/12/19,"Little, Brown Books for Young Readers",,true,5,11797501,4,0,0,0,1975/3/1,The Team That Stopped Moving,,0,0,0,0,0,0.00,,ebook,,0,0,Matt Christopher,,,,,,3,0,,fiction
11798501,0061468401,"A Kingdom Besieged (The Chaoswar Saga, #1)",9780061468407,,,,ES,2012/2/28,Harper Voyager,eng,false,19,8664327,16393,34509,8702,247,2011/1/1,A Kingdom Besieged,book,2822,3331,2068,390,91,3.97,363,Paperback,,106,7,Raymond E. Feist,,,,,,2724,31,207,"adventure,amazon,epic,epic-fantasy,fantasy,fiction,high-fantasy,magic,science,science-fiction,science-fiction-fantasy,speculative-fiction,war"
11800001,1438918542,Transcontinental Blues,9781438918549,,,,ES,2008/10/7,Authorhouse,,false,2,11800001,2,4,1,0,2008/10/1,,,0,1,0,0,0,4.00,208,Paperback,,1,0,Thomas   King,,,,,,2,0,,
11802001,,Egiptus. Kohtumine Vana-Egiptusega ,9789949427901,,,,ES,2007/1/1,Ajakirjade Kirjastus,est,false,1,11802001,3,5,2,0,2007/1/1,Egiptus : kohtumine Vana-Egiptusega ,book,0,0,1,1,0,2.50,176,Paperback,,2,0,Sergei Stadnikov,,,Katrin Juurvee,,,1,0,,history
11802501,1606236431,"Overcoming Anger in Your Relationship: How to Break the Cycle of Arguments, Put-Downs, and Stony Silences",9781606236437,,,,ES,2010/4/22,Guilford Publications,,true,6,8033393,85,123,29,4,2010/4/22,,,15,7,6,1,0,4.24,259,ebook,,0,0,W. Robert Nay,,,,,,39,0,10,"marriage,non-fiction,psychology"
11803501,,Shem Creek (Lowcountry Tales #4),,B004XKSXY8,,,ES,,,,true,28,65398,12246,31491,7805,317,2002/1/1,Shem Creek,book,2789,2935,1716,293,72,4.03,,,,318,7,Dorothea Benton Frank,,,,,,2632,37,256,"adult,adult-fiction,chick-lit,contemporary,drama,family,fiction,love,novels,romance"
11805001,0756912407,A Beasty Story,9780756912406,,,,ES,2002/9/1,Perfection Learning,,false,5,598158,276,597,162,34,1999/1/1,A Beasty Story,book,34,61,52,12,3,3.69,40,Hardcover,,1,0,"Bill Martin Jr.,Steven Kellogg",,,,,,55,18,,"animals,childrens,classics,epic-fantasy,fiction,grad-school,holiday,humor,picture-books,poetry"
11805501,9500813572,"El Tren Fantasma (Elige Tu Propia Aventura, #52)",9789500813570,,,,ES,1997/4/1,Editorial Atlántida,spa,false,3,1448625,124,190,54,3,1991/1/1,"Ghost Train (Choose Your Own Adventure, #120)",book,10,19,17,5,3,3.52,116,Hardcover,Argentina,9,0,Louise Munro Foley,Frank Bolle,,,Eleonor Gorga,,53,6,1,"childrens,drama,horror,young-adult"
11806501,,Blindfold,,B003UES5QE,,,ES,,,,true,6,139890,206,461,115,8,2003/3/1,Blindfold,book,40,45,23,5,2,4.01,,,,37,0,Lyndon Stacey,,,,,,55,3,3,"animals,crime,fiction,mystery,thriller"
11808501,,"A Visit to Kino ("". . . And Gulliver Returns"" --In Search of Utopia-- #3)",2940011281402,,,,ES,,,,true,4,11808501,3,4,1,0,2010/10/1,,book,0,1,0,0,0,4.00,,,,0,0,Lemuel Gulliver XVI,,,,,,2,0,,
11809001,0735403805,Advanced Accelerator Concepts: 12th Advanced Accelerator Concepts Workshop,9780735403802,,,,ES,2006/12/1,Springer,,false,1,11809001,0,0,0,0,2006/12/28,,,0,0,0,0,0,0.00,928,,,0,0,Catherine Eyberger,,,Manoel Conde,,,,0,,
11810001,,Death of a Scholar,,B0052MF8MG,,,ES,,,,true,4,11809995,2,0,0,0,2011/5/17,,book,0,0,0,0,0,0.00,,,,0,0,Constance Shames,,,,,,,0,1,
11811501,,Commemorazione del conte Pompeo Litta Biumi letta il giorno 7 d'agosto 1874 nella sala del R ...,2940036000552,,,,ES,,,,true,1,11811501,0,0,0,0,,,,0,0,0,0,0,0.00,,,,0,0,Carlo Belgiojoso,,,,,,,0,,
11812501,,أنطون تشيخوف: مؤلفات مختارة - المجلد الرابع,,,,,ES,1987/1/1,دار رادوغا - موسكو,ara,false,2,6561482,961,734,182,27,1981/1/1,,book,68,63,41,9,1,4.03,469,Hardcover,,54,6,Anton Chekhov,,,,,,680,12,23,"classics,fiction,literature,plays"
11813001,5699474838,"Изгнанница Ойкумены (Urbi et Оrbi, или Городу и Миру, #3)",9785699474837,,,,ES,2011/2/4,Эксмо,rus,false,2,11813001,154,519,122,2,2011/2/4,Изгнанница Ойкумены,book,59,44,11,7,1,4.25,416,Hardcover,,117,1,"Henry Lion Oldie,Генри Лайон Олди",,,,,,16,5,2,"fantasy,fiction,science-fiction"
11816001,0191525731,Origins of Beowulf: From Vergil to Wiglaf: From Vergil to Wiglaf,9780191525735,,,,ES,,,,true,6,227410,44,27,8,2,2006/1/1,The Origins of Beowulf: From Vergil to Wiglaf,,1,4,1,1,1,3.38,,,,0,0,Richard North,,,,,,34,0,,"criticism,history,literature,mythology,non-fiction"
11816501,9026124554,De Cock en het Sombere Naakt,9789026124556,,,,ES,2009/10/1,Vbk Media,nl,true,11,1797628,226,426,124,15,1967/1/1,De Cock en het sombere naakt,book,13,43,54,13,1,3.44,162,ebook,,4,0,A.C. Baantjer,,,,,,10,8,1,"crime,detective,fiction,murder-mystery,mystery,thriller"
11817001,,"In memoriam: the Rev. W. Leeves, author of the air of Auld Robin Gray : with a few notices of other members of his family",2940021103541,,,,ES,,,,true,1,11817001,0,0,0,0,,,,0,0,0,0,0,0.00,,,,0,0,A.M. Moon,,,,,,,0,,
11819001,,The Adventures of Captain Hatteras,,B003AKY5BW,,,ES,,,eng,true,158,158247,5146,6686,1724,68,1866/1/1,Les Aventures du Capitaine Hatteras,book,515,621,465,109,14,3.88,,,,0,0,Jules Verne,,,,,,2852,21,77,"adventure,childrens,classic-literature,classics,fantasy,fiction,historical-fiction,history,literature,novels,science,science-fiction,survival,travel,unfinished"
11819501,0491000294,Beautiful People's Beauty Book,9780491000291,,,,ES,,,,false,3,265924,34,38,9,4,1971/1/1,The beautiful people's beauty book;: How to achieve the look and manner of the world's most attractive women,,5,2,1,1,0,4.22,,,,0,0,Luciana Avedon,,,,,,20,1,1,biography
11820001,8884023254,Ferdinando E Isabella: I Re Cattolici Nella Politica Europea Del Rinascimento,9788884023254,,,,ES,,,,false,2,11820001,7,7,2,0,2000/1/1,,,0,1,1,0,0,3.50,,,,2,0,Ernest Belenguer Cebria,,,,,,3,0,,
11821001,0140951482,Runner's Handbook,9780140951486,,,,ES,1978/9/28,Penguin Books,,false,12,700119,584,1202,307,30,1978/9/28,The Runner's Handbook: A Complete Fitness Guide for Men and Women on the Run,book,85,128,78,15,1,3.92,,Paperback,,0,0,"Bob Glover,Jack Shepherd",,,,,,176,4,25,"fiction,health,love,non-fiction,reference,self-help,sports"
11821501,1567520588,Basic Danish,9781567520583,,,,ES,,,,false,1,11821501,1,0,0,0,1998/5/1,,,0,0,0,0,0,0.00,,,,0,0,Conversa-Phone Institute Staff,,,,,,1,0,,
11823001,,Ascension Day Part 2 of 2,,B0052MG42Y,,,ES,2011/5/4,E-Media Books,eng,true,2,11823001,436,290,80,10,,,,25,19,23,7,6,3.62,576,,,79,10,John    Matthews,,,,,,266,8,49,"adult,amazon,classics,crime,fiction,mystery,mystery-thriller,suspense,thriller"
11823501,146202467X,"Angels And Miracles, Grief And Hope",9781462024674,,,,ES,2011/6/16,iUniverse,,false,3,11823534,6,13,3,0,2011/6/16,,,2,0,1,0,0,4.33,180,Paperback,,1,0,"Jim Knotek,Pastor Jim Knotek",,,,,,3,0,,"inspirational,spirituality"
11827501,,"The works of Francis Bacon, baron of Verulam, viscount St. Alban, and lord high chancellor of England",2940024617311,,,,ES,,,,true,7,21381283,49,45,11,0,2013/1/24,,,4,5,1,1,0,4.09,,,,0,0,Francis Bacon,,,,,,31,0,1,"classics,philosophy"
11828001,,Christian_Dior_And_I,2940024326725,,,,ES,,,,true,15,7743596,207,164,45,4,1956/1/1,,book,10,15,15,4,1,3.64,,,,0,0,Christian Dior,,,,,,113,1,21,"art,biography,memoir,non-fiction"
11829501,1934364991,Nithyananda Sangeeth,9781934364994,,,,ES,2007/12/1,Life Bliss Foundation,eng,false,1,11829501,5,15,3,0,2007/12/1,,book,3,0,0,0,0,5.00,548,,,3,0,Paramahamsa Nithyananda,,,,,,1,0,,
11830501,,Off the Hook,9780573113321,,,,ES,2013/10/1,Samuel French Ltd,,false,1,11830501,2,0,0,0,1988/6/1,,,0,0,0,0,0,0.00,122,Paperback,,0,0,Derek Benfield,,,,,,,0,,
11831001,3642126537,"Pervasive Computing: 8th International Conference, Pervasive 2010, Helsinki, Finland, May 17-20, 2010, Proceedings",9783642126536,,,,ES,2010/5/6,Springer,,false,1,11831001,0,0,0,0,2010/7/7,,,0,0,0,0,0,0.00,446,Paperback,,0,0,"Patrik Floreen,Patrik Floreen",,,,,,,0,,
11833001,,Doctrine of Virtue: Part 2 of the Metaphysics of Morals,,,,,ES,1980/1/1,University of Pennsylvania Press (Philadelphia),eng,false,9,976665,74,60,15,2,1797/1/1,Metaphysische Anfangsgrunde der Tugendlehre/Metaphysik der Sitten,book,5,5,5,0,0,4.00,174,Paperback,,1,1,Immanuel Kant,,,,,,27,0,,philosophy
11833501,,Im Zeichen des himmlischen Bären,,B004OL2SHO,,,ES,,,ger,true,4,2171485,46,77,20,2,1985/1/1,Im Zeichen des himmlischen Bären,book,6,6,7,1,0,3.85,,,,0,0,Federica de Cesco,,,,,,10,5,,"historical,historical-fiction"
11835501,9045015668,Stille sneeuwval - de geschiedenis van de zusters Makioka,9789045015668,,,,ES,2006/1/1,Atlas,nl,false,46,34449,21811,20538,5101,519,1943/1/1,細雪 [Sasameyuki],book,1829,1985,955,256,76,4.03,602,Paperback,"De twintigste eeuw, nr. 51",14,4,Jun'ichirō Tanizaki,,,,Jacques Westerhoven,,15353,34,330,"adult,adult-fiction,classics,contemporary,cultural,drama,family,fiction,historical,historical-fiction,history,international,literary-fiction,literature,modern-classics,novels,romance,unfinished"
11837001,2227746068,La Princesse captive,9782227746060,,,,ES,,,fre,false,1,11837001,3,9,2,0,2000/1/1,La Princesse captive,book,1,1,0,0,0,4.50,,Paperback,"Aventuriers de l'histoire, 807",2,0,"Claude Merle,Laure Mistral,Thierry Ségur",,,,,,1,0,,history
11837501,9044617087,Veilig leven in een sciencefictionwereld,9789044617085,,,,ES,2011/1/1,Prometheus,nl,false,27,7726420,27839,39989,11825,2099,2010/7/23,How to Live Safely in a Science Fictional Universe,book,1887,3677,3900,1785,576,3.38,,Paperback,,8,2,Charles Yu,,,,Roland Fagel,,13604,137,651,"adult,adult-fiction,american,comedy,contemporary,dystopia,family,fantasy,fiction,funny,humor,literary-fiction,literature,non-fiction,novels,philosophy,science,science-fiction,science-fiction-fantasy,speculative-fiction,time-travel,travel,unfinished"
11838501,1605047546,If You Believe,,,,,ES,2009/9/15,Samhain Publishing,,true,5,6938081,375,661,183,6,2009/1/1,,book,41,60,58,18,6,3.61,66,ebook,,1,0,Crystal Jordan,,,,,,135,23,,"adult,chick-lit,contemporary,erotica,fiction,novella,paranormal,romance"
11839001,2762584604,Party Surprise,9782762584608,,,,ES,,,,false,3,11839001,41,67,20,1,1993/1/1,,book,4,3,10,2,1,3.35,,,,13,0,Nicole Davidson,,,,,,5,2,1,"fiction,thriller,young-adult"
11841501,1461003334,The Tree Forest of the Tree God,9781461003335,,,,ES,2011/3/12,Createspace,,false,1,11841501,0,0,0,0,2011/3/12,,,0,0,0,0,0,0.00,58,Paperback,,0,0,Craig Brenner,,,,,,,0,,
11844501,,Agrarische Zust,2940039393316,,,,ES,,,,true,1,11844501,0,0,0,0,,,,0,0,0,0,0,0.00,,,,0,0,F. Freih von Reitzenstein Erwin Nasse,,,,,,,0,,
11846001,,Arctic Miscellanies: A Souvenir of the Late Polar Search,2940017457078,,,,ES,,,,true,3,11846001,0,0,0,0,2014/2/14,,book,0,0,0,0,0,0.00,,,,0,0,John            Ross,,,,,,,0,,
11846501,,Unknown Book 11846501,,,,,ES,,,,false,1,11846501,2,0,0,0,,,,0,0,0,0,0,0.00,,,,0,0,Unknown,,,,,,1,0,,
11847501,,Dollars and Sense: The Definitive Guide to Self-Publishing Success,,B00584MJF2,,,ES,,,,true,1,11847501,129,220,51,19,2011/6/24,,,26,17,6,2,0,4.31,,,,51,19,"Amber Scott,Carolyn McCray,Rachel Thompson",,,,,,60,3,6,"contemporary,non-fiction,self-help,writing"
11849501,,"A Narrative of an Exploratory Visit to Each of the Consular Cities of China, and to the Islands of Hong Kong and Chusan, in Behalf of the Church Missionary Society, in the Years 1844, 1845, 1846",2940020116573,,,,ES,,,eng,true,8,11849501,0,0,0,0,1847/1/1,,book,0,0,0,0,0,0.00,,,,0,0,George                  Smith,,,,,,,0,,
11850001,,How To Succeed At Everything - Achieve Your Dreams And Reach Your Goals,2940012927781,,,,ES,,,,true,1,11850001,4,8,2,0,2011/6/3,,,1,0,1,0,0,4.00,,,,2,0,Kelly Wallace,,,,,,1,0,,
11850501,,"De Dionis Chrysostomi orationibus: Quae Inscribuntur Diogenes(V, VIII, Ex, X)...",2940039164732,,,,ES,,,,true,1,11850501,0,0,0,0,,,,0,0,0,0,0,0.00,,,,0,0,Carl Friedrich Richard Stutzmann Hahn,,,,,,,0,,
11852501,1454702451,New Epson Complete Guide to Digital Printing,9781454702450,,,,ES,2011/9/6,Pixiq,,false,3,2720304,46,52,15,1,2008/7/1,New Epson Complete Guide to Digital Printing (A Lark Photography Book),,2,6,4,3,0,3.47,192,Paperback,,1,0,Rob Sheppard,,,,,,17,0,1,"cookbooks,writing"
11854001,1439272743,God's Will for the Rest of Us,9781439272749,,,,ES,2010/12/10,Createspace,,false,2,11854001,4,7,2,1,2010/12/10,,,0,1,1,0,0,3.50,310,Paperback,,2,1,Tom Mayhew,,,,,,2,0,,
11854501,9711001551,The Making of a Subversive: A Memoir,,,,,ES,1984/1/1,New Day Publishers,,false,2,7582665,19,7,3,0,1984/1/1,,book,0,0,1,2,0,2.33,236,,,0,0,Hernando J. Abaya,,,,,,13,0,3,memoir
11855501,0747231842,A Lady of Quality,9780747231844,,,,ES,1989/3/23,Delta,,false,2,10377553,0,0,0,0,1986/10/1,,,0,0,0,0,0,0.00,,Paperback,,0,0,Anonymous,,,,,,,0,,
11858501,,Unknown Book 11858501,,,,,ES,,,,false,1,11858501,1,0,0,0,,,,0,0,0,0,0,0.00,,,,0,0,Unknown,,,,,,,0,,manga
11859001,,Poemas,,,,,ES,2005/1/1,Iluminuras,por,false,21,11633,3585,6459,1517,71,1987/1/1,,book,733,521,200,47,16,4.26,143,Paperback,,5,1,Sylvia Plath,,,,,,1571,19,88,"american,classics,collections,death,fiction,literature,non-fiction,poetry"
11860501,9021001586,Het praktische bonsaiboek,9789021001586,,,,ES,1990/1/1,Zomer & Keuning,nl,false,2,4411945,18,34,10,1,1982/7/1,The Essentials of Bonsai,book,2,2,4,2,0,3.40,107,Hardcover,,0,0,Shufunotomo Editors,,,,,,4,0,,non-fiction
11861001,,The Twelfth Paladin,,,,,ES,2011/6/25,Melange Books,eng,false,3,11843526,152,89,23,16,2011/6/25,,book,8,7,6,1,1,3.87,245,Paperback,,0,0,Nora Weston,,,,,,120,4,2,"angels,demons,paranormal,romance,urban-fantasy"
11862001,9042030666,"La Lutte Des Paradigmes: La Littérature Entre Histoire, Biologie Et Médecine (Flaubert, Zola, Fontane). (Faux Titre) (French Edition)",9789042030664,,,,ES,2010/1/1,Brill/Rodopi,,false,1,11862001,1,0,0,0,2010/8/30,,,0,0,0,0,0,0.00,556,Hardcover,,0,0,Niklas Bender,,,,,,1,0,,
11862501,9810210256,Noise in Digital Magnetic Recording,9789810210250,,,,ES,1992/4/30,World Scientific Publishing Company,,false,1,11862501,0,0,0,0,1992/4/30,,,0,0,0,0,0,0.00,288,Paperback,,0,0,"T.C. Arnoldssen,T.C. Arnoldussen,T.C. Arnoldussen",,,,,,,0,,
11863001,,Shadow of the Moon,,,,,ES,1959/1/1,Pan Giant,eng,false,29,560535,6791,14861,3541,262,1957/1/1,Shadow of the Moon,book,1594,1200,626,92,29,4.20,,Paperback,X29,0,0,M.M. Kaye,,,,,,2601,22,114,"adult,adult-fiction,adventure,british-literature,chick-lit,classics,cultural,drama,epic,fiction,historical,historical-fiction,history,love-story,mystery,novels,romance,survival,suspense,victorian,war"
11864501,1602476969,"Speak Softly, Love Loudly: Uncommon Sense for Raising Healthy & Successful Kids",9781602476967,,,,ES,2007/10/1,Tate Publishing & Enterprises,,false,1,11864501,0,0,0,0,2007/10/1,,,0,0,0,0,0,0.00,,Audio CD,,0,0,William Allen Baughman,,,,,,,0,,
11865501,048647755X,The Laplace Transform,9780486477558,,,,ES,2010/12/22,Dover Publications,,false,1,11865501,13,0,0,0,2010/12/22,,book,0,0,0,0,0,0.00,416,Paperback,,0,0,David V. Widder,,,,,,6,0,3,
11868001,143433662X,"To Market, to Market in the Big Red Truck",9781434336620,,,,ES,2007/10/31,Authorhouse,,false,1,11868001,0,0,0,0,2007/10/28,,,0,0,0,0,0,0.00,44,Paperback,,0,0,"Beverly M. Bruemmer,Charr Floyd",,,,,,,0,,
11869501,,"The Province of British Columbia, Canada, its resources, commercial position and climate [microform]: and description of the new field opened up by the Canadian Pacific Railway with information for intending settlers : based on the personal investigation",2940029053831,,,,ES,,,,true,1,11869501,0,0,0,0,,,,0,0,0,0,0,0.00,,,,0,0,Molyneux St. John,,,,,,,0,,
11870001,,Dish of the Day,,B004FN2DV2,,,ES,,,,true,1,11870001,29,35,9,0,2010/12/8,,book,2,4,3,0,0,3.89,,,,9,0,Susan Sizemore,,,,,,19,0,,
11871001,,Un verdadero hombre de bien: comedia original en tres actos y en verso,2940031784686,,,,ES,,,,true,4,11871001,0,0,0,0,,,,0,0,0,0,0,0.00,,,,0,0,Eusebio Asquerino,,,,,,,0,,
11873001,,Warriors in the Mist: A Medieval Dark Fantasy,,B004Z1IXHC,,,ES,2011/5/2,Blue Wing Publications,en-GB,true,3,1806456,310,246,67,9,2007/7/5,Warriors in the Mist: A Medieval Dark Fantasy,book,23,13,22,4,5,3.67,506,,,18,0,Susan D. Kalior,,,,,,215,6,8,"fantasy,historical,magic,paranormal,romance"
11874001,,Green: Take a Ride With Me,,,,,ES,2011/6/1,Torquere Press Inc.,eng,true,1,11874001,23,28,8,2,2011/6/1,,book,0,4,4,0,0,3.50,38,ebook,,8,2,Erin Sheppard,,,,,,10,3,,"contemporary,gay,lgbt,romance,short-stories"
11874501,4592182464,ペンギン革命 6,9784592182467,,,,ES,,,,false,3,2324841,377,1116,272,5,2007/10/5,Penguin Revolution VOL 06,book,108,97,56,9,2,4.10,,,,1,0,"Sakura Tsukuba,筑波 さくら",,,,,,27,14,,"comics,contemporary,drama,fantasy,graphic-novels,manga,picture-books,romance,supernatural,young-adult"
11875001,4592184912,Sorairo Kaigan,9784592184911,,,,ES,,,,false,1,11875001,1,0,0,0,2008/1/1,,,0,0,0,0,0,0.00,,,,0,0,Yamada Nanpei,,,,,,,0,,
11876001,0415616417,The Formation of Hanbalism: Piety Into Power,9780415616416,,,,ES,2011/5/2,Routledge,,false,10,10263923,145,93,25,3,2002/4/25,,book,9,3,10,3,0,3.72,224,Paperback,,0,0,Nimrod Hurvitz,,,,,,7,2,6,religion
11878001,,Povjest gradine i trgovi ta Krapine,2940038713528,,,,ES,,,,true,3,11878000,0,0,0,0,,,,0,0,0,0,0,0.00,,,,0,0,Stjepan Ortner,,,,,,,0,,
11878501,,History Of King Richard The Third Of England,,B0058EAV8O,,,ES,,Charles River Publishing,eng,true,56,5066393,282,348,102,11,1858/1/1,History Of King Richard The Third Of England,book,11,37,38,15,1,3.41,,,,0,0,Jacob Abbott,,,,,,138,6,14,"biography,classics,education,historical,history,medieval,non-fiction"
11879501,,Beginner's Guide to Reflexology,2940012599391,,,,ES,,,,true,2,11879501,1,0,0,0,2011/5/23,,,0,0,0,0,0,0.00,,,,0,0,Kristi Abbott,,,,,,1,0,,
11880001,0534136591,Student Activities for Taking Charge of Your Career Direction and Job Search: Career Planning Guide,9780534136598,,,,ES,,,,false,1,11880001,0,0,0,0,1991/10/28,,,0,0,0,0,0,0.00,,,,0,0,Robert D. Lock,,,,,,,0,,
11882001,,Dragons' Onyx (Sword of Heavens #6),2940012223685,,,,ES,,,,true,6,7442335,188,543,125,1,2003/1/1,,book,64,45,12,3,1,4.34,,,,1,0,Richard S. Tuttle,,,,,,44,0,1,"fantasy,fiction,young-adult"
11883001,0521064236,Shakespeare Survey 10: The Roman Plays,9780521064231,,,,ES,1957/1/2,Cambridge University Press,,false,2,13726656,3,10,2,0,1957/1/2,,book,2,0,0,0,0,5.00,180,Hardcover,,0,0,,,,Allardyce Nicoll,,,2,0,,
11883501,,An English Commentary on Dante's Divina Commedia,2940023977225,,,,ES,,,,true,4,470619,0,0,0,0,1975/1/1,An English commentary on Dante's Divina commedia,,0,0,0,0,0,0.00,,,,0,0,Henry Fanshawe Tozer,,,,,,,0,,
11886001,,The Lucid Dreaming,,B0057HYEIU,,,ES,,,,true,7,6994180,245,167,43,8,2009/9/1,,book,15,15,7,5,1,3.88,,,,1,1,Lisa Morton,,,,,,196,9,2,"adult,adult-fiction,fiction,horror,mental-illness,science-fiction"
11887501,,A győztes egyedül van,,,,,ES,2011/1/1,ATHENAEUM 2000 KÖNYVKIADÓ KFT. ,hun,false,133,5356711,59714,98066,29092,1887,2008/1/1,O vencedor está só,book,5206,8246,9586,4240,1814,3.37,426,Hardcover,,17,0,Paulo Coelho,,,,,,20931,29,2249,"adult,classics,contemporary,crime,drama,fiction,inspirational,literature,love,modern,mystery,mystery-thriller,novels,philosophy,romance,spirituality,suspense,thriller,unfinished"
11888001,,"Notizie intorno alla vita e alle opere d e' pittori, scultori e intagliatori ...",2940038579230,,,,ES,,,,true,1,11888001,0,0,0,0,,,,0,0,0,0,0,0.00,,,,0,0,Giambatista Verci,,,,,,,0,,
11888501,,Trained To Kill - A Detective Oliver Rousseau Novel,2940011340703,,,,ES,,,eng,true,3,11873833,102,256,67,7,2011/5/20,,book,17,28,17,3,2,3.82,,,,0,0,Cynthia Townley,,,,,,18,0,9,"contemporary,mystery,suspense"
11889501,,The Claresby Ghost And Two Other Mysteries,,B004UC5SCO,,,ES,,,,true,3,11889501,14,37,10,0,2011/3/28,,,2,4,3,1,0,3.70,,,,10,0,Daphne Coleridge,,,,,,3,0,,
11891001,140688295X,In Happy Valley,9781406882957,,,,ES,2009/11/15,Echo Library,,false,23,8042944,19,27,7,0,1917/1/1,In Happy Valley,book,3,2,1,0,1,3.86,60,Paperback,,0,0,John Fox Jr.,,,,,,10,0,,"historical-fiction,romance,short-stories"
11892501,0399514082,Wrestling Calendar 1998,9780399514081,,,,ES,1987/9/2,Perigee Trade,,false,1,11892501,0,0,0,0,1987/9/2,,,0,0,0,0,0,0.00,,Paperback,,0,0,,,World Wrestling Federation World Wrestling Federation,,,,,0,,
11893501,0425065456,Worlds Beyond Dune Bx,9780425065457,,,,ES,1983/10/1,Berkley,,false,8,115,32,24,6,0,1980/10/1,World Beyond Dune Box,book,4,0,1,0,1,4.00,,,,0,0,Frank Herbert,,,,,,21,0,,
11895001,042512522X,Food 30 Back Up,9780425125229,,,,ES,1990/4/1,Berkley,,false,1,11895001,2,0,0,0,1990/4/1,,,0,0,0,0,0,0.00,,,,0,0,Various,,,,,,2,0,,
11897501,0517142473,After Work Cookbook,9780517142479,,,,ES,1996/1/30,Random House Value Pub,,false,1,11897501,4,4,1,0,1996/1/30,,,0,1,0,0,0,4.00,,Hardcover,,1,0,"Nicole Gaunt,Random House",,,,,,,0,,"cookbooks,cooking"
11898001,1456559052,Samuel Rothchild,9781456559052,,,,ES,2012/2/2,Createspace,,false,1,11898001,1,0,0,0,2011/2/23,,,0,0,0,0,0,0.00,250,Paperback,,0,0,Jack T. Sanders,,,,,,1,0,,
11898501,0451011392,Kiss and Kill,9780451011398,,,,ES,1960/1/1,"Penguin Group USA, Inc",,false,1,11898501,8,0,0,0,1960/1/1,,book,0,0,0,0,0,0.00,,Paperback,,0,0,Brenda  Jackson,,,,,,8,0,,
11899001,0451018176,The Temptress,9780451018175,,,,ES,1960/1/1,"Penguin Group USA, Inc",,false,17,9535934,8,6,2,0,1960/1/1,The Temptress,book,0,0,2,0,0,3.00,,,,0,0,Carter Brown,,,,,,2,0,,
11899501,0451026403,Crow Killer,9780451026408,,,,ES,1972/11/1,Signet,,false,15,57456,1786,3465,893,82,1959/1/1,Crow Killer: The Saga of Liver-Eating Johnson (Midland Book),book,287,305,229,51,21,3.88,,Paperback,,0,0,Raymond W. Thorp,,,,,,653,9,91,"adventure,american-history,biography,biography-memoir,death,fiction,historical,historical-fiction,history,non-fiction"
11900001,0451034228,The Handy Book of Gardening,9780451034229,,,,ES,1968/3/1,Signet,,false,1,11900001,1,0,0,0,1968/3/1,,,0,0,0,0,0,0.00,,Paperback,,0,0,Albert Edmund Wilkinson,,,,,,,0,,
11900501,0451042107,Year Mets Lost Last,9780451042101,,,,ES,1969/10/1,Signet,,false,1,11900501,1,0,0,0,1969/10/1,,,0,0,0,0,0,0.00,,Paperback,,0,0,Unknown,,,,,,1,0,,
11901001,0451050053,White Fawn,9780451050052,,,,ES,1972/5/1,Signet,,false,1,11901001,1,0,0,0,1972/5/1,,,0,0,0,0,0,0.00,,Paperback,,0,0,Unknown,,,,,,1,0,,
11901501,0451057929,Court Hustler,9780451057921,,,,ES,1974/1/1,Signet,,false,1,11901501,1,3,1,0,1974/1/1,,,0,0,1,0,0,3.00,,Paperback,,1,0,Rigsby Rigsby,,,,,,,0,,
11902001,0451067797,John and the Missus,9780451067791,,,,ES,1975/11/18,Signet,,false,1,11902001,1,0,0,0,1975/11/18,,,0,0,0,0,0,0.00,,Paperback,,0,0,Unknown,,,,,,1,0,,
11902501,0451081293,Jumble Word Game 12,9780451081292,,,,ES,1978/7/5,Signet,,false,2,11903002,1,0,0,0,1978/7/1,,,0,0,0,0,0,0.00,,Paperback,,0,0,Henri  Lee,,,,,,,0,,
11903001,0451112253,Dr. Atkins' Super Energy Cookbook,9780451112255,,,,ES,1978/3/1,Signet,,false,4,17738936,4,0,0,0,1978/1/1,,book,0,0,0,0,0,0.00,,Paperback,,0,0,"Fran Gare,Robert C. Atkins",,,,,,3,1,,non-fiction
11903501,0451137043,Survival Zero,9780451137043,,,,ES,1971/4/1,Signet,,false,21,937796,370,601,171,7,1970/1/1, ,book,29,52,71,16,3,3.51,160,Paperback,,1,0,Mickey Spillane,,,,,,142,8,7,"action,crime,detective,fiction,mystery,novels,suspense"
11904001,0451172876,Taurus 1993,9780451172877,,,,ES,1992/7/7,Signet,,false,1,11904001,0,0,0,0,1992/7/7,,,0,0,0,0,0,0.00,272,Paperback,,0,0,Sydney  Omarr,,,,,,,0,,
11904501,0451506529,The Adventure of the Speckled Band,9780451506528,,,,ES,1965/10/1,Signet Classics,,false,128,2029162,10068,26834,6598,287,1892/1/1,The Adventure of the Speckled Band,book,2337,2649,1370,201,41,4.07,,Paperback,,0,0,Arthur Conan Doyle,,,,,,1606,72,47,"adult,adult-fiction,adventure,british-literature,classic-literature,classics,crime,detective,english-literature,fiction,historical,historical-fiction,literature,murder-mystery,mystery,mystery-thriller,novels,school,short-stories,suspense,thriller,victorian"
11905001,0451604857,Darwin and the Modern World,9780451604859,,,,ES,1960/1/1,"Penguin Group USA, Inc",,false,4,6776119,15,29,8,2,1960/1/1,,,1,4,2,1,0,3.62,,,,0,0,John C. Greene,,,,,,3,0,,science
11905501,0451613228,Think: A Biography of the Watsons and IBM,9780451613226,,,,ES,1974/8/20,Signet,,false,2,11905501,0,0,0,0,1970/9/1,,,0,0,0,0,0,0.00,,Paperback,,0,0,Unknown,,,,,,,0,,
11906501,0452002788,Ancient India,9780452002784,,,,ES,1960/1/1,"Penguin Group USA, Inc",,false,1,11906501,2,0,0,0,1960/1/1,,,0,0,0,0,0,0.00,,Paperback,,0,0,Unknown,,,,,,2,0,,
11907001,0452252679,Calories and Carbohydrates,9780452252677,,,,ES,1973/3/6,Plume,,false,20,11901401,8,3,1,0,1973/3/6,,,0,0,1,0,0,3.00,,Paperback,,0,0,,,Barbara  Kraus,,,,1,0,,cookbooks
11907501,0515074187,"Longarm in the Badlands (Longarm, #47)",9780515074185,,,,ES,1983/4/15,Jove,,false,2,9544559,18,28,8,0,1982/9/1,,book,1,2,5,0,0,3.50,,Paperback,,0,0,Tabor Evans,,,,,,4,0,,adult
11909501,086140274X,Country to Play with: Level of Industry Negotiations in Berlin 1945-46,9780861402748,,,,ES,1987/12/1,Colin Smythe,,false,1,11909501,0,0,0,0,1987/12/31,,,0,0,0,0,0,0.00,72,Paperback,,0,0,Alec Cairncross,,,,,,,0,,
11910001,0843128763,Song Title Trivia:'60,9780843128765,,,,ES,1991/1/25,PSS Adult,,false,1,11910001,0,0,0,0,1991/1/25,,,0,0,0,0,0,0.00,,Paperback,,0,0,Richard  Latta,,,,,,,0,,
11911501,184748672X,The Wheel of Life,9781847486721,,,,ES,,,,false,1,11911501,0,0,0,0,2010/6/18,,,0,0,0,0,0,0.00,,,,0,0,Ruhi Darakhshani,,,,,,,0,,
11913501,184265313X,Shilajit In Perspective,9781842653135,,,,ES,,,,false,1,11913501,2,0,0,0,,,,0,0,0,0,0,0.00,,,,0,0,Shibnath Ghosal,,,,,,2,0,,
11915001,9864170880,鬼魅的大窗子 (波特萊爾大遇險03) / Gui mei de da chuang zi,9789864170883,,,,ES,2003/1/1,,zho,false,111,438492,211355,557352,141856,4359,2000/2/2,The Wide Window,book,44674,51883,37234,6683,1382,3.93,,,,4,0,Lemony Snicket,,,,,,24661,1187,1321,"adventure,childrens,classics,contemporary,dark,family,fantasy,fiction,funny,gothic,humor,juvenile,middle-grade,mystery,novels,realistic-fiction,teen,young-adult"
11915501,1423209435,Windows 7,9781423209430,,,,ES,2009/12/31,QuickStudy Reference Guides,,false,1,11915501,2,5,1,0,2009/12/31,,,1,0,0,0,0,5.00,6,Fold-out Book,,1,0,John Hales,,,,,,1,0,,
11916001,0373828837,"Courting the Enemy (WWII, #2)",9780373828838,,,,ES,2011/9/6,Love Inspired,,false,8,11916001,196,305,75,16,2011/9/1,Courting the Enemy,book,37,15,17,3,3,4.07,288,Paperback,Love Inspired Historical #103,63,16,Renee Ryan,,,,,,109,6,2,"christian,christian-fiction,fiction,harlequin,historical,historical-fiction,inspirational,romance,suspense"
11916501,0439500303,Kindergarten Basic Skills: Alphabet and Fine Motor Skills,9780439500302,,,,ES,2002/4/1,Scholastic Teaching Resources (Teaching Strategies),,false,1,11916501,0,0,0,0,2002/4/1,,,0,0,0,0,0,0.00,48,Unknown Binding,,0,0,"Karen Sevaly,Kelley Wingate Levy,Scholastic Inc.",,,,,,,0,,
11917001,1455843008,All Clear,9781455843008,,,,ES,2011/10/25,Brilliance Audio,,false,38,7519231,24681,61309,15088,2015,2010/1/1,All Clear,book,5771,5698,2644,755,220,4.06,20,Audio CD,,5,2,"Connie Willis,Katherine Kellgren",,,,,,7436,86,271,"adult,adult-fiction,adventure,fantasy,fiction,historical,historical-fiction,history,mystery,novels,science,science-fiction,science-fiction-fantasy,speculative-fiction,time-travel,travel,war"
11917501,,Neko Taro: The Boy Who Drew Cats,2940012507440,,,,ES,,,,true,1,11917501,1,0,0,0,2011/5/23,,,0,0,0,0,0,0.00,,,,0,0,Regina Doi,,,,,,1,1,,
11918001,,Do Polar Bears Get Lonely?,,B002XOTQ10,,,ES,,,,true,19,5292423,1394,2395,668,52,2008/10/9,Do Polar Bears Get Lonely?: And 101 Other Intriguing Science Questions,book,110,254,234,57,13,3.59,,,,75,1,New Scientist,,,,,,451,16,22,"animals,humor,non-fiction,reference,science"
11918501,1429982306,"Dead Last (Thorn, #12)",9781429982306,,,,ES,2011/11/22,Minotaur Books,,true,4,11918501,712,1587,414,59,2011/11/22,Dead Last,book,99,182,102,27,4,3.83,336,ebook,,275,49,James W. Hall,,,,,,169,6,11,"action,crime,detective,fiction,mystery,mystery-thriller,suspense,thriller"
11919001,,"The church universal: a series of discourses on the true comprehension of the church, as exhibited mainly in the Holy Scriptures and subordinately in the standards of the Protestant Episcopal church. With thoughts on church government and worship: and a v",2940017235072,,,,ES,,,,true,7,11919000,0,0,0,0,2008/11/1,,,0,0,0,0,0,0.00,,,,0,0,John Seely Stone,,,,,,,0,,
11921001,,"Seduced by Her Highland Warrior (MacKinloch Clan, #2)",,B0055PTG7S,,,ES,2011/8/1,Harlequin Historical,eng,true,22,11070908,1440,2507,650,77,2011/1/1,Seduced by Her Highland Warrior ,book,202,222,172,39,15,3.86,,,Harlequin Historical #1054,66,4,Michelle Willingham,,,,,,602,17,24,"adult,drama,erotica,fiction,harlequin,historical,historical-fiction,medieval,romance"
11922001,9681647815,"La Pildora, los Chimpances Pigmeos y el Caballo de Degas",9789681647810,,,,ES,,,,false,6,1710675,108,144,36,7,1992/4/1,"The Pill, Pygmy Chimps, and Degas' Horse: The Autobiography of Carl Djerassi",,11,18,3,4,0,4.00,,,,0,0,"Carl Djerassi,Hugo Martinez Moctezuma,Roberto Elier",,,,,,50,3,4,"autobiography,biography,essays,science"
11924501,0194575861,Pro File 3: Upper Intermediate: Workbook,9780194575867,,,,ES,2005/5/19,Oxford University Press,,false,1,11924501,3,0,0,0,2005/5/19,,,0,0,0,0,0,0.00,83,Paperback,,0,0,Jon Naunton,,,,,,3,0,,
11925001,2890620090,Leisure Arts: The Magazine Vol 8 No 3,,,,,ES,1994/4/1,Leisure Arts Inc,eng,false,1,11925001,1,3,1,0,1994/4/1,Leisure Arts: The Magazine,periodical,0,0,1,0,0,3.00,34,Paperback,,1,0,,,,Leisure Arts Inc.,,,,0,,
11926501,8497542819,Las maravillas del mundo explicadas a los ninos/ The wonders of the world explained to children,9788497542814,,,,ES,,,,false,1,11926501,1,0,0,0,2007/10/15,,,0,0,0,0,0,0.00,,,,0,0,Élisabeth Dumont-Le Cornec,,,,,,,0,,
11927001,,Alex Charles: Dreams In Time,2940012940124,,,,ES,,,,true,3,11788738,103,47,10,2,2011/6/8,Alex Charles: Dreams In Time (Volume 2),book,7,3,0,0,0,4.70,,,,0,0,"Alisa Ferrara,Kim Reynolds,Lorraine White",,,,,,83,4,2,mystery
11929001,0140567046,Beetle In The Bathroom,9780140567045,,,,ES,2001/5/1,Puffin,,false,1,11929001,13,17,5,1,2001/4/26,,,0,3,1,1,0,3.40,32,Paperback,,5,1,Brian Moses,Sonia Holleyman,,,,,7,0,,
11929501,0531167364,The Telescope,9780531167366,,,,ES,2005/12/2,Children's Press(CT),,false,3,11929501,4,1,1,0,2004/9/1,,,0,0,0,0,1,1.00,80,Paperback,,1,0,Tamra B. Orr,,,,,,1,0,,
11932001,9792051287,Fuko and the Ghost : Dating with the Ghost,,,,,ES,2004/1/1,PT Elex Media Komputindo,ind,false,1,11932001,118,205,48,5,2004/1/1,,book,29,10,5,1,3,4.27,149,Paperback,,48,5,Keiko Nagita,,,,,,86,0,,"fantasy,romance"
11932501,,Change Anything: The New Science of Personal Success (Audiobook),,B004W11HUK,,,ES,2011/4/11,Hachette Audio,eng,false,23,9745641,7534,10073,2547,216,2011/1/1,,book,883,890,594,136,44,3.95,,Audiobook,,9,3,"Al Switzler,David Maxfield,Joseph Grenny,Kerry Patterson,Ron McMillan",,,,,,1072,22,256,"business,education,health,leadership,mental-health,non-fiction,personal-development,psychology,reference,science,self-help,society"
11933501,,El doctor D. Antonio S,2940031791332,,,,ES,,,,true,1,11933501,0,0,0,0,,,,0,0,0,0,0,0.00,,,,0,0,Ramon Codina L,,,,,,,0,,
11934001,0521148987,A Little Trouble in Amsterdam Level 2 Elementary/Lower-intermediate American English,9780521148986,,,,ES,2010/5/31,Cambridge University Press,,false,5,14692669,183,109,35,8,2009/6/25,,,7,5,13,5,5,3.11,64,Paperback,,5,4,Richard MacAndrew,,,,,,110,1,10,
11935001,,Kat Got Your Tongue,,B0050K1GP8,,,ES,,,,true,1,11935001,10,13,4,1,2011/5/11,,book,0,2,1,1,0,3.25,,,,4,1,Amber Scott,,,,,,6,0,,
11938001,1124165231,"Perspective taking, stereotyping, prejudice, and behavioral explanations: When, why, and how perceivers take on the attitudes of a target.",9781124165233,,,,ES,,,,false,1,11938001,0,0,0,0,2010/1/1,,,0,0,0,0,0,0.00,,,,0,0,Sean Michael. Laurent,,,,,,,0,,
11938501,0521085489,Greek Foundation Course 1-5 Teachers,9780521085489,,,,ES,1972/11/2,Cambridge University Press,,false,1,11938501,0,0,0,0,1973/7/27,,,0,0,0,0,0,0.00,103,Paperback,,0,0,Cambridge School Classics Project,,,,,,,0,,
11939001,,"TTL Logic: Standard TTL, Schottky, Low-Power Schottky",,,,,ES,1988/1/1,Texas Instruments,,false,1,11939001,0,0,0,0,1988/1/1,,book,0,0,0,0,0,0.00,,Paperback,,0,0,Texas Instruments,,,,,,,0,,
11941001,,The Book of Illusions,,B002RI9YB4,,,ES,2008/9/4,Faber & Faber Fiction,eng,true,78,50618,31072,72235,18563,1016,2002/1/1,The Book of Illusions,book,5122,7816,4362,1012,251,3.89,,,,43,0,Paul Auster,,,,,,8720,168,327,"adult,adult-fiction,american,contemporary,dark,drama,fiction,film,literary-fiction,literature,modern,mystery,novels,suspense,thriller"
11941501,2765409803,Google Livres et le futur des bibliothèques numériques,9782765409809,,,,ES,,,,false,1,11941501,2,8,2,1,2010/1/1,,book,1,0,1,0,0,4.00,,,,2,1,Alain Jacquesson,,,,,,,0,,
11942001,2745300261,Entre Epicure et Vauvenargues: principes et formes de la pensée morale,9782745300263,,,,ES,,Champion,,false,1,11942001,1,0,0,0,,,,0,0,0,0,0,0.00,442,,,0,0,Jean Dagen,,,,,,1,0,,
11943501,4494004170,かっこ からんこ からりんこん,9784494004171,,,,ES,1976/1/1,童心社,,false,1,11943501,2,3,1,1,1976/11/20,,book,0,0,1,0,0,3.00,,Hardcover,,1,1,Daiji Kawasaki,,,,,,1,0,,picture-books
11944501,0207154600,The Australian Gardener's Wildflower Catalogue,9780207154607,,,,ES,,,,false,1,11944501,4,0,0,0,,,,0,0,0,0,0,0.00,,,,0,0,Denise Greig,,,,,,2,0,,non-fiction
11946501,2356483063,"Moi, 20 ans, diplômée, motivée... exploitée !",9782356483065,,,,ES,2011/6/1,,fre,false,3,11946501,78,150,44,7,2011/1/1,"Moi, 20 ans, diplômée, motivée... exploitée !",book,7,12,18,6,1,3.41,96,Hardcover,,33,6,"Cyndi Barbero,Yatuu",,,,,,18,2,,"comedy,contemporary,fiction,graphic-novels,manga,short-stories"
11947001,,Thank You For Flying Air Zoe,,B0058UNN8I,,,ES,2011/6/28,Booktrope,en-GB,true,3,11957608,622,522,135,42,2011/6/28,,book,46,42,35,7,5,3.87,,Kindle Edition,,18,3,Erik Atwell,,,,,,453,15,4,"adult-fiction,amazon,american,chick-lit,fiction,funny,literary-fiction,romance"
11948001,009950474X,Basilisk volume 3,9780099504740,,,,ES,2007/1/4,Tanoshimi,,false,10,31047,430,1167,295,10,2007/2/8,,book,91,122,62,18,2,3.96,240,Paperback,,4,0,Masaki Segawa,,,,,,58,9,1,"action,comics,fantasy,fiction,graphic-novels,historical,historical-fiction,manga,paranormal,romance,supernatural,war"
11948501,0571254454,Bob Dylan: Writings 1968-2010,9780571254453,,,,ES,2011/5/5,Faber  Faber,,false,11,9482044,647,1029,263,25,2010/9/24,,book,81,99,65,15,3,3.91,352,Paperback,,2,1,Greil Marcus,,,,,,302,5,22,"autobiography,biography,criticism,essays,film,history,literature,memoir,music,poetry,politics"
11952001,0387089217,Mathematical Foundations of Computer Science 1978,9780387089218,,,,ES,,,,false,3,11952001,0,0,0,0,1978/1/1,,book,0,0,0,0,0,0.00,,,,0,0,,,,Józef Winkowski,,,,0,,
11952501,2302017641,Gakuen Ouji Playboy Academy T03,9782302017641,,,,ES,2011/8/17,Soleil,fre,false,5,6236650,169,389,104,4,2007/1/1,Gakuen Prince 3,,31,31,29,10,3,3.74,,Paperback,,7,0,Jun Yuzuki,,,,,,19,8,2,"humor,manga,romance"
11953501,,Monsters,,B004Z1U8MK,,,ES,,,,true,2,11953501,5,14,3,2,2011/5/1,,book,2,1,0,0,0,4.67,,,,3,2,Keri Knutson,,,,,,2,0,,horror
11954501,2877300188,Tokyo Express,,,,,ES,,,fre,false,28,880842,2690,4345,1210,183,1957/1/1,点と線 [Ten to Sen],book,186,483,412,118,11,3.59,,,,28,3,Seichō Matsumoto,,,,,,1220,11,33,"crime,detective,fiction,literature,mystery,mystery-thriller,novels,thriller"
11955001,2100067346,Aide MÃ©moire De Toute La Biochimie (French Edition),9782100067343,,,,ES,,,,false,1,11955001,0,0,0,0,,,,0,0,0,0,0,0.00,,,,0,0,Heinz Weinman,Pierre Méhul,,,,,,0,,
11955501,,Essays by the Students of the College of Fort William in Bengal: To which are Added the Theses ...,2940018360698,,,,ES,,,,true,1,11955501,0,0,0,0,,,,0,0,0,0,0,0.00,,,,0,0,College of Fort William,,,,,,,0,,
11956501,9517464096,"Albert Edelfeltin fantasmagoria: nainen, 'Japani', tavaratalo",,,,,ES,2002/1/1,SKS,fin,false,1,11956501,8,3,1,0,2002/1/1,,book,0,0,1,0,0,3.00,477,Hardcover,,1,0,Anna Kortelainen,,,,,,5,0,,
11957001,1456423010,Heavenly Text Finding Christ Within Vol. II,9781456423018,,,,ES,2010/12/28,Createspace Independent Publishing Platform,,false,1,11957001,0,0,0,0,2010/12/28,,,0,0,0,0,0,0.00,180,Paperback,,0,0,Nancy Mertzlufft,,,,,,,0,,
11957501,1434981835,Tangled Past,,,,,ES,,,,false,1,11957501,0,0,0,0,,,,0,0,0,0,0,0.00,,,,0,0,Liulah Duray,,,,,,,0,,
11958001,0671801775,Growing Up Black,9780671801779,,,,ES,1975/4/15,Not Avail,,false,7,178521,224,231,55,2,1968/1/1,Growing Up Black: From Slave Days to the Present-25 African-Americans Reveal the Trials and Triumphs of Their Childhoods,book,26,15,13,1,0,4.20,257,Paperback,,0,0,Jay David,,,,,,124,3,30,"amazon,cultural,education,health,history,memoir,non-fiction,research,short-stories,society"
11958501,1440529795,5-Minute Mindfulness: Simple Daily Shortcuts to Transform Your Life,9781440529795,,,,ES,2011/12/18,Adams Media,en-GB,false,4,11958501,99,128,43,8,2011/11/18,,book,3,10,15,13,2,2.98,224,Paperback,,35,7,"David B. Dillard-Wright,Heidi E. Spear,Paula Munier",,,,,,36,4,6,"health,self-help,spirituality"
11959001,1451577877,Dead Men Don't Have Sex: A Guy's Guide to Surviving Prostrate Cancer,9781451577877,,,,ES,2010/7/14,Createspace Independent Publishing Platform,,false,2,11959001,3,9,2,0,2010/7/14,,,1,1,0,0,0,4.50,156,Paperback,,0,0,Robert        Hill,,,,,,1,0,,
11959501,0674037898,Teaching in America: The Slow Revolution,9780674037892,,,,ES,2009/7/1,Harvard University Press,,true,4,1069316,14,30,8,1,1999/3/10,Teaching in America: The Slow Revolution,,1,4,3,0,0,3.75,288,ebook,,0,0,"Christine E. Murray,Gerald Grant",,,,,,3,0,,education
11960501,1936792109,Golf Swing: The X-Factor IV,9781936792108,,,,ES,,,,false,2,11728816,7,3,1,0,2011/2/18,,,0,0,1,0,0,3.00,,,,1,0,Jim McLean,,,,,,4,0,,amazon
11962501,1572705892,The Doors of Perception,9781572705890,,,,ES,,,eng,false,60,3188964,25031,34991,8895,505,1954/1/1,The Doors of Perception,book,2749,3461,2143,431,111,3.93,2,,,0,0,Aldous Huxley,,,,,,13523,26,462,"art,biography,british-literature,classics,essays,fiction,history,literature,modern-classics,non-fiction,philosophy,psychology,religion,science,science-fiction,self-help,spirituality,unfinished"
11963001,2014635633,"Mary Poppins, Mon Histoire Du Soir",9782014635638,,,,ES,2010/6/16,Hachette Book Group USA,,false,6,7929125,182,260,64,5,1963/1/1,Mary Poppins (Classic Soundtracks),book,34,11,11,5,3,4.06,,Paperback,,0,0,,,,,,,75,9,1,"adventure,childrens,classics,comics,family,fantasy,fiction,juvenile,magic,picture-books"
11963501,,China and the Chinese,,B004TP94L8,,,ES,,,,true,46,11963501,327,445,128,15,1902/1/1,China and the Chinese,book,16,51,43,14,4,3.48,126,,,93,8,Herbert Allen Giles,,,,,,134,4,40,"academic,classics,historical,history,non-fiction,reference,sociology"
11964501,,Sexo raro (Colección Eros #5),9788496706309,,,,ES,2007/4/1,Dolmen Editorial,spa,false,1,11964501,11,10,3,1,2007/4/1,,book,0,1,2,0,0,3.33,48,Paperback,Recopilatorio.,3,1,David Ramírez,,,,,,5,0,,
11966001,2762581346,"Obsession (Frissons, #53)",9782762581348,,,,ES,,Héritage,fre,false,4,1644886,907,1322,355,32,1994/1/1,The Diary (Point Horror),book,103,95,121,28,8,3.72,,Paperback,,11,0,Sinclair Smith,,,,,,286,20,9,"childrens,fantasy,fiction,horror,paranormal,teen,thriller,young-adult"
11967001,1848844840,Battlefield General: Arnhem 1944,9781848844841,,,,ES,2012/2/2,Pen & Sword Military,,false,2,11967001,4,12,3,0,2011/11/19,,,1,1,1,0,0,4.00,166,Paperback,,2,0,"Diane Canwell,Jonathan Sutherland",,,,,,1,0,,
11968001,1425910483,Diligence: To the Things of God,9781425910488,,,,ES,2006/4/6,Authorhouse,,false,1,11968001,142,9,2,1,2006/4/14,,book,1,1,0,0,0,4.50,96,Paperback,,2,1,Sheldon Newton,,,,,,141,1,,
11969501,,Faith in the Land of Make-Believe: What God Can Do...Even In Hollywood,,B003U4VATI,,,ES,,,,true,1,11969501,3,4,1,0,2011/2/8,,,0,1,0,0,0,4.00,,,,1,0,Lee Stanley,,,,,,1,0,1,
11971501,9057644908,Daadkrachtig denken: voor een rijk en gelukkig leven,9789057644900,,,,ES,2004/1/1,Librero,nl,false,2,1636276,78,76,20,2,2001/1/1,Learn to Power Think: A Practical Guide to Positive and Effective,,5,8,5,2,0,3.80,160,Paperback,,1,0,Caterina Rando,,,,,,32,0,,"business,non-fiction,psychology,self-help"
11972501,3929839083,"Der Beziehungs Managerso Erreichen Sie Im Verkauf, Was Immer Sie Wollen",9783929839081,,,,ES,,,,false,1,11972501,2,0,0,0,2002/1/1,,,0,0,0,0,0,0.00,,,,0,0,Helmut Seßler,,,,,,1,0,,
11973501,1463401744,Beyond the Teacher's Reach,9781463401740,,,,ES,2011/6/16,Authorhouse,,false,3,11973501,0,0,0,0,2011/6/16,,,0,0,0,0,0,0.00,204,Paperback,,0,0,Zebony LaVie,,,,,,,0,,
11974001,,The Spiraling Evolution of My Next Door Neighbor,2940012491169,,,,ES,,,,true,1,11974001,5,4,2,1,2011/4/30,,,0,0,1,0,1,2.00,,,,2,1,Cool Water,,,,,,1,2,,
11975001,,Christian Eschatology and Social Thought: A History Essay on the Social Implications of Some Selected Aspects in Christian Eschatology to AD1500,2940023903354,,,,ES,,,eng,true,1,11975001,1,0,0,0,,,book,0,0,0,0,0,0.00,,,,0,0,Ray C. Petry,,,,,,,0,,
11976501,117007541X,"A Compendious History of the Old and New Testament, Extracted from the Holy Bible. and Adapted to All Capacities. ... and Adorned with 120 Curious Copper Cuts, Lively Representing Each History. the Fifth Edition, Corrected.",9781170075418,,,,ES,2010/6/9,"Gale Ecco, Print Editions",,false,1,11976501,0,0,0,0,2010/6/1,,,0,0,0,0,0,0.00,140,Paperback,,0,0,Various,,,,,,,0,,
11977001,1578192196,Talmud Bavli: Mevoar Be-Tosefet Hearot Ove-Hearot Im Tavnit Shas Ovilna ...,9781578192199,,,,ES,2014/2/1,Mesorah Arotsokrol,,false,2,14984922,0,0,0,0,1999/1/1,,,0,0,0,0,0,0.00,21,Hardcover,,0,0,,,Mesorah Heritage Foundation,,,,,0,,
11977501,2762544904,"Annabelle, Où Es Tu?",9782762544909,,,,ES,1989/1/1,Éditions Héritage,fre,false,1,11977501,2,5,1,0,1989/1/1,,book,1,0,0,0,0,5.00,,,,1,0,Danièle Desrosiers,,,,,,,0,,
11978001,,"Tales of the Grotesque and Arabesque Volume 1 (Tales of the Grotesque and Arabesque, #1)",,B001VH6GFO,,,ES,,,eng,true,6,247797,150,249,64,4,1839/11/1,"Tales of the Grotesque and Arabesque, Vol. I",book,23,19,17,2,3,3.89,,,,0,0,Edgar Allan Poe,,,,,,21,-1,3,"classics,fiction,horror,literature,short-stories"
11978501,1935188178,Something to Love,9781935188179,,,,ES,2010/10/7,Star Publish,,false,1,11978501,1,0,0,0,2010/10/7,,,0,0,0,0,0,0.00,60,Paperback,,0,0,Mary Lu Leon,,,,,,1,0,,
11979001,,"The Works of Josephus: Complete and Unabridged, New Updated Edition",,B0055KSGRY,,,ES,,,,true,19,168073,6066,7934,1910,88,100/1/1,The Works of Josephus,book,826,659,340,63,22,4.15,,,,0,0,Flavius Josephus,,,,William Whiston,,2254,17,1267,"biography,christian,christianity,classics,historical,history,non-fiction,philosophy,reference,religion,theology"
11979501,,The Earl's Wife,,B0045EONVE,,,ES,2010/9/30,Belgrave House/Regency Reads,eng,true,3,2677583,34,62,20,6,2001/6/1,The Earl's Wife,book,3,2,11,2,2,3.10,,,,2,0,Amy Lake,,,,,,8,2,,"historical,historical-fiction,regency,romance"
11980001,9048153247,"Fuzzy Sets, Logics and Reasoning about Knowledge",9789048153244,,,,ES,2010/12/9,Springer,,false,3,11980001,1,0,0,0,1999/9/29,,,0,0,0,0,0,0.00,425,Paperback,,0,0,"Erich Peter Klement,Henri Prade",,,Didier Dubois,,,1,0,,
11980501,1463801327,"The Laughing Cavalier by Baroness Orczy Juvenile Fiction, Action & Adventure",9781463801328,,,,ES,2011/6/16,Aegypan,,false,78,136115,1714,2004,505,42,1914/1/1,The Laughing Cavalier,book,186,174,104,25,16,3.97,322,Paperback,,4,0,Emmuska Orczy,,,,,,1072,18,23,"action,adventure,british-literature,classics,fiction,historical,historical-fiction,history,literature,novels,romance,thriller"
11981001,1232483680,"Arquitectura Gotica de Barcelona: Catedral de Santa Eulalia de Barcelona, Palacio de La Generalidad de Cataluna, Museo Diocesano de Barcelona",9781232483687,,,,ES,2011/5/27,"Books LLC, Wiki Series",,false,1,11981001,0,0,0,0,2011/5/28,,book,0,0,0,0,0,0.00,,Paperback,,0,0,Books LLC,,,,,,,0,,
11981501,,What Jamie Saw,,B002YD935O,,,ES,,,,true,19,958173,2777,5516,1530,146,1991/1/1,What Jamie Saw,book,398,439,446,185,62,3.61,,,,5,0,Carolyn Coman,,,,,,987,14,18,"abuse,chapter-books,childrens,contemporary,family,fiction,grad-school,juvenile,middle-grade,realistic-fiction,school,young-adult"
11982001,,The Maverick Experiment,,B004I1L0WO,,,ES,,,,true,5,10102873,732,863,281,32,2011/1/1,,book,29,60,117,52,23,3.07,,,,20,1,Drew Berquist,,,,,,358,27,17,"action,adventure,fiction,mystery,mystery-thriller,suspense,thriller"
11982501,,A Night at Tears of Crimson,,B004XJ7PJ8,,,ES,2011/6/22,Amazon Digital Services,eng,true,6,9307491,609,756,205,25,2010/9/6,Tears of Crimson,book,74,51,42,18,20,3.69,,,,3,1,"Cara Faith Donovan,Michelle Hughes",,,,,,354,10,4,"adult,erotica,fantasy,fiction,paranormal,romance,vampires"
11983501,0557073596,The Dharma Revelation,9780557073597,,,,ES,2016/6/3,Lulu.com,eng,false,2,8441739,27,57,13,0,2009/6/6,,book,10,0,2,0,1,4.38,454,Paperback,,0,0,Christopher Halt,,,,,,9,0,2,
11984001,0521272289,André Antoine,9780521272285,,,,ES,2009/8/24,Cambridge University Press,,false,2,11984001,1,0,0,0,1991/2/22,,book,0,0,0,0,0,0.00,232,Paperback,,0,0,Jean Chothia,,,,,,1,0,,
11985001,055763900X,Wait-A-Minute Bridge,9780557639007,,,,ES,2010/9/2,Lulu.com,,false,2,11985013,1,0,0,0,2010/9/2,,book,0,0,0,0,0,0.00,,Paperback,,0,0,David            Stevens,,,,,,,0,,
11985501,2253148563,Une Petite Femme,9782253148562,,,,ES,2006/9/1,Livre de Poche,fre,false,2,11985501,1,0,0,0,2006/9/1,,book,0,0,0,0,0,0.00,,Paperback,,0,0,Jean-Marc Roberts,,,,,,1,0,,
11986001,,"Cumming Once, Cumming Twice... Sold",,B00595K3V2,,,ES,,,,true,1,11986001,4,2,1,0,2011/6/30,,book,0,0,0,1,0,2.00,,,,1,0,Joan Wilder,,,,,,1,0,,
11986501,7108034115,The Suitcase Stories: Refugee Children Reclaim Their Identities,9787108034113,,,,ES,2010/6/1,Shang Hai San Lian Shu Dian,,false,1,11986501,0,0,0,0,2010/6/1,,,0,0,0,0,0,0.00,184,Paperback,,0,0,Glynis Clacherty,,,,,,,0,,
11987001,0727880691,Scotch Mist,9780727880697,,,,ES,2011/11/1,Severn House Publishers,,false,7,11987001,16,25,7,0,2011/11/1,,,3,1,1,1,1,3.57,208,Hardcover,,3,0,Elizabeth Darrell,,,,,,5,0,,
11988001,1241707561,"Essential Musicians: A Look at David Bowie, 1995-2003",9781241707569,,,,ES,,,,false,1,11988001,1,0,0,0,2011/5/31,,,0,0,0,0,0,0.00,,,,0,0,Juliette Hall,,,,,,1,0,,
11992001,1935317067,The Gospel of St. John: A Commentary,9781935317067,,,,ES,,,,false,1,11992001,0,0,0,0,2010/1/1,,,0,0,0,0,0,0.00,,,,0,0,"Elias Bouboutsis,Elias Bouboutsis,Peter A. Chamberas",,,,,,,0,,
11993001,,Jay: Phillys Own Prince,2940012857880,,,,ES,,,,true,3,11992486,10,15,3,1,2011/7/7,,,3,0,0,0,0,5.00,,,,1,0,Veronica Blackbeauty,,,,,,5,0,,
11996001,,Cleek: the Man of the Forty Faces,,B005AHV7Y6,,,ES,,,,true,66,4341159,159,339,89,16,1913/1/1,Cleek: the Man of the Forty Faces,book,24,31,28,5,1,3.81,,,,0,0,Thomas W. Hanshew,,,,,,38,6,4,"classics,fiction,historical,historical-fiction,mystery,novels"
11998001,0803252641,Bartholomew Fair,9780803252646,,,,ES,1964/12/1,University of Nebraska Press,,false,41,786010,1210,2134,637,36,1631/1/1,Bartholomew Fair,book,126,160,201,111,39,3.35,187,Hardcover,,0,0,Ben Jonson,,,,,,396,22,7,"british-literature,classic-literature,classics,comedy,drama,fiction,historical,humor,literature,plays,school,theatre"
11998501,8861581587,La scheggia d'obice,9788861581586,,,,ES,2011/1/1,Excelsior 1881,ita,false,39,141241,381,630,168,14,1915/4/16,L'Éclat d'obus,book,36,69,50,11,2,3.75,264,Paperback,,2,0,Maurice Leblanc,,,,,,145,2,5,"adventure,classics,contemporary,crime,detective,fiction,france,historical,literature,mystery,novels,school"
11999001,,A People's Man,2940023804712,,,,ES,,,,true,30,6569690,24,31,8,3,1914/1/1,,book,1,5,2,0,0,3.88,,,,0,0,E. Phillips Oppenheim,,,,,,10,1,4,"classics,historical-fiction"
11999501,0007329628,Nowhere to Run,9780007329625,,,,ES,2009/6/1,Not Avail,,false,5,6172023,48,79,20,1,2002/11/4,Nowhere to Run,,7,6,6,1,0,3.95,402,Paperback,,0,0,Maggie Hudson,,,,,,17,2,1,"fiction,modern"
12000501,9400706634,Integrated 60ghz RF Beamforming in CMOS,9789400706637,,,,ES,2011/3/30,Springer,,false,1,12000501,0,0,0,0,2011/3/28,,,0,0,0,0,0,0.00,128,Paperback,,0,0,"Arthur H.M. van Roermund,Peter G. M. Baltus,Yikun Yu",,,,,,,0,,
12001001,8759519819,Opium,9788759519813,,,,ES,2003/1/1,Lindhardt og Ringhof ,dan,false,4,12001001,69,116,33,3,2001/1/1,,book,6,9,15,2,1,3.52,345,,,31,2,Elsebeth Egholm,,,,,,19,2,,"crime,suspense"
12001501,0859790932,Spitfire: A Test Pilot's Story,9780859790932,,,,ES,1996/1/1,Air Data Publications Ltd,,false,4,1697287,70,157,36,1,1983/1/1,Spitfire: A Test Pilot's Story,book,19,11,6,0,0,4.36,320,Paperback,,1,0,Jeffrey Quill,,,,,,24,0,,"autobiography,biography,history,war"
12002001,,Annales du Service des antiquit,2940031339930,,,,ES,,,,true,9,12001998,0,0,0,0,,,,0,0,0,0,0,0.00,,,,0,0,"Egypt. Wizarat al-Ashghal al-Umumiyah,Institut francais d'archeologie orientale du Caire,Service des antiquités de l'Égypte",,,,,,,0,,
12002501,1565549651,"Private Osborne, Massachusetts 23rd Volunteers: Burnside Expedition, Roanoke Island, Second Front Against Richmond",9781565549654,,,,ES,2001/10/31,Pelican Publishing Company,,false,1,12002501,0,0,0,0,2001/10/31,,,0,0,0,0,0,0.00,304,Paperback,,0,0,Frederick M. Osborne,,,,,,,0,,
12003001,,UKiller Stuff and Tons of Money: Seeking History and Hidden Gems in Flea-Market America,,B0059UZHNQ,,,ES,2011/1/1,,eng,false,8,10426258,1256,1969,506,114,2011/1/1,Killer Stuff and Tons of Money: Seeking History and Hidden Gems in Flea-Market America,book,136,212,126,31,1,3.89,,,,0,0,Maureen Stanton,,,,,,45,22,15,"adult,americana,art,biography,business,history,memoir,non-fiction,reference,self-help"
12006001,1557259194,The Fidelity of Betrayal: Towards a Church Beyond Belief,9781557259196,,,,ES,2012/10/1,Paraclete Press,,false,6,2769844,806,1445,349,33,2008/1/1,The Fidelity of Betrayal: The Ir/Religious Heart of Christianity,book,133,146,56,14,0,4.14,208,Paperback,,0,0,Peter Rollins,,,,,,348,11,34,"christian,christianity,faith,non-fiction,philosophy,reference,religion,spirituality,theology,unfinished"
12006501,1580233686,The Way Into Judaism And The Environment (Way Into...),9781580233682,,,,ES,2008/9/1,Jewish Lights Publishing,,false,5,999448,25,49,14,3,2006/10/1,The Way into Judaism And the Environment (The Way Into),book,3,6,1,3,1,3.50,260,Paperback,,2,0,Jeremy Benstein,,,,,,9,1,1,"nature,non-fiction,science"
12007501,158160730X,Poor Man's Scout Rifle: A How to Guide,9781581607307,,,,ES,2010/7/1,Paladin Press,,false,2,19376205,8,27,7,1,2003/3/1,,,2,3,1,1,0,3.86,178,Paperback,,3,0,Bob Cashner,,,,,,,0,,
12008001,9749579453,nobody's child,9789749579459,,,,ES,2006/7/1,OMF publishers,tha,false,6,114697,89,104,26,5,2003/6/20,Nobody's Child: The Stirring True Story of an Unwanted Boy Who Found Hope,book,9,9,7,1,0,4.00,148,Paperback,1,2,1,John Robinson,,,,,,44,2,3,"biography,biography-memoir"
12008501,0324022182,"Lindo Student Version, Release 6.1",9780324022186,,,,ES,1999/6/1,Cengage Learning,,true,1,12008501,0,0,0,0,1999/6/1,,,0,0,0,0,0,0.00,,ebook,,0,0,"David R. Anderson,Dennis J. Sweeney,Thomas A. Williams",,,,,,,0,,
12010001,075911241X,Research Methods in Anthropology: Qualitative and Quantitative Approaches,9780759112414,,,,ES,2011/5/16,Altamira Press,,false,20,131959,573,941,244,16,1988/1/1,Research Methods in Anthropology: Qualitative and Quantitative Approaches,book,65,104,55,15,5,3.86,680,Hardcover,,0,0,H. Russell Bernard,,,,,,196,7,20,"academic,anthropology,non-fiction,reference,research,school,science,sociology"
12010501,1455405663,The Eight Strokes of the Clock,9781455405664,,,,ES,,,,true,103,141191,1004,1993,502,27,1923/1/1,Les huit coups de l'horloge,book,156,204,119,17,6,3.97,,,,0,0,Maurice Leblanc,,,,,,368,7,22,"adventure,classics,contemporary,crime,detective,fiction,france,mystery,novella,novels,short-stories,thriller"
12012001,,"Uninhibited (Wanton Wives, #5)",2940011339974,,,,ES,,,eng,true,3,21604892,130,148,40,2,2011/6/6,,,14,10,10,2,4,3.70,,,,16,2,Catherine Gayle,,,,,,62,5,2,"erotica,romance"
12013501,1456384317,If the Ocean Were Empty,9781456384319,,,,ES,2010/12/5,Createspace,,false,2,11813824,0,0,0,0,2010/12/5,,,0,0,0,0,0,0.00,238,Paperback,,0,0,Rebecca Andem,,,,,,,0,,
12014001,0735645884,Inside Windows(r) Communication Foundation,9780735645882,,,,ES,2007/5/19,Microsoft Press,,true,5,1268642,35,42,12,0,2007/5/16,Inside Microsoft Windows Communication Foundation (Pro Developer),book,3,1,7,1,0,3.50,303,ebook,,0,0,Justin Smith,,,,,,9,1,,
12015501,0983075808,Memories From The Land of The Intolerant Tyrant,9780983075806,,,,ES,,,,false,2,12015501,3,9,2,2,2010/12/31,,,1,1,0,0,0,4.50,,,,1,1,Gus Venegas,Roberta Lerman,,,,,1,0,,
12016001,,The Latehomecomer,,,,,ES,,,eng,false,14,2541323,9728,19309,4722,706,2008/1/1,,book,1769,1876,853,177,47,4.09,,Paperback,,265,35,Kao Kalia Yang,,,,,,830,31,3,"adult,american-history,anthropology,autobiography,biography,biography-memoir,college,family,fiction,historical,history,international,memoir,non-fiction,school,war"
12016501,0976990369,Chasing the Wind,9780976990369,,,,ES,2011/4/1,Shipyard Press,,false,2,12016501,2,10,2,1,2011/4/28,,,2,0,0,0,0,5.00,244,Paperback,,2,1,"Conrad N. Brown, Jr.",,,,,,,0,,
12019001,081721478X,Fuerza,9780817214784,,,,ES,,,,false,1,12019001,0,0,0,0,1979/1/28,,,0,0,0,0,0,0.00,,,,0,0,"Denis Wrigley,Harlan Wade,Mamie M. Contreras",,,,,,,0,,
12021501,1617773417,Think with Your Taste Buds: Desserts,9781617773419,,,,ES,2011/7/19,Tate Publishing & Enterprises,,false,1,12021501,1,5,1,1,2011/7/19,,,1,0,0,0,0,5.00,221,Paperback,,1,1,Martha Cheves,,,,,,,0,,
12022501,0690044372,"Cuts, Breaks, Bruises, and Burns: How Your Body Heals",9780690044379,,,,ES,1985/11/1,Crowell,,false,2,11314342,11,9,2,1,1985/11/1,,book,1,1,0,0,0,4.50,47,Hardcover,,0,0,"Joanna Cole,True Kelley",,,,,,5,1,,"juvenile,medical"
12023501,,Silence; Lectures and Writings by John Cage Summary & Study Guide,2940012788276,,,,ES,,,,true,2,10484933,24,23,6,0,2011/2/2,,,1,3,2,0,0,3.83,,,,0,0,BookRags,,,,,,22,0,1,"literature,music"
12024501,145921322X,"Considering Kate (The Stanislaskis, #6)",9781459213227,,,,ES,,,eng,true,48,114148,16342,40735,10240,190,2001/1/1,Considering Kate,book,3621,3454,2558,533,74,3.98,158,,,96,8,Nora Roberts,,,,,,2370,47,602,"adult,adult-fiction,chick-lit,contemporary,family,fiction,harlequin,modern,romance"
12025001,1617147753,Natural Disasters (Essential Issues),9781617147753,,,,ES,2011/1/1,Essential Library,,false,3,12025001,0,0,0,0,2011/1/1,,book,0,0,0,0,0,0.00,112,Hardcover,,0,0,Marcia Amidon Lusted,,,,,,,0,,
12027001,1101535660,What You Wish for: A Book for Darfur,9781101535660,,,,ES,2011/9/1,Putnam Publishing Group,,true,2,10269227,1256,624,180,31,2011/9/15,,book,33,54,65,20,8,3.47,288,ebook,,0,0,Alexander McCall Smith,,,,,,1007,15,8,"anthologies,drama,fiction,historical,poetry,realistic-fiction,short-stories,young-adult"
12029001,3631355424,Der Begriff Der Einbildungskraft Bei Rudolf Kassner,9783631355428,,,,ES,1999/9/1,"Peter Lang Gmbh, Internationaler Verlag Der Wissenschaften",ger,false,1,12029001,0,0,0,0,1999/1/28,,book,0,0,0,0,0,0.00,137,Paperback,,0,0,Sławomir Leśniak,,,,,,,0,,
12029501,,"Harpsichord Pieces, Book 2, Suite 10, No.5: La Fringante",2940000585436,,,,ES,,,,true,1,12029501,0,0,0,0,,,,0,0,0,0,0,0.00,,,,0,0,François Couperin,,,,,,,0,,
12030001,,The Pick Up Game,,B005BRV66E,,,ES,,,,true,3,12030001,12,19,6,0,2011/7/6,,,0,3,1,2,0,3.17,,,,6,0,C.C. Williams,,,,,,4,-1,,romance
12030501,9027498601,Gelukshypothese: de balans tussen oude wijsheid en moderne wetenschap,9789027498601,,,,ES,2006/1/1,Spectrum,nl,true,36,96884,74480,76916,18616,1184,2005/12/26,The Happiness Hypothesis: Finding Modern Truth in Ancient Wisdom,book,7945,6534,3097,724,316,4.13,,ebook,druk 1,2,0,Jonathan Haidt,,,,,,51581,92,2137,"business,education,health,history,inspirational,leadership,non-fiction,personal-development,philosophy,politics,psychology,reference,religion,science,self-help,society,sociology,spirituality,unfinished"
12031001,,An analysis of Gothick architecture ;,2940017870860,,,,ES,,,,true,6,13012980,0,0,0,0,2011/8/31,,,0,0,0,0,0,0.00,,,,0,0,Raphael Brandon,,,,,,,0,,
12032001,,The Girl is in Charge,2940012808479,,,,ES,,,eng,true,4,12296000,93,115,44,5,2011/3/29,The Girl is in Charge (Confessions of an Escort Addict),book,2,8,15,9,10,2.61,,,,0,0,J.T. Holland,,,,,,33,11,4,"adult,erotica,fiction"
12032501,0470632224,Strategic Business Transformation: The 7 Deadly Sins to Overcome,9780470632222,,,,ES,2011/10/4,Wiley,,false,7,12032501,5,17,5,1,2011/8/24,,,1,1,2,1,0,3.40,240,Hardcover,,4,0,Mohan Nair,,,,,,,0,,
12033001,0520270592,"Ian Hamilton Finlay: Selections, Edited and with an Introduction by Alec Finlay",9780520270596,,,,ES,2012/4/2,University of California Press,eng,false,4,12033001,61,82,20,4,2012/3/3,,book,7,9,3,1,0,4.10,334,Paperback,,19,4,Ian Hamilton Finlay,,,Alec Finlay,,,35,2,,"art,poetry"
12034501,,"HOW TO PERFORM SPIRITUAL BATHS, SPIRITUAL CLEANSING AND DIVINATION",2940012591760,,,,ES,,,,true,2,8774891,6,6,2,0,2009/6/30,,,0,1,0,1,0,3.00,,,,0,0,Ken Nunoo,,,,,,3,0,,
12039501,,Die 10. Symphonie,9783426502297,,,,ES,2010/9/1,Knaur,ger,false,23,6085158,1158,2417,677,45,2008/10/1,La décima sinfonía,book,145,213,230,61,28,3.57,425,Paperback,,2,0,Joseph Gelinek,,,,,,337,7,15,"action,christian,crime,fiction,historical,historical-fiction,history,literature,music,mystery,suspense,thriller"
12040001,0393069001,Reagan and Thatcher: The Difficult Relationship,9780393069006,,,,ES,2012/3/19,W. W. Norton  Company,,false,10,12040001,253,339,89,14,2012/3/1,,book,16,42,29,2,0,3.81,352,Hardcover,,85,12,Richard Aldous,,,,,,137,9,8,"american,american-history,autobiography,biography,history,non-fiction,politics"
12042501,,"A synopsis of Roman history, B.C. 31-A.D. 37: from the battle of Actium to the death of Tiberius, with short biographies",2940022438000,,,,ES,,,,true,3,39144641,0,0,0,0,,,,0,0,0,0,0,0.00,,,,0,0,William Frederick Masom,,,,,,,0,,
12044001,0199141088,The Mammalian Heart,9780199141081,,,,ES,,,,false,1,12044001,0,0,0,0,,,,0,0,0,0,0,0.00,,,,0,0,"A.R. Muir,Alan Ramsey Muir",,,,,,,0,,
12045501,0901291420,"Criteria, Or Chimera?: Standards For Assessment And Inspection: Some Problems Of Definition",9780901291424,,,,ES,,,,false,1,12045501,0,0,0,0,,,,0,0,0,0,0,0.00,,,,0,0,Graham Frater,,,,,,,0,,
12048501,,A Little Less Conversation (Interracial Romance),2940012571540,,,,ES,,,,true,2,11360711,22,43,15,2,2011/5/3,,,2,2,6,2,3,2.87,,,,0,0,Nona Wesley,,,,,,5,1,,novella
12049001,,Dusk,2940011348617,,,,ES,,,,true,7,8319600,71,84,26,5,2010/4/29,,,1,9,12,3,1,3.23,,,,0,0,Ashanti Luke,,,,,,34,6,1,"mystery,science-fiction"
12050001,0824800761,The Indian Mind: Essentials of Indian Philosophy and Culture,9780824800765,,,,ES,,University of Hawaii Press (Honolulu),,false,3,4356634,8,0,0,0,1967/1/1,The Indian Mind,book,0,0,0,0,0,0.00,,,,0,0,,,,,,,7,0,,"essays,philosophy,psychology"
12050501,1250001668,Secret of the White Rose,9781250001665,,,,ES,2012/2/28,St. Martins Press-3PL,,false,7,9683576,2180,3516,918,123,2011/5/24,,book,176,454,249,34,5,3.83,370,Paperback,,37,3,Stefanie Pintoff,,,,,,1083,24,5,"american,crime,detective,fiction,historical,historical-fiction,history,murder-mystery,mystery,mystery-thriller,suspense"
12051001,,My Cousin Jeremy,2940012350916,,,,ES,,,,true,2,11079929,99,134,37,4,2011/4/1,,book,12,10,8,3,4,3.62,,,,0,0,Susan Speers,,,,,,46,6,,"amazon,fiction,historical,historical-fiction,romance"
12052001,8842040878,Barocco al femminile,9788842040873,,,,ES,1992/1/1,Laterza,ita,false,1,12052001,3,0,0,0,1992/1/1,,book,0,0,0,0,0,0.00,266,Hardcover,Storia e società,0,0,,,,Giulia Calvi,,,,0,,
12053001,,"Vampire Knight, Vol. 3 (Vampire Knight, #3)",,,,,ES,2007/10/1,Panini Comics,por,false,23,784222,21805,61224,14345,271,2006/4/5,ヴァンパイア騎士 3 ,book,7684,3696,2277,501,187,4.27,196,Paperback,,4,0,Matsuri Hino,,,,,,4570,162,107,"action,comics,drama,fantasy,fiction,gothic,graphic-novels,graphic-novels-comics,high-school,horror,love,manga,mystery,paranormal,romance,school,supernatural,teen,urban-fantasy,vampires,young-adult"
12054001,,Chuva e Outras Novelas,,,,,ES,,Livros do Brasil,por,false,150,99661,2828,5970,1446,108,,,book,564,572,252,48,10,4.13,268,Paperback,Colecção Dois Mundos nº 22,10,0,W. Somerset Maugham,,,,Leonel Valandro,,1004,9,67,"adult,british-literature,classic-literature,classics,english-literature,european-literature,fiction,historical-fiction,humor,literary-fiction,literature,medical,mystery,novels,reference,religion,short-stories,travel"
12055001,1109279914,"The heir and the spare: Impact of birth order on risk attitudes, discount rates, and behaviors.",9781109279917,,,,ES,,,,false,1,12055001,0,0,0,0,,,,0,0,0,0,0,0.00,,,,0,0,Erica M. Morgan,,,,,,,0,,
12056501,,The Shadow Of The Phoenix,2940011096471,,,,ES,,,,true,4,7516445,14,16,5,3,2005/11/1,The Shadow of the Phoenix,,1,2,0,1,1,3.20,,,,0,0,Dolores A. McCabe,,,,,,8,1,,historical-fiction
12057001,,Illicit Alcohol,,,,,ES,,,,false,1,12057001,0,0,0,0,,,book,0,0,0,0,0,0.00,,,,0,0,Ranil Abeyasinghe,,,,,,,0,,
12058501,1118027507,Frommer's Walt Disney World and Orlando 2012,9781118027509,,,,ES,2011/11/8,Frommer's,,false,6,12058501,41,119,31,2,2011/9/30,,book,9,9,12,1,0,3.84,416,Paperback,,24,2,Laura Lea Miller,,,,,,,1,,"family,travel"
12059501,,El Color del Cielo,2940011238475,,,,ES,,,,true,4,10866279,6,10,3,2,2011/1/1,El Color del Cielo,book,1,1,0,0,1,3.33,,,,0,0,Ezequiel Tambornini,,,,,,1,0,1,
12060501,1592129269,L. Ron Hubbard Presents Writers of the Future 27,9781592129263,,,,ES,2011/6/27,Adobe Digital Editions ePub,eng,true,3,11469429,139,264,67,11,2011/6/20,L. Ron Hubbard Presents Writers of the Future Volume XXVII,book,18,32,13,3,1,3.94,,ebook,,1,1,,,,,,,52,5,6,"adult,aliens,anthologies,fantasy,science-fiction,short-stories"
12061501,0944276415,Echo,9780944276419,,,,ES,,,,false,1,12061501,2,3,1,0,1989/3/28,,,0,0,1,0,0,3.00,,,,1,0,"Kate Duffy,M.L. Vennum",,,,,,1,0,,
12062001,1606863223,Foul Play,9781606863220,,,,ES,2010/1/1,Perfection Learning,,false,11,1691119,338,626,158,7,,,,65,34,49,8,2,3.96,184,Hardcover,,0,0,Franklin W. Dixon,,,,,,120,12,8,"adventure,detective,fiction,mystery,young-adult"
12062501,,The life and letters of Lewis Carroll (Rev. C.L. Dodgson),2940021855754,,,,ES,,,,true,39,2899034,167,170,46,3,,,book,14,13,12,5,2,3.70,,,,0,0,Stuart Dodgson Collingwood,,,,,,89,4,6,"biography,classics,collections,essays,history,memoir,non-fiction"
12063001,1156288630,Chattanooga Mocs Basketball Players: Terrell Owens,9781156288634,,,,ES,2010/5/31,Books LLC,,false,1,12063001,1,0,0,0,2010/5/31,,,0,0,0,0,0,0.00,,Paperback,,0,0,,,,,,,1,0,,
12063501,,Selections from Spenser's The faerie queene;,2940023029900,,,,ES,,,,true,20,431121,45,65,17,0,1976/11/1,Selections from The Faerie Queene,book,7,3,4,3,0,3.82,,,,0,0,Edmund Spenser,,,,,,15,1,1,"childrens,classics,fantasy,fiction,literature,poetry,religion"
12064001,8259002299,Lyn Gordon Og Løvemennene På Mongo,,,,,ES,1986/1/1,Hjemmets Bokforlag,nor,false,1,12064001,3,8,2,0,1986/1/1,Flash Gordon - The Lion Men Of Mongo,book,1,0,1,0,0,4.00,125,Hardcover,,2,0,Alex Raymond,,,,Ernst W. Poleszynski,,,0,,
12065501,,"A treatise on the law of instructions to juries in civil and criminal cases, with forms of instructions approved by the courts",2940020355712,,,,ES,,,,true,9,12065502,0,0,0,0,2010/1/14,,,0,0,0,0,0,0.00,,,,0,0,Henry Edward Randall,,,,,,,0,,
12067001,3655193289,"A Brief Account of the Destruction of the Indies Or, a faithful NARRATIVE OF THE Horrid and Unexampled Massacres, Butcheries, and all manner of Cruelties, that Hell and Malice could invent",9783655193280,,,,ES,,,,true,78,182061,5507,8376,2241,248,1552/1/1,Brevisima relación de la destrucción de las Indias,book,586,768,648,191,48,3.74,,,,1,1,Bartolomé de las Casas,,,,,,2374,11,153,"academic,american-history,anthropology,classics,college,historical,history,horror,literature,non-fiction,philosophy,politics,religion,school,war"
12068001,,Love Juice Fetish: A Story of a Swing,2940012245243,,,,ES,,,,true,2,12068001,0,0,0,0,2011/3/11,,,0,0,0,0,0,0.00,,,,0,0,Phillip Moon,,,,,,,0,,
12068501,,Communist Strategies in Asia: A Comparative Analysis of Governments and Parties,,,,,ES,1963/1/1,"Frederick A. Praeger, Publishers",eng,false,4,12068501,3,4,1,0,1963/1/1,,book,0,1,0,0,0,4.00,293,Paperback,,1,0,,,,A. Doak Barnett,,,2,0,,
12069001,,"A brief memoir of Mrs. Lydia M. Malcom: late of Boston, Mass. wife ..., Part 4",2940023609157,,,,ES,,,,true,1,12069001,0,0,0,0,,,,0,0,0,0,0,0.00,,,,0,0,Lydia M. Malcom,,,,,,,0,,
12070001,,"The Innocents Abroad, Or, The New Pilgrims' Progress: Being Some Account of ...",2940021133647,,,,ES,,,,true,71,2443,27379,39600,10261,856,1869/1/1,The Innocents Abroad,book,2951,3950,2520,645,195,3.86,,,,1,1,Mark Twain,,,,,,2967,21,495,"adult-fiction,adventure,american,americana,autobiography,biography,biography-memoir,classic-literature,classics,comedy,fiction,france,funny,historical,historical-fiction,history,humor,literature,memoir,non-fiction,novels,religion,travel,unfinished"
12071001,,Hey-day of a Wizard,,,,,ES,1948/1/1,"George G. Harrap & Co., Ltd.",eng,false,2,12071001,7,7,2,0,1948/1/1,Hey-day of a Wizard,book,0,1,1,0,0,3.50,260,Hardcover,,1,0,Jean Burton,,,,,,5,0,,biography
12071501,,The Sloth Diaries  Volume 1,,,,,ES,2011/7/17,Gladpress,eng,true,1,12071501,2,5,1,1,2011/7/17,Thwe Sloth Diaries,book,1,0,0,0,0,5.00,,Kindle Edition,,1,1,Rusty  Gladdish,,,,,,1,0,,
12072001,,Nicholas Hopperbunn - The Lily of the Valley,2940013573987,,,,ES,,,,true,2,12072001,0,0,0,0,2011/6/14,,,0,0,0,0,0,0.00,,,,0,0,Carl Landon,,,,,,,0,,
12073001,115532482X,"Bbch-Scale: Stocksbridge Park Steels F.c., Vancouver Whitecaps Fc, Sun Hei Sc, Memphis Storm, Fc Kavkaztransgaz-2005 Ryzdvyany",9781155324821,,,,ES,,,,false,1,12073001,0,0,0,0,2010/5/3,,,0,0,0,0,0,0.00,,Paperback,,0,0,Books LLC,,,,,,,0,,
12073501,0533136911,The Intensity of God,9780533136919,,,,ES,,,,false,1,12073501,0,0,0,0,2001/8/1,,,0,0,0,0,0,0.00,,,,0,0,Phyllis Essie Backus,,,,,,,0,,
12074001,,Greensleeves,2940000485781,,,,ES,,,,true,2,12074000,2,4,1,0,,,book,0,1,0,0,0,4.00,,,,0,0,Unknown,,,,,,1,0,,
12074501,0064404943,Rosemary's Witch,9780064404945,,,,ES,1994/3/1,HarperCollins Publishers,,false,5,4347928,66,129,34,10,1991/1/1,Rosemary's Witch,book,8,14,10,1,1,3.79,,Paperback,,0,0,Ann Turner,,,,,,17,3,,"childrens,fantasy,fiction,juvenile,mystery,paranormal"
12075001,,Lindo de Doer,9788575552568,,,,ES,2011/1/1,,por,false,1,12075001,1,5,1,0,2011/1/1,,book,1,0,0,0,0,5.00,218,Paperback,1,1,0,"André Meyer,Tomás Chiaverini",,,,,,,0,,
12075501,,Kharma (Divine Series #1),9781452474144,,,,ES,2011/7/18,Forever Knight,eng,true,3,12075501,28,29,8,4,2011/7/17,,book,2,2,3,1,0,3.62,31,ebook,,6,3,Ladee Katherine,,,,,,17,0,,
12076001,1231436441,"Profesores Ficticios: Albus Dumbledore, Severus Snape, Seymour Skinner, Minerva McGonagall, Rubeus Hagrid, Profesor Frink, Edna Krabappel",9781231436448,,,,ES,2011/5/28,"Books LLC, Wiki Series",,false,1,12076001,5,0,0,0,2011/5/28,,book,0,0,0,0,0,0.00,,Paperback,,0,0,Books LLC,,,,,,5,0,,
12076501,0821580094,"Africa; Lands, Peoples, And Cultures Of The World",9780821580097,,,,ES,,,,false,1,12076501,70,27,6,0,,,,4,1,1,0,0,4.50,,,,6,0,Yosef A.A. Ben-Jochannan,,,,,,62,0,1,
12077501,,The brass bottle,2940018149071,,,,ES,,,,true,90,7979926,142,245,69,16,1900/1/1,,book,8,27,29,5,0,3.55,,,,0,0,F. Anstey,,,,,,57,3,3,"classics,fairy-tales,fantasy,fiction,historical-fiction,humor,unfinished"
12078001,1598500511,Letters from Prison,9781598500516,,,,ES,,,,false,1,12078001,4,4,2,1,2008/2/1,,,0,0,0,2,0,2.00,,,,2,1,Monique Holeyfield,,,,,,2,0,,adult
12078501,0005121450,Classics-Christmas Fav(Stk) D,9780005121450,,,,ES,,,,false,1,12078501,0,0,0,0,1995/9/1,,,0,0,0,0,0,0.00,,,,0,0,Cedarmnt Kid,,,,,,,0,,
12079001,0983352623,Truth Be Told,9780983352624,,,,ES,2011/5/1,"Shapato Publishing, LLC",,false,1,12079001,2,2,2,0,2011/5/28,,,0,0,0,0,2,1.00,244,Paperback,,2,0,Robert Pritchard,,,,,,,0,,"christian,fiction"
12080501,,"Magic, white and black; or The science of finate [!] and infinate life, containing practical hints for students of occultism",2940021074223,,,,ES,,,,true,37,225556,173,190,43,3,1886/1/1,"Magic, White and Black: The Science of Finite and Infinite Life Containing Practical Hints for Students of Occultism",book,28,8,5,1,1,4.42,,,,0,0,Franz Hartmann,,,,,,98,2,14,
12081001,6132645535,Holker Hall,9786132645531,,,,ES,2010/8/22,Alphascript Publishing,,false,1,12081001,1,0,0,0,2010/8/28,,,0,0,0,0,0,0.00,76,Paperback,,0,0,"Agnes F. Vandome,John McBrewster",,,Frederic P.  Miller,,,1,0,,
12083001,0594020484,Bad Things Happen,9780594020486,,,,ES,,,,false,25,5819399,9283,18348,5106,894,2009/1/1,Bad Things Happen,book,806,2079,1677,427,117,3.59,,,,0,0,Harry Dolan,,,,,,3236,54,115,"adult,crime,detective,fiction,murder-mystery,mystery,mystery-thriller,suspense,thriller"
12083501,,The Endgame (The Gifted #2),,,,,ES,2016/2/5,,eng,true,2,12083501,15,5,1,0,2014/12/1,,book,1,0,0,0,0,5.00,,ebook,,0,0,Jennifer Whitfield,,,,,,11,0,,
12084001,9794168823,Election Watch: Meretas Jalan Demokrasi,9789794168820,,,,ES,2006/8/1,Pustaka Sinar Harapan  - Jakarta,ind,false,1,12084001,2,2,1,1,2006/8/1,,book,0,0,0,1,0,2.00,300,Paperback,,1,1,Denny J.A.,,,,,,,0,,
12085501,1889439371,Parallel Motion: A Biography of Nevil Shute Norway,9781889439372,,,,ES,2011/7/15,Paper Tiger (NJ),,false,1,12085501,39,83,20,7,2011/7/15,,book,11,5,1,2,1,4.15,344,Hardcover,,20,7,John       Anderson,,,,,,17,0,2,biography
12086001,3833444630,"Hurra, ich lebe noch! Dank meinem Schutzengel und tüchtigen Ärzten",9783833444630,,,,ES,2015/9/3,Books on Demand,,false,1,12086001,0,0,0,0,2006/4/20,,,0,0,0,0,0,0.00,188,Paperback,,0,0,Ulrike Klingenberg,,,,,,,0,,
12086501,,Politics: From Precinct To Presidency,,,,,ES,1968/1/1,,eng,false,1,12086501,0,0,0,0,1968/1/1,,book,0,0,0,0,0,0.00,,,,0,0,R.A. Liston,,,,,,,0,,
12087501,1458757889,A Zen Wave (Large Print 16pt),9781458757883,,,,ES,2010/5/1,ReadHowYouWant,,false,8,162476,244,519,123,12,1979/1/1,A Zen Wave: Basho's Haiku and Zen,book,54,47,18,3,1,4.22,240,Paperback,Large Print,0,0,Robert Aitken,,,,,,89,3,12,"biography,non-fiction,poetry"
12088001,0062106953,"Kindergators: Hands Off, Harry!",9780062106957,,,,ES,2011/6/21,Katherine Tegen Books,,true,4,10200427,411,674,189,35,2011/1/1,,book,38,53,77,20,1,3.57,40,ebook,,0,0,Rosemary Wells,,,,,,140,16,3,"animals,childrens,fiction,funny,picture-books,school"
12089001,,"Carlyle and the London library. Account of its foundation: together with unpublished letters of Thomas Carlyle to W. D. Christie, C. B.: arranged by Mary Christie:",2940018143321,,,,ES,,,,true,8,12089000,1,3,1,0,2010/8/20,,,0,0,1,0,0,3.00,,,,0,0,Frederic Harrison,,,,,,,0,,history
12089501,,Leather and Pleasure,2940012511690,,,,ES,,,,true,3,11113177,36,51,13,4,2011/4/22,,book,6,3,2,1,1,3.92,,,,0,0,Jennifer Labelle,,,,,,21,0,,"bdsm,erotica,menage"
12091001,,Drusilla and her dolls; a true story of a little girl of Boston in the '60's,2940018413127,,,,ES,,,,true,1,12091001,0,0,0,0,,,,0,0,0,0,0,0.00,,,,0,0,Belle Bacon Bond,,,,,,,0,,
12092001,,Ivanhoe,2940012725240,,,,ES,,,,true,1206,6440,137748,294372,78441,2088,1819/1/1,Ivanhoe,book,21033,27171,22057,6172,2008,3.75,,,,0,0,Walter Scott,,,,,,49299,322,1980,"adult,adult-fiction,adventure,british-literature,classic-literature,classics,english-literature,fantasy,fiction,historical,historical-fiction,history,literary-fiction,literature,medieval,novels,romance,school,unfinished,war"
12092501,0132881071,Financial Management: Principals and Applications,9780132881074,,,,ES,2011/11/26,,eng,true,49,884253,1447,636,165,16,,,book,65,48,27,13,12,3.85,,ebook,MyFinanceLab with Pearson eText,0,0,"Arthur J. Keown,John D.  Martin,Sheridan Titman",,,,,,936,1,49,"business,school,textbooks"
12093001,,Solve It! 4th Problem-Solving Strategies,9781932093377,,,,ES,,,,false,1,12093001,0,0,0,0,,,book,0,0,0,0,0,0.00,,,,0,0,"Dave Youngs,Michelle Pauls",,,,,,,0,,
12093501,1113431369,Initials Only,9781113431363,,,,ES,,,,false,57,6246317,280,334,106,18,,,book,9,33,36,21,7,3.15,,,,1,0,Anna Katharine Green,,,,,,118,9,4,"american,classics,fiction,mystery,romance,suspense,thriller"
12095501,,The Viscount's Muse,2940000095416,,,,ES,,,,true,2,12095501,6,4,1,0,2005/10/3,,,0,1,0,0,0,4.00,,,,1,0,Robin Danner,,,,,,4,0,,
12096001,,Perdida Num Bom Livro,9789897020025,,,,ES,2011/1/1,Editora Guerra & Paz,por,false,65,27000,65737,190091,45944,2595,2002/3/31,Lost in a Good Book,book,16836,20064,7800,1011,233,4.14,400,Paperback,,11,1,Jasper Fforde,,,,,,12270,124,527,"adult,adult-fiction,adventure,british-literature,comedy,contemporary,crime,detective,fantasy,fiction,funny,humor,literary-fiction,literature,magical-realism,mystery,mystery-thriller,novels,science-fiction,science-fiction-fantasy,speculative-fiction,time-travel,urban-fantasy"
12096501,2264030585,Mon grain de sable,9782264030580,,,,ES,,10/18,fre,false,2,12096501,22,45,12,2,1995/1/1,,book,5,3,1,2,1,3.75,96,Paperback,,5,1,Luciano Bolis,,,,,,5,0,,
12097001,0553230085,You,9780553230086,,,,ES,, Bantam Books (Mm),,false,6,6002720,55,67,18,3,1975/4/1,You,book,7,4,2,5,0,3.72,,,,1,1,Anonymous,,,,,,31,0,2,romance
12097501,2280840936,Aventure brésilienne / Amoureuse de son ennemi / La fiancée infidèle,9782280840934,,,,ES,2008/8/1,Éd. Harlequin,fre,false,1,12097501,2,0,0,0,,,,0,0,0,0,0,0.00,450,Paperback,,0,0,"Carole Mortimer,India Grey,Sarah Morgan",,,,Elisabeth Marzin,,1,0,,
12098001,1450096638,Twelve Months of New Orleans Cooking,9781450096638,,,,ES,2010/4/14,Xlibris,,false,1,12098001,0,0,0,0,2010/4/14,,,0,0,0,0,0,0.00,44,Paperback,,0,0,Illya Roberts,,,,,,,0,,
12099501,146289657X,God Heals Broken Hearts: Christians Cry Too,9781462896578,,,,ES,2011/7/7,Xlibris,,false,3,12099502,2,0,0,0,2011/7/7,,,0,0,0,0,0,0.00,60,Paperback,,0,0,Joann K. Schall,,,,,,1,0,,
12101501,,Unknown Book 12101501,,,,,ES,,,,false,1,12101501,3,6,2,0,,,book,1,0,0,0,1,3.00,,,,2,0,Unknown Author 500,,,,,,2,0,,
12102001,0986642800,Stick Figures,9780986642807,,,,ES,2011/7/1,Bewrite Books,,false,1,12102001,1,5,1,0,2011/7/22,,,1,0,0,0,0,5.00,102,Paperback,,1,0,Kirsten Holmes,,,,,,,1,,"international,poetry"
12102501,1930743300,"The Interlocking Sculpture Of Isamu Noguchi: September 12 October 4, 2003",9781930743304,,,,ES,2004/7/13,PaceWildenstein,,false,1,12102501,0,0,0,0,2004/7/13,,,0,0,0,0,0,0.00,34,Hardcover,,0,0,Isamu Noguchi,,,,,,,0,,
12103001,8472233081,Mi Vida Secreta I,9788472233089,,,,ES,2002/1/1,Barcelona Tusquets,,false,1,12103001,4,0,0,0,2002/1/1,,book,0,0,0,0,0,0.00,150,Paperback,,0,0,Antonio Escohotado,,,,,,3,0,,
12103501,2731663413,Les armées du conquérant,9782731663419,,,,ES,,Les Humanoïdes associés,fre,false,4,12103501,51,108,28,1,1978/1/1,Les armées du conquérant,book,8,10,8,2,0,3.86,,Hardcover,,13,0,,,,,,,13,4,,"action,adventure,comics,fantasy,graphic-novels"
12104001,2867449774,Aujourd'hui Je Dors,9782867449772,,,,ES,,,,false,1,12104001,2,1,1,0,2003/1/1,,,0,0,0,0,1,1.00,,,,1,0,Dominique Meens,,,,,,,0,,
12105001,1451272618,The Privileged Family: Audrey and Lara Hawthorne Series Book 3,9781451272611,,,,ES,2010/10/4,America Star Books,,false,1,12105001,0,0,0,0,2010/10/4,,,0,0,0,0,0,0.00,214,Paperback,,0,0,C.C. Straub,,,,,,,0,,
12105501,2745912291,"Nemo, Tome 3 - La banquise (Nemo, #3)",9782745912299,,,,ES,2003/1/1,Treize Étrange,fre,false,1,12105501,6,15,4,0,2003/1/1,,book,0,3,1,0,0,3.75,40,Hardcover,,4,0,Brüno,,,,,,1,2,,
12106501,2747014207,Fils Du Ciel,9782747014205,,,,ES,2004/10/28,,fre,false,44,428042,47202,92249,22141,1850,2004/1/1,Airborn,book,9585,7990,3570,658,338,4.17,,Paperback,,11,0,Kenneth Oppel,,,,Luc Rigoureau,,6153,51,376,"action,adventure,animals,childrens,fantasy,fiction,high-school,historical,historical-fiction,juvenile,middle-grade,mystery,novels,romance,science-fiction,speculative-fiction,steampunk,survival,teen,young-adult"
12107501,087759676X,"New Cars and Trucks, Winter 2001: Prices and Reviews",9780877596769,,,,ES,2001/12/9,Edmunds Publications,,false,1,12107501,0,0,0,0,2001/12/9,,,0,0,0,0,0,0.00,592,Paperback,,0,0,Edmunds com,,,,,,,0,,
12108001,1557508585,US Carriers at War,9781557508584,,,,ES,1997/1/1,,,false,2,14744225,3,9,3,0,1981/1/1,US Carriers at War,book,0,0,3,0,0,3.00,,,,0,0,Peter Kilduff,,,,,,,0,,
12108501,1109411251,The role of XPE gene product (DDB2) in DNA repair and cell fate decision following DNA damage.,9781109411256,,,,ES,,,,false,1,12108501,0,0,0,0,,,,0,0,0,0,0,0.00,,,,0,0,Tanya Stoyanova,,,,,,,0,,
12109001,1452002835,Faithful,9781452002835,,,,ES,2010/9/28,Authorhouse,,false,4,17640202,1,0,0,0,2010/9/28,,,0,0,0,0,0,0.00,108,Hardcover,,0,0,Deyandra Williams,,,,,,,0,1,
12110001,,Summer and Smoke and Murder,,B005A7U328,,,ES,,,,true,3,11968950,734,1242,316,24,2011/1/1,,book,115,98,77,18,8,3.93,,,,233,7,Nevada Barr,,,,,,341,7,17,"fiction,mystery,mystery-thriller,novella,short-stories,suspense,thriller"
12111501,,la_grande_vie_de_jesus_christ_tome_7_vita_christi,2940038220521,,,,ES,,,,true,1,12111501,0,0,0,0,,,,0,0,0,0,0,0.00,,,,0,0,Dom Florent Broquin ludolphe le chartreux,,,,,,,0,,
12112501,,Musaeus,,,,,ES,,,,true,1,12112501,0,0,0,0,,,book,0,0,0,0,0,0.00,,,,0,0,Musaeus of Athens,,,,,,,0,,
12113001,,Praying With Body And Soul,2940000812587,,,,ES,,,,true,3,323151,60,106,29,3,1998/10/1,Praying With Body and Soul: A Way to Intimacy With God,,6,12,7,3,1,3.66,,,,0,0,Jane E. Vennard,,,,,,16,1,5,"christianity,religion,spirituality"
12113501,,Nome nuggets [microform]: some of the experiences of a party of gold seekers in northwestern Alaska in 1900,2940030662152,,,,ES,,,,true,9,25144073,4,8,2,0,1983/10/1,,,1,0,1,0,0,4.00,,,,0,0,Leigh Hill French,,,,,,1,0,,
12115001,0724809449,Practical Australian Strategy,9780724809448,,,,ES,,,,false,1,12115001,2,3,1,0,,,,0,0,1,0,0,3.00,,,,1,0,"Graeme A.Taylor,Graeme Pocknee,Graham Hubbard",,,,,,1,0,,business
12115501,0824025962,"Variety Television Reviews, 1970-1973",9780824025960,,,,ES,1989/12/1,Routledge,,false,1,12115501,0,0,0,0,1989/12/28,,,0,0,0,0,0,0.00,472,Hardcover,,0,0,,,,Howard Prouty,,,,0,,
12116001,0791018296,Ballads,9780791018293,,,,ES,1995/5/1,Chelsea House Publications,,false,2,15328167,0,0,0,0,1995/1/1,,book,0,0,0,0,0,0.00,,Paperback,,0,0,"Jerry Silverman,Kenneth Bancroft Clark",,,,,,,0,,
12116501,270714861X,Sociologie De La Communication Politique,9782707148612,,,,ES,,,,false,1,12116501,9,4,2,0,2007/1/1,,,0,0,0,2,0,2.00,,,,2,0,Philippe Riutort,,,,,,4,1,,
12117001,2710303507,Le Défi,9782710303503,,,,ES,,,,false,2,12116499,6,15,4,1,1988/1/1,,,2,0,1,1,0,3.75,,,,1,0,Gabriel Matzneff,,,,,,3,0,,france
12118001,0671792504,Musical Max,9780671792503,,,,ES,1992/8/1,Little Simon,,false,6,4523069,53,96,26,2,1981/1/1,Musical Max,book,5,9,11,1,0,3.69,,Paperback,,1,0,Robert Kraus,"Ariane Dewey,José Aruego",,,,,15,3,1,"animals,art,childrens,music,picture-books"
12118501,2070411842,Les Formes de l'Histoire,9782070411849,,,,ES,2000/2/2,Gallimard Education,,false,2,12118501,5,4,1,0,1978/1/1,,book,0,1,0,0,0,4.00,576,Paperback,,1,0,Claude Lefort,,,,,,3,0,,
12119501,2251010556,Discours: t.4. Seconde Action Contre Verrès. - Livre III: Le Froment.,9782251010557,,,,ES,2002/1/1,Les Belles Lettres,fre,false,1,12119501,1,0,0,0,1925/1/1,,book,0,0,0,0,0,0.00,289,Paperback,,0,0,Marcus Tullius Cicero,,J. Martha,,Henri de La Ville de Mirmont,,1,0,,
12120001,8677104089,Poslednji voz za Istanbul,9788677104085,,,,ES,,,srp,false,34,17779550,42952,76137,19798,1441,2002/1/1,Nefes Nefese,book,5414,7916,4839,1257,372,3.85,,Paperback,,74,5,Ayşe Kulin,,,,Magdalena Petrović,,12945,106,5999,"adult,amazon,family,fiction,france,historical,historical-fiction,history,international,literary-fiction,literature,novels,religion,romance,travel,unfinished,war"
12120501,,Gillian,2940043324870,,,,ES,,,,true,5,8512593,11,5,2,2,2010/4/30,,book,0,1,0,0,1,2.50,,,,0,0,Linda Andrews,,,,,,1,0,1,"death,ghosts"
12121001,0415274680,The Comparative Economics of Research Development and Innovation in East and West,9780415274685,,,,ES,2002/5/3,Routledge,,false,8,3998331,3,7,2,0,2002/2/2,"Comparative Economics of Research Development and Innovation in East and West: A Survey (Fundamentals of Pure and Applied Economics, Vol 25)",book,0,1,1,0,0,3.50,101,Hardcover,,0,0,"Keith Pavitt,Philip Hanson",,,,,,1,0,,
12121501,8884272149,Sposati e sii sottomessa. Pratica estrema per donne senza paura,9788884272140,,,,ES,2011/1/1,Vallecchi,ita,false,11,12121501,255,365,108,22,2011/1/1,Sposati e sii sottomessa,book,27,35,18,8,20,3.38,252,Paperback,,53,6,Costanza Miriano,,,,,,86,6,13,"adult,canon,christianity,non-fiction,relationships,unfinished"
12122001,1607741881,White Trash Cooking,9781607741886,,,,ES,2011/9/27,Ten Speed Press,,true,6,907214,815,1788,450,38,1986/8/1,White Trash Cooking (Jargon),book,187,128,90,26,19,3.97,192,ebook,25th Anniversary Edition,0,0,Ernest Matthew Mickler,,,,,,284,4,17,"americana,comedy,cookbooks,cooking,food,history,humor,non-fiction"
12123001,9728095252,"Patrimonio Mundial, Portugal =: World Heritage, Portugal",9789728095253,,,,ES,,,,false,1,12123001,0,0,0,0,,,,0,0,0,0,0,0.00,,,,0,0,Maria Joao Pinto-Coelho,,,,,,,0,,
12125501,,Dragon's Time,,B0057WR3YC,,,ES,,,,true,28,7757584,8945,16532,4173,221,2011/1/1,Dragon's Time,book,1637,1254,882,285,115,3.96,,,,82,0,"Anne McCaffrey,Todd McCaffrey",,,,,,3573,23,81,"adult,adult-fiction,adventure,animals,fantasy,feminism,fiction,novels,science,science-fiction,science-fiction-fantasy,time-travel"
12126501,,poems,,,,,ES,1969/1/1,Washington Square Press,,false,103,1401379,997,1423,342,23,1958/1/1,,book,150,112,66,13,1,4.16,,Paperback,1st,0,0,William Shakespeare,,,"Louis B. Wright,Virginia A. LaMar",,,403,9,27,"classics,drama,fiction,literature,mythology,novels,poetry,romance"
12127001,,"The Mystery of the Yellow Room, Phantom of the Opera & The Secret of the Night",2940012774415,,,,ES,,,eng,true,4,25119203,8,11,3,0,2014/3/24,,,1,0,2,0,0,3.67,,,Nook book,0,0,Gaston Leroux,,,,,,4,0,,
12127501,146262426X,An Adventurous Day for Lucy,9781462624263,,,,ES,2011/6/29,America Star Books,,false,1,12127501,0,0,0,0,2011/6/29,,,0,0,0,0,0,0.00,28,Paperback,,0,0,Jessi Swanson and Jessica Swanson,,,,,,,0,,
12128501,3655287151,Vas?rnapi K?nyv 1916. Els? f?l?v 20. f?zet,9783655287156,,,,ES,,,,true,1,12128501,0,0,0,0,2010/1/1,,,0,0,0,0,0,0.00,,,,0,0,MVB E-Books,,,,,,,0,,
12129001,1608146162,A Cousin's Challenge,9781608146161,,,,ES,2010/3/1,Oasis Audio,,false,13,6605747,2287,4836,1145,89,2010/9/1,A Cousin's Challenge (Indiana Cousins),book,552,364,176,39,14,4.22,0,Audiobook,,1,0,"Jill Shellabarger,Wanda E. Brunstetter",,,,,,683,22,54,"adult,adult-fiction,chick-lit,christian,christian-fiction,drama,fiction,inspirational,romance"
12129501,,"Animal life in the Yosemite; an account of the mammals, birds, reptiles, and amphibians in a cross-section of the Sierra Nevada",2940017578773,,,,ES,,,,true,3,12129501,1,0,0,0,,,,0,0,0,0,0,0.00,,,,0,0,Joseph Grinnell,,,,,,1,0,,
12130001,0631190414,"Philosophy Of Social Science: The Methods, Ideals, And Politics Of Social Inquiry",9780631190417,,,,ES,1993/1/1,Blackwell Publishers,,false,2,10645755,8,7,3,0,1993/1/1,,,0,0,1,2,0,2.33,269,Unknown Binding,,0,0,Michael Root,,,,,,4,1,,philosophy
12131001,1455119741,Mr. G: A Novel about the Creation,9781455119745,,,,ES,2012/1/24,Blackstone Audiobooks,,false,28,11288963,3788,6113,1724,330,1998/4/1,Mr. G: A Novel About The Creation,book,373,563,500,208,80,3.55,,Audio CD,,8,3,Alan Lightman,,,,,,1729,28,73,"fantasy,fiction,historical,humor,literary-fiction,literature,modern,mythology,non-fiction,novels,philosophy,religion,science,science-fiction,speculative-fiction,spirituality,unfinished"
12132501,,Sagan's Law,2940011124624,,,,ES,,,,true,4,11970431,106,83,25,3,2010/10/24,,,4,7,9,3,2,3.32,,,,0,0,Thomas K. Carpenter,,,,,,65,2,2,"mystery,mystery-thriller,science-fiction,short-stories"
12133001,,"Selected Works, Vol 2",2940022890082,,,,ES,,Basil Blackwell,eng,true,4,12133001,37,75,19,1,1942/1/1,"Selected Works, Vol 2",book,6,8,3,2,0,3.95,,,,12,1,Stephen Vincent Benét,,,,,,11,0,,
12133501,,Rand,2940022887525,,,,ES,,,,true,24,12133501,1,0,0,0,,,,0,0,0,0,0,0.00,,,,0,0,Ernest Ingersoll,,,,,,1,0,,
12134001,1936750198,"Chipper and the Unicycle: A Kids Book about a Circus Clown Who Wants to Learn Something New That Answers the Question, What Is Perseverance?",9781936750191,,,,ES,2011/6/13,Cardboard Box Adventures,,false,4,12134001,9,15,3,1,2011/6/13,,book,3,0,0,0,0,5.00,20,Paperback,,3,1,Don M. Winn,,,,,,5,0,,
12135001,,Q-Squared,,B003YCOQOC,,,ES,,,eng,true,20,217902,5018,13100,3283,144,1988/1/1,Q-Squared,book,1085,1242,810,131,15,3.99,,,,5,0,Peter David,,,,,,825,13,45,"adult,adult-fiction,aliens,american,fantasy,fiction,humor,novels,science,science-fiction,science-fiction-fantasy,speculative-fiction"
12136001,3852185424,"Gefüllte Siebenschläfer: Ein Carozzi-Krimi (Carozzi, #2)",9783852185422,,,,ES,2007/8/6,Haymon Verlag,ger,false,3,12136001,17,18,7,1,2007/8/6,Gefüllte Siebenschläfer: Ein Carozzi-Krimi,book,0,1,4,0,2,2.57,312,Hardcover,,5,1,Christoph Wagner,,,,,,7,1,,"mystery,thriller"
12137001,1934246913,Chrysalis,9781934246917,,,,ES,,,,false,1,12137001,0,0,0,0,2008/8/19,,,0,0,0,0,0,0.00,,,,0,0,Venice Public Library Poets,,,,,,,0,,
12138501,0702246298,"Errol, Fidel and the Cuban Rebel Girls",9780702246296,,,,ES,2011/4/1,,,true,5,9322616,26,33,11,2,2010/1/1,,book,1,2,5,2,1,3.00,0,ebook,,0,0,Boyd Anderson,,,,,,12,0,1,
12139501,,"Mindstar Rising (Greg Mandel, #1)",,B003GK21E4,,,ES,2009/8/21,Pan,eng,true,18,45253,9877,26458,6751,216,1993/1/1,Mindstar Rising,book,1923,2809,1647,294,78,3.92,425,,,272,6,Peter F. Hamilton,,,,,,1904,22,81,"action,amazon,crime,detective,dystopia,fantasy,fiction,murder-mystery,mystery,mystery-thriller,novels,science,science-fiction,science-fiction-fantasy,speculative-fiction,steampunk,suspense,thriller"
12140001,,Kongen der sendte paven en fugl,978876380,,,,ES,2008/1/1,Samleren,dan,false,2,12140001,35,79,22,2,2008/1/1,,book,1,13,6,2,0,3.59,463,,,21,2,Martin Petersen,,,,,,5,1,,historical-fiction
12140501,1413741193,Winter's Promise,9781413741193,,,,ES,2004/11/28,America Star Books,,false,1,12140501,1,4,1,1,2004/11/28,,,0,1,0,0,0,4.00,204,Paperback,,1,1,Karen Chalfant,,,,,,,0,,
12141001,0892325054,Research in Philosophy & Technology,9780892325054,,,,ES,1984/10/1,JAI Press(NY),,false,9,15132592,2,4,2,0,1978/4/1,,,0,0,1,0,1,2.00,304,Hardcover,,0,0,"Frederick Ferre,Leonard J. Waks,Paul T. Durbin,Walter C. Zimmerli",,,Carl Mitcham,,,1,0,-1,
12141501,0762773162,"Food Lovers' Guide to San Francisco: Best Local Specialties, Markets, Recipes, Restaurants, Events & More",9780762773169,,,,ES,2011/12/20,Globe Pequot Press,,false,1,12141501,9,15,4,0,2011/12/20,,,2,0,1,1,0,3.75,256,Paperback,,4,0,Grace Keh,,,,,,3,0,,
12142501,0199184739,Oxford Reading Tree: Stages 1-4: Sequencing Cards: Photocopy Masters,9780199184736,,,,ES,,Not Avail,,false,1,12142501,0,0,0,0,,,,0,0,0,0,0,0.00,144,Unknown Binding,,0,0,Roderick Hunt,,,,,,,0,,
12143001,0823922650,Coping with an Unplanned Pregnancy (Coping),9780823922659,,,,ES,1996/1/1,Rosen Publishing Group,,false,4,3640387,3,4,1,0,1990/4/1,Coping with an Unplanned Pregnancy (Coping),book,0,1,0,0,0,4.00,,Hardcover,,0,0,"Carolyn Simpson,Ruth C. Rosen",,,,,,2,0,,
12143501,8493416061,4 Poemas De Miguel Hernandez Y Una Cancion De Cuna/ 4 Poems By Miguel Hernandez And A Lullaby (Poetas Para Todos/ Poets For Everyone) (Spanish Edition),9788493416065,,,,ES,,,,false,1,12143501,0,0,0,0,2006/12/30,,,0,0,0,0,0,0.00,32,,,0,0,Miguel Hernández,,,,,,,0,,
12144501,1156322634,People From Cartagena: Isaac Peral,9781156322635,,,,ES,,,eng,false,1,12144501,1,3,1,0,2010/5/31,People From Cartagena: Isaac Peral,book,0,0,1,0,0,3.00,,,,1,0,Books LLC,,,,,,,0,,
12145001,,"Report of the proceedings of the People's Congress held at Graaff-Reinet, Cape Colony, 31st May, 1900",2940029400390,,,,ES,,,,true,1,12145001,0,0,0,0,,,,0,0,0,0,0,0.00,,,,0,0,People's Congress,,,,,,,0,,
12145501,0792703995,Clerycastle,9780792703990,,,,ES,,,,false,3,1507795,21,22,6,3,1969/1/1,Clerycastle,book,2,0,4,0,0,3.67,,,Large Print,0,0,Monica Heath,,,,,,13,1,,"gothic,thriller"
12146001,1413432611,Preces Pro Animalibus: Prayers for Animals,9781413432619,,,,ES,2003/11/1,Xlibris Corporation,,false,2,14909648,0,0,0,0,2003/11/1,,,0,0,0,0,0,0.00,120,Paperback,,0,0,Lori A. Marra,,,,,,,0,,
12146501,,Il patriottismo di Atto Vannucci: nella vita e nelle opere,2940038582438,,,,ES,,,,true,1,12146501,0,0,0,0,,,,0,0,0,0,0,0.00,,,,0,0,Gisella Borghi,,,,,,,0,,
12147001,0586036377,King Dido,9780586036372,,,,ES,,,,false,4,11985354,99,107,26,3,1969/1/1,King Dido,book,7,16,2,1,0,4.12,,,,0,0,Alexander Baron,,,,,,64,1,2,fiction
12148001,3464613933,"Georg Büchner, Lenz Unterrichtsvorschläge Und Kopiervorlagen Zu Buch, Audio Book, Cd Rom",9783464613931,,,,ES,,,,false,1,12148001,1,3,1,0,2001/1/1,,,0,0,1,0,0,3.00,,,,1,0,Ulrike Ladnar,,,,,,,0,,
12148501,2070368378,Éloge de la fessée,9782070368372,,,,ES,1976/9/13,Gallimard,,false,2,7918817,34,30,11,2,1973/2/23,Éloge de la fessée,book,1,2,2,5,1,2.73,119,Paperback,,5,1,Jacques Serguine,,,,,,7,1,2,
12149501,,Unknown Book 12149501,,,,,ES,,,,false,1,12149501,2,8,2,0,,,,1,0,1,0,0,4.00,,,,2,0,Unknown,,,,,,,0,,language
12150001,,Raising the Best Possible Child,,B004JHZ4Y2,,,ES,,,,true,3,13082182,13,31,7,1,2011/1/17,,,4,2,1,0,0,4.43,,,,3,1,Jo Jackson King,,,,,,5,0,,parenting
12151001,0007237308,The Best of British Comedy - Last of the Summer Wine,9780007237302,,,,ES,,,,true,3,18877623,48,137,31,0,2009/11/12,,,18,8,5,0,0,4.42,,,,0,0,Richard Webber,,,,,,9,0,4,"humor,non-fiction,reference"
12152001,950534242X,Tio Pacho,9789505342426,,,,ES,,,,false,2,14843107,0,0,0,0,1995/8/28,,,0,0,0,0,0,0.00,,,,0,0,Kern Solves,,,,,,,0,,
12152501,0982698577,The Moment of Truth: Become a Living Angel Today,9780982698570,,,,ES,2011/6/16,Irh Press,,false,5,12152501,15,25,6,0,2011/3/31,,,4,1,0,0,1,4.17,142,Paperback,,5,0,Ryuho Okawa,,,,,,7,0,1,
12153001,0822961369,The Time of Freedom: Campesino Workers in Guatemala’s October Revolution,9780822961369,,,,ES,2001/11/15,University of Pittsburgh Press,,false,4,12153001,12,4,1,0,2001/1/1,,,0,1,0,0,0,4.00,304,Paperback,,1,0,Cindy Forster,,,,,,6,0,,
12154001,2726868819,"Citroën Berlingo, Peugeot Partner: Diesel, Depuis 10 2002:  2.0 H Di (90 Ch.):  Carnet De Bord, Entretien, Étude Technique Et Pratique",9782726868812,,,,ES,2005/7/8,,fre,false,1,12154001,1,0,0,0,2005/7/8,,book,0,0,0,0,0,0.00,,Paperback,,0,0,,,,Etai,,,,0,,
12155001,2742711473,La Grossesse,9782742711475,,,,ES,,,fre,false,3,12547125,360,787,236,34,1990/9/1,妊娠カレンダー [Ninshin karendaa],book,17,89,93,30,7,3.33,,,,16,1,Yōko Ogawa,,,Rose-Marie Makino-Fayolle,,,87,6,1,"contemporary,drama,fiction,novels"
12156001,1600146449,Sea Monsters,9781600146442,,,,ES,2012/1/1,Torque Books,,false,1,12156001,8,13,3,0,2011/8/28,,,1,2,0,0,0,4.33,24,Hardcover,,3,0,David Schach,,,,,,2,0,,
12156501,0325042101,With Rigor for All: Meeting Common Core Standards for Reading Literature,9780325042107,,,,ES,2011/7/14,Heinemann Educational Books,en-US,false,1,12156501,302,655,157,29,2011/7/14,,book,57,72,26,2,0,4.17,150,Paperback,Second Edition,157,29,Carol Jago,,,,,,107,15,9,"education,leadership,non-fiction,school,teaching"
12157001,,Gold Link Tailings: Some Bits of Colorado History,,,,,ES,,,,false,1,12157001,3,0,0,0,,,book,0,0,0,0,0,0.00,,,,0,0,Albert Reynolds Morse,,,,,,2,0,,
12157501,,Les congr,2940031295144,,,,ES,,,,true,3,12157501,0,0,0,0,,,,0,0,0,0,0,0.00,,,,0,0,Paul-Henri-Benjamin d'Estournelles De Constant,,,,,,,0,,
12158001,0984459871,Sea & Fog,9780984459872,,,,ES,2012/1/13,Nightboat Books,eng,false,1,12158001,222,149,37,2,2011/10/11,Sea and Fog,book,16,13,3,3,2,4.03,128,Paperback,,37,2,Etel Adnan,,,,,,163,6,4,"gay,lgbt,poetry,queer,writing"
12158501,,"Leigh Hunt's London journal. To assist the inquiring, animate the struggling, and sympathize with all.",2940018863700,,,,ES,,,,true,1,12158501,0,0,0,0,,,,0,0,0,0,0,0.00,,,,0,0,Leigh Hunt,,,,,,,0,,
12159501,1434970566,Striving to Be Victorious and Not a Victim,9781434970565,,,,ES,,,,true,2,9953135,0,0,0,0,2010/10/28,,,0,0,0,0,0,0.00,,,,0,0,Lenore Suzette Hines-Victorian,,,,,,,0,,
12161501,1157414206,"Queueing Theory: Disk Scheduling Algorithms, Poisson Processes, Queueing Theorists, Scheduling Algorithms, Exponential Distribution, Er",9781157414209,,,,ES,2013/5/1,Booksllc.Net,,false,1,12161501,0,0,0,0,2010/5/30,,,0,0,0,0,0,0.00,34,Paperback,,0,0,Source Wikipedia,,,,,,,0,,
12163001,1448951046,The Story of Chris Moose,9781448951048,,,,ES,2009/10/9,Publish America,,false,2,14500767,0,0,0,0,2009/10/9,,,0,0,0,0,0,0.00,21,Paperback,,0,0,Cathy E. McArthur,Chris Stutz,,,,,,0,,
12164001,8466630406,El Don de Volar,9788466630405,,,,ES,,,,false,1,12164001,13,19,6,1,,,,0,2,3,1,0,3.17,,,,6,1,Anonymous,,,,,,2,0,1,
12165501,0374700281,Flu,9780374700287,,,,ES,2000/9/1,Farrar Straus Giroux,,true,25,763331,11716,20567,5275,320,1999/1/1,Flu: The Story of the Great Influenza Pandemic,book,1540,2106,1273,268,88,3.90,,ebook,,3,1,Gina Kolata,,,,,,5674,41,159,"american-history,health,historical,history,medical,non-fiction,school,science,unfinished"
12166001,055316872X,"Standing Out (Sweet Valley Twins, #25)",9780553168723,,,,ES,1988/9/1,Bantam Doubleday Dell Publishing Group,eng,false,6,412616,653,1049,302,5,1988/9/28,Standing Out (Sweet Valley Twins #25),book,54,73,143,26,6,3.47,,Paperback,,1,0,Jamie Suzanne,,,,,,160,14,1,"childrens,fiction,juvenile,middle-grade,realistic-fiction,young-adult"
12166501,0316175803,"Wizard Undercover (Rogue Agent, #4)",9780316175807,,,,ES,2012/5/1,Orbit,eng,true,10,9629757,1609,3096,785,44,2011/10/6,,book,239,313,190,36,7,3.94,385,ebook,,5,0,K.E. Mills,,,,,,260,22,10,"adult,adult-fiction,detective,fantasy,fiction,magic,mystery,paranormal,romance,science-fiction-fantasy,supernatural,urban-fantasy,witches,young-adult"
12168501,,"The Royal Scottish Academy, 1826-1916; a complete list of the exhibited works by Raeburn and by academicians, associates and hon. members, giving details of those works in public galleries",2940023061788,,,,ES,,,,true,1,12168501,0,0,0,0,,,,0,0,0,0,0,0.00,,,,0,0,Sculpture and Architecture Edinburgh. Royal Scottish Academy of Painting,,,,,,,0,,
12169001,0594012724,Power Rangers Operation Overdrive Save The World,9780594012726,,,,ES,,,,false,1,12169001,2,0,0,0,2011/5/20,,,0,0,0,0,0,0.00,,,,0,0,Dalmatian Press,,,,,,2,0,,
12170001,1598566296,Thinline Reference Bible-KJV-Large Print,9781598566291,,,,ES,2011/2/15,Hendrickson Publishers,,false,4072,1923820,283597,864516,195579,5049,1611/1/1,,book,146176,16472,13466,7885,11580,4.42,1216,Leather Bound,Large Print,0,0,,,,,,,50056,202,23666,"adult,biography,christian,christianity,classic-literature,classics,faith,fantasy,fiction,historical,historical-fiction,history,horror,inspirational,literature,mythology,non-fiction,philosophy,poetry,politics,reference,religion,school,self-help,spirituality,theology,unfinished"
12171001,,Das Gespenst.: Drei Erz,2940036048745,,,,ES,,,,true,1,12171001,0,0,0,0,,,,0,0,0,0,0,0.00,,,,0,0,Friedrich August Schulze,,,,,,,0,,
12172001,,"Diva, Perfil de Mulher",2940039355963,,,,ES,,,,true,12,1093686,351,732,221,9,1864/1/1,Diva,book,37,60,72,39,13,3.31,,,,0,0,José de Alencar,,,,,,59,3,1,"classics,drama,fiction,historical,literary-fiction,romance"
12173001,,Private letters of Edward Gibbon (1753-1794),2940023233048,,,,ES,,,,true,18,12172998,6,5,1,0,1896/1/1,,book,1,0,0,0,0,5.00,,,,0,0,Edward Gibbon,,,,,,4,0,,
12174501,,الموسوعة العربية العالمية #2,,,,,ES,,,,false,1,12174501,19,8,3,0,,,book,0,1,1,0,1,2.67,,,,3,0,Various,,,,,,13,0,,
12175001,,Lettre de Suisse,2940011170836,,,,ES,,,,true,4,6440993,4,6,2,0,2008/1/1,Lettre de Suisse,book,0,1,0,1,0,3.00,,,,0,0,Françoise Sagan,,,,,,1,0,,
12176501,033053789X,"All These Things I've Done (Birthright, #1)",9780330537896,,,,ES,2012/3/29,Pan Macmillan,en-GB,false,26,9858517,41711,48851,13178,2006,2011/9/6,All These Things I've Done,book,3382,4642,3508,1203,443,3.71,352,Paperback,,364,117,Gabrielle Zevin,,,,,,25764,214,285,"adventure,contemporary,crime,dystopia,family,fantasy,fiction,high-school,mystery,post-apocalyptic,realistic-fiction,romance,science-fiction,teen,young-adult"
12177501,,Unknown Book 12177501,,,,,ES,,,,false,1,12177501,2,0,0,0,,,,0,0,0,0,0,0.00,,,,0,0,Unknown,,,,,,2,0,,
12178001,1445263637,Lord of my Dreams,9781445263632,,,,ES,,,,false,4,8533007,260,346,100,11,2009/11/12,,book,19,29,35,13,4,3.46,,,,13,1,Emma Daniels,,,,,,117,11,4,"fantasy,historical,historical-fiction,paranormal,romance,time-travel"
12178501,3787311165,Vorlesungen über die Philosophie der Religion,9783787311163,,,,ES,1993/1/1,Felix Meiner,ger,false,32,1563080,285,379,97,8,1831/1/1,Vorlesungen uber die Philosophie der Religion,book,33,34,22,4,4,3.91,416,Hardcover,Philosophische Bibliothek,0,0,Georg Wilhelm Friedrich Hegel,,,,,,133,3,3,"history,philosophy,religion,theology,unfinished"
12179001,2266034863,Théories De L'évolution: Une Anthologie,9782266034869,,,,ES,,,fre,false,1,12179001,3,0,0,0,1990/1/1,,book,0,0,0,0,0,0.00,,,,0,0,,,,"Charles Lenay,Jean-Marc Drouin",,,,0,,
12179501,2130429777,Aphorismes Sur La Sagesse Dans La Vie,9782130429777,,,,ES,,,,false,219,21182,8067,13407,3235,183,1851/1/1,The Wisdom of Life,book,1360,1178,538,122,37,4.14,,,,0,0,"Arthur Schopenhauer,Quadrige",,,,,,3634,15,448,"classics,essays,funny,literature,non-fiction,personal-development,philosophy,psychology,self-help,spirituality"
12181501,0521275490,How to Be Entertaining,9780521275491,,,,ES,1986/11/28,Cambridge University Press,,false,1,12181501,4,0,0,0,1986/11/28,,book,0,0,0,0,0,0.00,96,Paperback,,0,0,Andrew  Wright,,,,,,2,0,,
12182001,2742746137,Reflets sur un mur blanc,9782742746132,,,,ES,2004/1/1,Arles,,false,1,12182001,6,8,2,0,2004/3/1,,book,1,0,1,0,0,4.00,101,Paperback,,2,0,"Adania Shibli,عدنية شبلي",,,,Stéphanie Dujols,,3,0,,
12182501,,What was the Gunpowder Plot?,2940012100481,,,,ES,2010/11/30,,,true,15,19097173,13,18,4,0,2010/11/30,,,2,2,0,0,0,4.50,,,,0,0,John   Gerard,,,,,,8,0,,"fiction,history"
12183001,2723438554,"Smax, tome 3",9782723438551,,,,ES,2002/10/29,Glénat,fre,false,1,12183001,2,0,0,0,2002/10/29,,book,0,0,0,0,0,0.00,48,Board book,,0,0,Gilles Bertschy,,,,,,,0,,
12183501,080592972X,"We Call It Gravy: A No-Effort Cookbook, Italian Style",9780805929720,,,,ES,,,,false,1,12183501,0,0,0,0,1985/4/28,,,0,0,0,0,0,0.00,,,,0,0,Edythe V. Piccione,,,,,,,0,,
12184001,0979237106,Wildwood,9780979237102,,,,ES,2007/8/1,Moo Press,,false,2,12184001,0,0,0,0,2007/8/28,,,0,0,0,0,0,0.00,134,Paperback,,0,0,Ellie Willingham,,,,,,,0,,
12185001,3487069954,Volksglaube Und Brauchtum Der Ostslaven,9783487069951,,,,ES,,,,false,1,12185001,0,0,0,0,1980/1/1,,,0,0,0,0,0,0.00,,,,0,0,Felix Haase,,,,,,,0,,
12185501,,Oliver the Overachiever,2940012587855,,,,ES,,,,true,3,10429135,3,4,1,1,2011/4/15,,book,0,1,0,0,0,4.00,,,,0,0,Karin Mesa,,,,,,,0,,
12186001,,Archives ou correspondance in,2940031217955,,,,ES,,,,true,1,12186001,0,0,0,0,,,,0,0,0,0,0,0.00,,,,0,0,Orange House,,,,,,,0,,
12186501,1167591003,A Gazdag Szegenyek: Regeny (1897),9781167591006,,,,ES,2010/9/10,Kessinger Publishing,hun,false,2,8189328,60,133,35,0,1890/2/22,A gazdag szegények,book,7,15,12,1,0,3.80,270,Paperback,,3,0,Mór Jókai,,,,,,7,1,2,"classics,fiction"
12187001,,"The French Ambassador, Jean Antoine des Mesmes, Comte d'Avaux, and French Diplomacy at The Hague, 1678-1684",,,,,ES,1968/1/1,UMI,,false,1,12187001,2,4,1,0,1968/1/1,,book,0,1,0,0,0,4.00,374,Hardcover,,1,0,Orloue N. Gisselquist,,,,,,1,0,,
12187501,,Ein toter Lehrer,,B004WS08R6,,,ES,2011/3/14,Knaur eBook,ger,true,33,7327811,5383,6911,1978,360,2009/12/30,Rupture,book,299,759,608,244,68,3.49,,,,1,1,Simon Lelic,,,,,,2955,35,48,"adult,adult-fiction,contemporary,crime,detective,drama,fiction,literary-fiction,literature,modern,mystery,mystery-thriller,novels,psychology,realistic-fiction,school,suspense,thriller,young-adult"
12188501,,Journey to Jo'Burg,,B0051UH70K,,,ES,,Harper Collins Children's Books,,true,23,709526,3752,6066,1642,183,1986/1/1,Journey to Jo'burg: A South African Story,book,434,520,498,132,58,3.69,,,,79,0,Beverley Naidoo,,,,,,795,24,65,"chapter-books,childrens,classics,cultural,death,family,fiction,historical,historical-fiction,history,international,juvenile,middle-grade,novels,realistic-fiction,school,young-adult"
12189001,,Blame Game. How To Win It,2940000830710,,,,ES,,,,true,2,12189001,0,0,0,0,2009/2/10,,,0,0,0,0,0,0.00,,,,0,0,William R. Klemm,,,,,,,0,,
12189501,3540065245,Phenology and Seasonality Modeling,9783540065241,,,,ES,1974/11/6,Springer,,false,3,5633685,0,0,0,0,1974/6/1,"Phenology and Seasonality Modeling (Ecological Studies-Analysis and Synthesis Series, Vol 8)",,0,0,0,0,0,0.00,444,Hardcover,,0,0,,,,H. Lieth,,,,0,,
12190001,0918294118,"In Italy: Postwar Political Life: Interviews with Andreotti, Nenni, Terracini, Spriano, la Malfa, Lama, Saraceno, Carli",9780918294111,,,,ES,,,,false,1,12190001,1,0,0,0,1981/1/1,,,0,0,0,0,0,0.00,,,,0,0,"Furio Colombo,Giulio Andreotti",,,,,,1,0,,
12190501,,Dangerous Visions,,,,,ES,1972/12/1,Berkley,eng,false,27,600349,16916,33694,8032,276,1967/10/1,Dangerous Visions,book,3648,2739,1299,255,91,4.19,576,Mass Market Paperback,,3,2,,,"Brian W. Aldiss,Carol Emshwiller,Damon Knight,David R. Bunch,Frederik Pohl,Fritz Leiber,Henry Slesar,Howard Rodman,Isaac Asimov,J.G. Ballard,James Cross,Joe L. Hensley,John Brunner,John Sladek,Jonathan Brand,Keith Laumer,Kris Neville,Larry Eisenberg,Larry Niven,Lester del Rey,Miriam Allen DeFord,Norman Spinrad,Philip José Farmer,Philip K. Dick,Poul Anderson,R.A. Lafferty,Robert Bloch,Robert Silverberg,Roger Zelazny,Samuel R. Delany,Sonya Dorman,Theodore Sturgeon",,,,7851,35,268,"adult,anthologies,classics,collections,dystopia,fantasy,fiction,horror,science,science-fiction,science-fiction-fantasy,short-stories,speculative-fiction,unfinished"
12191501,,Unknown Book 12191501,,B0046U3F0M,,,ES,,,,false,1,12191501,0,0,0,0,,,,0,0,0,0,0,0.00,,,,0,0,Unknown,,,,,,,0,,
12192001,,L'hell,2940031377963,,,,ES,,,,true,1,12192001,0,0,0,0,,,,0,0,0,0,0,0.00,,,,0,0,Stanislas Gamber,,,,,,,0,,
12192501,4087472590,焚火の終わり〈上〉,9784087472592,,,,ES,2000/11/1,,jpn,false,3,12192501,3,7,2,0,1997/10/1,焚火の終わり,book,0,1,1,0,0,3.50,305,,,0,0,"Teru Miyamoto,宮本 輝",,,,,,,0,,
12193001,0764337947,Connecticut by Bicycle: Fifty Great Scenic Routes,9780764337949,,,,ES,2011/7/29,Schiffer Publishing,,false,1,12193001,3,4,1,0,2011/8/28,,,0,1,0,0,0,4.00,224,Hardcover,,1,0,Frederick John Lamp,,,,,,,0,1,travel
12194001,,M. Tullii Ciceronis Oratio Post reditum in senatu: [microform],2940039037760,,,,ES,,,,true,1,12194001,0,0,0,0,,,,0,0,0,0,0,0.00,,,,0,0,Henricus Wagner,,,,,,,0,,
12195001,2750700574,Yongbi 6,9782750700577,,,,ES,,,fre,false,3,4936976,44,42,9,0,2004/1/1,Yongbi The Invincible Book 6,book,6,3,0,0,0,4.67,,Mass Market Paperback,,0,0,Ki-Woon Ryu,,,,Nam-Suk Pyun,,25,2,1,manga
12195501,2750700957,Metal Brain 109 3,9782750700959,,,,ES,,,,false,1,12195501,2,4,1,0,2004/1/1,,,0,1,0,0,0,4.00,,,,1,0,Jun-Bum Kim,,,,,,,0,,manga
12196001,,"Demonata (Demonata, #1)",9788074470264,,,,ES,2010/12/3,CooBoo,cze,false,42,164719,30410,77771,18427,1248,2005/1/1,Lord Loss,book,8961,5747,2788,683,248,4.22,216,Hardcover,,50,9,Darren Shan,,,,Richard Podaný,,3431,38,349,"action,adult,adventure,childrens,contemporary,dark,demons,fantasy,fiction,horror,humor,juvenile,magic,middle-grade,mystery,novels,paranormal,shapeshifters,supernatural,suspense,teen,thriller,urban-fantasy,werewolves,young-adult"
12196501,,"My Fierce Highlander (Highland Adventure, #1)",,B005ESI94C,,,ES,2011/7/26,,eng,true,6,12196501,5296,8728,2174,169,2011/7/26,My Fierce Highlander ,book,807,794,420,104,49,4.01,245,,,2139,155,Vonda Sinclair,,,,,,2199,19,522,"action,adult,amazon,erotica,fiction,historical,historical-fiction,medieval,romance"
12198501,1934696374,Dream,9781934696378,,,,ES,,,,false,1,12198501,0,0,0,0,2009/1/28,,,0,0,0,0,0,0.00,,,,0,0,Raj Gopalan,,,,,,,0,,
12199501,,La Fontaine,2940030333243,,,,ES,,,,true,1,12199501,0,0,0,0,,,,0,0,0,0,0,0.00,,,,0,0,Georges Edouard Lafenestre,,,,,,,0,,
12200001,1157154565,Egyptian Hieroglyphs,9781157154563,,,,ES,,,,false,3,12200001,0,0,0,0,2010/5/1,,,0,0,0,0,0,0.00,,,,0,0,Books LLC,,,,,,,0,,
12201001,,"Chronik des Wiener Stadttheaters, 1872-1884: Ein Beitrag zur deutschen Theatergeschichte",2940034092788,,,,ES,,,,true,1,12201001,0,0,0,0,,,,0,0,0,0,0,0.00,,,,0,0,Rudolf Tyrolt,,,,,,,0,,
12201501,,"Provincial State Papers, 1767-1822",2940031642368,,,,ES,,,,true,10,12201493,3,5,1,0,,,,1,0,0,0,0,5.00,,,,0,0,Thomas Savage,,,,,,2,0,,
12202001,,The Silent Bullet by Arthur B. Reeve,2940012314390,,,,ES,,,,true,52,6064461,453,293,83,21,1912/1/1,"The Silent Bullet: The Adventures of Craig Kennedy, Scientific Detective",book,16,29,23,13,2,3.53,,,,0,0,Arthur B. Reeve,,,,,,237,8,87,"adventure,amazon,classics,collections,detective,fiction,historical-fiction,mystery,novels,short-stories,suspense"
12202501,086593522X,Freight Yards,9780865935228,,,,ES,1999/12/31,Rourke Publishing (FL),,false,1,12202501,0,0,0,0,1999/8/28,,,0,0,0,0,0,0.00,24,Hardcover,,0,0,Lynn M. Stone,,,,,,,0,,
12203001,9682908639,Galaor,9789682908637,,,,ES,1985/1/1,Joaquín Mortiz,,false,3,3243924,130,332,79,9,1972/1/1,Galaor,book,35,29,12,2,1,4.20,,Paperback,,2,0,Hugo Hiriart,,,,,,35,0,3,"adventure,fairy-tales,fantasy,literature"
12203501,0029912709,Dope Deal,9780029912706,,,,ES,,,,false,3,12203501,11,6,2,1,1982/1/1,Dope Deal (Encounters Series),book,0,0,2,0,0,3.00,,,,2,1,Paul Kropp,,,,,,5,0,1,
12204001,,"Dorm Room Sex Stories, Volume Two",,B0057PNJMO,,,ES,,,,true,3,12023636,6,5,2,0,2011/5/23,,,0,0,1,1,0,2.50,,,,0,0,Julieta Hyde,,,,,,2,0,,erotica
12204501,1176389351,The Pharsalia of Lucan;,9781176389359,,,,ES,2010/7/29,Nabu Press,,false,104,168501,3065,4301,1097,54,61/1/1,,book,393,334,278,74,18,3.92,362,Paperback,,0,0,"Edward Ridley,Lucan",,,,,,1667,4,52,"classic-literature,classics,college,epic,fiction,historical,historical-fiction,history,literature,non-fiction,philosophy,poetry,school,war"
12206001,5275010125,Вацлав Нижинский,,,,,ES,2004/1/1,Terra - Knizhnyj klub,rus,false,1,12206001,5,5,1,0,2004/1/1,,book,1,0,0,0,0,5.00,400,Hardcover,,1,0,Ромола Нижинская,,,,,,3,0,,
12207001,,"A memorial sketch of Roland Greene Usher, 1823-1895",2940020788589,,,,ES,,,,true,9,32676353,0,0,0,0,2009/9/20,,,0,0,0,0,0,0.00,,,,0,0,Edward Preston Usher,,,,,,,0,,
12207501,8448040074,El Origen Del Mal (Terror) (Spanish Edition),9788448040079,,,,ES,,,,false,21,636742,8028,23235,5622,103,1989/9/1,Necroscope III: The Source,book,2332,1969,1094,190,37,4.13,,,,6,0,Brian Lumley,,,,,,1405,11,58,"dark,fantasy,fiction,gothic,horror,mystery,novels,paranormal,science-fiction,supernatural,thriller,urban-fantasy,vampires"
12208001,,Introduction to pathology,2940025787334,,,,ES,,,,true,1,12208001,0,0,0,0,,,,0,0,0,0,0,0.00,,,,0,0,David McQuillan,,,,,,,0,,
12209001,,A hand-book to the game-birds,2940018650829,,,,ES,,,,true,12,30483451,0,0,0,0,2009/10/3,,,0,0,0,0,0,0.00,,,,0,0,William Robert Ogilvie-Grant,,,,,,,0,,
12210501,0575055480,Chopin,9780575055483,,,,ES,,,,false,5,2144680,34,31,7,0,1993/3/1,Chopin (Famous Children Series),book,4,2,1,0,0,4.43,,,,0,0,Ann Rachlin,,,,,,20,1,,"art,biography,music,picture-books,school"
12211001,,Stroke the Demon,2940013155008,,,,ES,,,eng,true,4,12211001,264,492,140,11,2011/7/29,,book,37,29,47,23,4,3.51,93,,,125,9,Eden Cole,,,,,,76,11,2,"bdsm,contemporary,demons,erotica,fantasy,lgbt,menage,paranormal,supernatural"
12211501,9150106716,Mogen för skrubben,9789150106718,,,,ES,2006/6/1,Alfabeta,swe,false,2,12211501,26,65,18,1,2005/1/1,Mogen för skrubben,book,0,11,7,0,0,3.61,349,Paperback,,13,1,Solja Krapu,,,,,,4,0,,
12212001,,The Songs Of The People Of God,,,,,ES,1965/1/1,Priority Press,,false,1,12212001,1,0,0,0,1965/1/1,,book,0,0,0,0,0,0.00,,,,0,0,Charles Hauret,,,,,,,0,,
12212501,1456769383,Dana's Homecoming Part II: New Beginnings,9781456769383,,,,ES,2011/3/7,Authorhouse,,true,2,12212500,1,0,0,0,2011/5/5,,,0,0,0,0,0,0.00,,ebook,,0,0,Angela D. Evans,,,,,,1,0,,
12213501,,Advanced Solid-State Array Spectrometer (ASAS) data sets from the 1990 field season: A unique look at two forested ecosystems,2940021661843,,,,ES,,,,true,1,12213501,0,0,0,0,,,,0,0,0,0,0,0.00,,,,0,0,Charles L. Walthall,,,,,,,0,,
12214001,,The Black Banner,,B0057HYHFK,,,ES,,,,true,2,12214001,24,53,12,7,2011/6/17,,,7,3,2,0,0,4.42,,,,10,6,Helen Hart,,,,,,11,0,,"historical,historical-fiction,young-adult"
12215001,0819191213,Internal Desecration PB,9780819191212,,,,ES,2013/12/12,Rowman & Littlefield Publishers,,false,1,12215001,2,10,2,0,1993/8/11,,,2,0,0,0,0,5.00,186,Paperback,,2,0,Carrie Doehring,,,,,,,0,,
12215501,,Mothers and sons in war time and other pieces,2940020341555,,,,ES,,,,true,3,12215501,0,0,0,0,2015/9/27,,,0,0,0,0,0,0.00,,,,0,0,Ernest Barker,,,,,,,0,,
12216501,0798149108,"Kuifie In Amerika (Tintin, #3)",9780798149105,,,,ES,,,,false,96,790192,16860,45453,12109,379,1932/1/1,,book,3549,3580,3648,1112,220,3.75,,,,1,0,Hergé,,,,,,1649,35,107,"action,adventure,childrens,classics,comedy,comics,crime,detective,fiction,graphic-novels,graphic-novels-comics,historical-fiction,humor,middle-grade,mystery,picture-books,travel,young-adult"
12217501,1859959490,Dali: 1904-1989 ,9781859959497,,,,ES,,Parkstone ,,false,1,12217501,1,4,1,0,2005/4/27,,book,0,1,0,0,0,4.00,255,,,1,0,Collectif,,,,,,,0,,
12218001,9020956299,Afscheid van moeder: als sterven een stuk leven wordt,9789020956290,,,,ES,2011/4/1,Uitgeverij Terra - Lannoo,nl,false,1,12218001,20,38,11,0,2011/4/1,,book,1,5,3,2,0,3.45,,Paperback,,11,0,Manu Keirse,,,,,,5,0,,"death,non-fiction"
12218501,,All in Her Head,,B0058TTW0M,,,ES,,,,true,4,11570438,6,6,3,1,2011/4/21,,,0,0,1,1,1,2.00,,,,0,0,Michelle Paisley,Rolando Santos,,,,,2,0,,
12219001,1434230295,Brave Fire Truck,9781434230294,,,,ES,2011/7/1,Stone Arch Books,,false,4,12219001,108,184,50,5,2011/8/1,,,12,14,21,2,1,3.68,32,Hardcover,,42,5,Melinda Melton Crow,Chad Thompson,,,,,6,28,5,"childrens,juvenile,picture-books"
12219501,,Tight Squeeze,2940012557391,,,,ES,,,,true,8,8728638,27,84,27,4,1955/2/1,,book,2,4,17,3,1,3.11,,,,0,0,Dean Charles Ing,,,,,,,1,,"fiction,humor,mystery,science-fiction,short-stories"
12220001,0470526173,Measuring Business Interruption Losses and Other Commercial Damages,9780470526170,,,,ES,2009/8/7,Wiley,,true,8,8728021,9,16,4,1,2003/12/1,Measuring Business Interruption Losses and Other Commercial Damages,,0,4,0,0,0,4.00,528,ebook,,0,0,Patrick A. Gaughan,,,,,,4,0,1,
12220501,,Memoir of Rev. James Patterson ..,2940020813861,,,,ES,,,,true,5,12220502,96,20,5,0,2008/1/1,,book,3,0,1,1,0,4.00,,,,0,0,Robert Adair,,,,,,30,1,,
12221001,2723456544,"Samouraï et fines herbes (ZbluCops, #3)",9782723456548,,,,ES,2007/3/13,,fre,false,1,12221001,5,4,1,1,2007/1/1,,book,0,1,0,0,0,4.00,48,Hardcover,,1,1,"Bill,Gobi",,,,,,,0,,
12221501,2266000802,Le jugement de Dieu,9782266000802,,,,ES,,,,false,2,12221501,18,21,6,0,1974/1/1,Le jugement de Dieu,book,1,1,4,0,0,3.50,,,,6,0,Henri Troyat,,,,,,7,1,,
12222001,,A Dictionary of Chemistry: In which the Principles of the Science are ...,2940023562124,,,,ES,,,,true,14,30472467,0,0,0,0,2010/9/9,,book,0,0,0,0,0,0.00,,,,0,0,Andrew Ure,,,,,,,0,,
12223501,,De Pausen,9789035136359,,,,ES,2011/6/9,uitgeverij bert bakker,nl,false,21,10210552,5627,8761,2386,376,2011/7/12,The Popes: A History,book,481,902,782,181,40,3.67,576,Paperback,,24,0,John Julius Norwich,,,,,,2512,38,288,"adult,biography,christian,christianity,france,historical,historical-fiction,history,international,medieval,non-fiction,philosophy,politics,religion,spirituality,theology,unfinished"
12224501,0470670339,Chern on Dispute Boards: Practice and Procedure,9780470670330,,,,ES,2011/11/7,Wiley,,false,11,16921391,4,4,1,0,2007/12/1,,,0,1,0,0,0,4.00,426,Hardcover,,0,0,Cyril Chern,,,,,,3,0,,
12225001,0761440526,Leopards,9780761440529,,,,ES,2010/10/15,Cavendish Square Publishing,,false,2,12225001,3,5,1,0,2010/9/1,,,1,0,0,0,0,5.00,47,Hardcover,,1,0,Carol Ellis,,,,,,1,0,,
12225501,,The Caliph's House: A Year in Casablanca,,B0045JKERG,,,ES,,,,true,29,131011,12454,20908,5276,620,2006/1/1,The Caliph's House: A Year in Casablanca,book,1724,2068,1139,254,91,3.96,,,,68,2,Tahir Shah,,,,,,6429,53,170,"adult,adventure,autobiography,biography,biography-memoir,contemporary,cultural,fiction,history,international,literature,memoir,non-fiction,religion,travel"
12226501,,Emerald and ermine;,2940018681762,,,,ES,,,,true,2,34493313,0,0,0,0,2008/11/14,,,0,0,0,0,0,0.00,,,,0,0,Marguerite Cunliffe-Owen,,,,,,,0,,
12228001,,In the shade of Ygdrasil,2940021307796,,,,ES,,,,true,15,8102327,1,0,0,0,2007/8/1,,,0,0,0,0,0,0.00,,,,0,0,Frederick Peterson,,,,,,,0,1,
12228501,,KJV Bible,2940012226037,,,,ES,,,,true,4072,1923820,283598,864516,195579,5049,1611/1/1,,book,146176,16472,13466,7885,11580,4.42,,,,0,0,Anonymous,,,,,,50056,202,23666,"adult,biography,christian,christianity,classic-literature,classics,faith,fantasy,fiction,historical,historical-fiction,history,horror,inspirational,literature,mythology,non-fiction,philosophy,poetry,politics,reference,religion,school,self-help,spirituality,theology,unfinished"
12230001,5457031888,Vek Konstantina Velikogo (Russian edition),9785457031883,,,,ES,,,,true,1,12230001,0,0,0,0,2003/1/1,,,0,0,0,0,0,0.00,,,,0,0,YAkob Burkxard,,,,,,,0,,
12231001,,Hours in a library,2940020091702,,,,ES,,,,true,27,8190527,31,28,7,1,1892/12/1,,book,2,3,2,0,0,4.00,,,,0,0,Leslie Stephen,,,,,,19,1,2,"classic-literature,classics,essays,literature,reference"
12231501,9960425940,اضحك مع الشباب,,,,,ES,2007/1/1,دار طويق للنشر و التوزيع,ara,false,1,12231501,9,9,4,0,2007/1/1,,book,0,0,2,1,1,2.25,266,,,4,0,مراد مبارك بن سميدع,,,,,,2,0,,
12232501,,"The Bonaparte Letters and Despatches, Secret, Confidential, and Official: From the Originals in ...",2940026352876,,,,ES,,,,true,10,12232506,3,0,0,0,,,,0,0,0,0,0,0.00,,,,0,0,Napoléon Bonaparte,,,,,,1,1,,history
12233001,9022550141,Het keerpunt,9789022550144,,,,ES,2008/5/1,De Boekerij,nl,false,57,114006,11563,27093,7278,680,2005/9/27,The Divide,book,1612,2815,2204,514,133,3.72,,Paperback,,4,0,Nicholas Evans,,,,Hans Kooijman,,2468,30,138,"adult,adult-fiction,chick-lit,contemporary,crime,drama,family,fiction,literary-fiction,mystery,mystery-thriller,relationships,romance,thriller"
12233501,0470557842,Exploring Management [with Binder],9780470557846,,,,ES,,,eng,false,41,12929217,80,106,30,4,2009/12/1,,book,6,9,12,1,2,3.53,,Unbound,,0,0,John R. Schermerhorn Jr.,,,,,,32,3,2,"non-fiction,reference,textbooks"
12234001,0899574335,The Bible Made Simple,9780899574332,,,,ES,2002/10/1,AMG Publishers,,false,3,694238,8,5,1,0,2002/1/1,The Bible Made Simple (Made Simple (Amg)),book,1,0,0,0,0,5.00,192,Paperback,,0,0,Mark Water,,,,,,3,0,,
12234501,,The Adventures of a Squirrel Named Peanut,2940013612952,,,,ES,,,,true,3,12234501,1,0,0,0,2011/7/15,,,0,0,0,0,0,0.00,,,,0,0,Patricia Lieb,,,,,,1,0,,
12235501,1462012299,Santa Claus Is Alive and Well and Living on Wall Street: Spoiler Alert-This Is Not a Children's Story!,9781462012299,,,,ES,2011/7/18,iUniverse,,false,4,12235499,3,6,2,0,2011/7/1,,,0,1,0,1,0,3.00,168,Hardcover,,1,0,Bruce Gauthier,,,,,,1,0,,
12236001,2221004051,Médecin des trois corps: de la Faculté de médecine de Paris à l'Ashram philippin,9782221004050,,,,ES,1999/9/12,R. Laffont,,false,1,12236001,8,15,3,0,1999/9/12,,,3,0,0,0,0,5.00,349,,,3,0,Janine Fontaine,,,,,,5,0,,
12237001,1107005655,Ruling by Statute: How Uncertainty and Vote Buying Shape Lawmaking,9781107005655,,,,ES,2011/4/25,Cambridge University Press,,false,2,12237001,2,2,1,0,2011/4/25,,,0,0,0,1,0,2.00,248,Hardcover,,1,0,Sebastian M. Saiegh,,,,,,1,0,,
12237501,,Unknown Book 12237501,,,,,ES,,,,false,1,12237501,1,0,0,0,,,,0,0,0,0,0,0.00,,,,0,0,Unknown,,,,,,,0,,
12238001,,The Great Wall Crumbles,2940027241797,,,,ES,,,,true,4,15394872,0,0,0,0,2012/4/7,,,0,0,0,0,0,0.00,,,,0,0,Grover Clark,,,,,,,0,,
12239501,0099550253,Brief Lives,9780099550259,,,,ES,2011/8/4,Arrow,,false,5,8586437,96,116,30,5,2010/1/1,,book,6,17,4,3,0,3.87,296,Paperback,,3,2,Paul  Johnson,,,,,,56,0,,"biography,biography-memoir,comics,history,memoir,non-fiction"
12240001,9736817377,Venea Din Timpul Diez: Roman,9789736817373,,,,ES,,,rum,false,5,9866744,269,422,97,19,2004/1/1,Venea din timpul diez,book,54,27,12,4,0,4.35,240,Paperback,,15,1,Bogdan Suceavă,,,,,,150,4,2,"fiction,literature"
12241001,,Culturgeschichte des deutschen Volkes in der Zeit des Uebergangs aus dem Heidenthum in das Christenthum,2940034056674,,,,ES,,,,true,1,12241001,0,0,0,0,,,,0,0,0,0,0,0.00,,,,0,0,Heinrich R?ckert,,,,,,,0,,
12243501,067437942X,"Harvard Studies in Classical Philology, Volume 94",9780674379428,,,,ES,,,,false,1,12243501,0,0,0,0,2006/1/30,,,0,0,0,0,0,0.00,,,,0,0,,,,Wendell Clausen,,,,0,,
12244001,,Epitaph,,B00466HQAQ,,,ES,2010/10/7,Hachette Digital,en-US,true,9,9302627,255,481,141,17,2010/10/7,,book,29,40,38,28,6,3.41,353,,,7,1,Shaun Hutson,,,,,,67,4,4,"fiction,horror"
12244501,,Herança de Fogo (Trilogia da Herança #1),9789898032973,,,,ES,2011/1/20,Saída de Emergência,por,false,5,43604960,98699,268981,63744,1115,1994/10/1,Born in Fire ,book,29651,21098,10863,1613,519,4.22,442,Paperback,,9,2,Nora Roberts,,,,,,23655,142,863,"adult,adult-fiction,chick-lit,contemporary,family,fantasy,fiction,love,modern,mystery,paranormal,romance"
12245001,,"The life, times and writings of Thomas Fuller, the church historian (1608-1661)",2940022484854,,,,ES,,,,true,2,12245002,0,0,0,0,2010/8/19,,,0,0,0,0,0,0.00,,,,0,0,Morris Joseph Fuller,,,,,,,0,,
12246001,0982845820,Confessions of an East Coast Raw Vegan (Black and White Edition),9780982845820,,,,ES,2011/1/9,Brandi Rollins,,false,2,11363025,27,26,6,0,2010/6/5,,,2,4,0,0,0,4.33,180,Paperback,,3,0,Brandi Rollins,,,,,,18,0,,health
12247501,2253121923,Danser sur les ruines: Une jeunesse tchétchène,9782012358591,,,,ES,2006/1/1,Hachette Littérature,fre,false,3,12247501,52,110,27,4,2006/1/1,Danser sur les ruines. Une jeunesse tchétchène,book,9,12,5,1,0,4.07,,Paperback,,18,3,Milana Terloeva,,,,,,17,1,,"biography,history,non-fiction"
12248001,1157476244,"Sindhi Tribes: Khokhar, Khanzada, Mughal, Muslim Rajput Clans, Ranghar, Paramara, Meghwal, Mudiraju, Muslim Rajputs, Talpur, Siddi, Qizilbash",9781157476245,,,,ES,2011/6/25,"Books LLC, Wiki Series",,false,1,12248001,0,0,0,0,2010/5/31,,,0,0,0,0,0,0.00,,Paperback,,0,0,Source Wikipedia,,,,,,,0,,
12248501,,Rikošetas,9789955385424,,,,ES,2010/1/1,Alma Littera,lit,false,58,30343,26970,64305,16213,742,2006/1/1,Ricochet,book,5136,6354,3912,662,149,3.97,472,Hardcover,,6,0,Sandra Brown,,,,Darius Kaunelis,,6185,68,475,"adult,adult-fiction,chick-lit,contemporary,crime,drama,fiction,murder-mystery,mystery,mystery-thriller,novels,romance,suspense,thriller"
12249001,1453560882,Fate,9781453560884,,,,ES,,,,true,4,11764720,0,0,0,0,2010/11/30,,,0,0,0,0,0,0.00,,,,0,0,Nicholas Jon,,,,,,,0,,
12250001,951023611X,Kekseliäs kettu,9789510236116,,,,ES,,,fin,false,206,6693,143844,361314,89331,3465,1970/1/1,Fantastic Mr Fox,book,33900,31199,19481,3824,927,4.04,80,Hardcover,,28,2,Roald Dahl,,,,Panu Pekkanen,,35674,518,789,"adventure,animals,chapter-books,childrens,classics,family,fantasy,fiction,funny,humor,juvenile,middle-grade,novels,picture-books,school,young-adult"
12250501,0548033315,The American History of Encyclopedia of Music: Operas V1,9780548033319,,,,ES,2007/7/25,Kessinger Publishing,,false,1,12250501,1,0,0,0,2007/7/1,,,0,0,0,0,0,0.00,416,Hardcover,,0,0,,,,William Lines Hubbard,,,,0,,music
12251501,0761162135,2012 KenKen Page-A-Day Calendar,9780761162131,,,,ES,2011/7/15,,,false,1,12251501,1,4,1,0,2011/8/1,,,0,1,0,0,0,4.00,320,,,1,0,Tetsuya Miyamoto,,,,,,,0,,
12252001,2205050214,"Achille Talon... à bout portant  (Achille Talon, #35)",9782205050219,,,,ES,2000/5/18,Dargaud,fre,false,3,12252001,18,25,7,0,1984/1/1,,book,2,0,5,0,0,3.57,46,Board book,,5,0,Greg,,,,,,,0,,comics
12252501,2266118838,Un Poulain Est Né,9782266118835,,,,ES,,,fre,false,1,12252501,5,11,3,0,2003/1/1,,book,1,1,0,1,0,3.67,,Paperback,,3,0,Christine Féret-Fleury,,,,,,,0,,"childrens,fiction"
12253501,0606048669,And One for All,9780606048668,,,,ES,1991/4/1,Turtleback Books,,false,5,1288538,119,270,69,6,1989/1/1,And One for All,book,25,18,21,5,0,3.91,182,Hardcover,,0,0,Theresa Nelson,,,,,,21,1,1,"american-history,childrens,fiction,historical,historical-fiction,relationships,war,young-adult"
12255501,0813910447,"History of Industrial Power in the U. S., 1780-1930: Steam Power",9780813910444,,,,ES,1986/1/1,University of Virginia Press,,false,1,12255501,0,0,0,0,1986/1/28,,,0,0,0,0,0,0.00,,Hardcover,,0,0,Louis C. Hunter,,,,,,,0,,
12256501,,Poviesti,2940038713184,,,,ES,,,,true,1,12256501,0,0,0,0,,,,0,0,0,0,0,0.00,,,,0,0,Pantelemon Oleksandrovych Kulish,,,,,,,0,,
12258001,1463699522,Baconology,9781463699529,,,,ES,2011/7/27,Library of Horror Press,eng,false,1,12258001,14,12,3,1,2011/7/27,,book,1,1,1,0,0,4.00,242,Paperback,,3,1,,,"Bill Tucker,Byron Alexander Campbell,Cairol Dawson,Carey Burns,D.J. Goodman,Dave McEachern,David Dunwoody,Don Newberry,Jason Colavito,Jessica Brown,Jezzy Wolfe,Joe Filippone,Lance Schonberg,Mathew Baugh,Natalie L. Sin,Patrick Rutigliano,Paul A. Freeman,Randal Tanabe,Rebecca Nazar,S.A. Kats,Sheri Gambino,Stephen A. North,Talu Briar,Teresa Bergen,Timothy W. Long,Wayne Goodchild,Zombie Zak",William Tucker,,,8,0,,horror
12258501,6134952362,Jim Butcher,9786134952361,,,,ES,2011/7/30,Bellum Publishing,,false,1,12258501,44,46,10,0,2011/7/30,,,7,2,1,0,0,4.60,124,Paperback,,10,0,,,,Othniel Hermes,,,30,0,,
12260001,8821559246,"Cannabis: Come perdere la testa, e a volte la vita",9788821559242,,,,ES,,,ita,false,1,12260001,3,0,0,0,2007/1/1,,book,0,0,0,0,0,0.00,,Paperback,,0,0,Claudio Risé,,,,,,,0,,
12260501,3570222497,Der Atlantis Code,9783570222492,,,,ES,,,,false,12,1015766,965,2065,574,76,2007/1/1,The Chaos Code,book,119,187,196,62,10,3.60,,,,2,0,Justin Richards,,,,,,260,7,19,"action,adult,adventure,childrens,family,fantasy,fiction,magic,middle-grade,mystery,mythology,paranormal,science-fiction,supernatural,suspense,technology,teen,thriller,young-adult"
12265001,0762768703,What I Wish for You: Simple Wisdom for a Happy Life,9780762768707,,,,ES,2011/4/1,Skirt!,,true,5,9674071,189,377,86,4,2011/4/1,,,47,27,10,2,0,4.38,160,ebook,,0,0,Patti Digh,,,,,,16,6,2,"non-fiction,self-help"
12266001,,The Wedding Knight,,B0056I05VK,,,ES,,,,true,4,6337250,28,12,4,1,1998/10/1,"Wedding Knight (Harlequin Love & Laughter, 55)",book,0,1,2,1,0,3.00,,,,0,0,Jenna McKnight,,,,,,12,1,,"harlequin,romance"
12266501,075668370X,Monsters in the Movies,9780756683702,,,,ES,2011/9/19,DK,,false,6,12266501,1544,2810,665,78,2011/9/19,,book,295,257,87,20,6,4.23,320,Hardcover,,588,73,John Landis,,,,,,750,6,23,"art,cultural,film,history,horror,movies,music,non-fiction,reference"
12268501,,"Lake County, Indiana, from 1834 to 1872",2940018898849,,,,ES,,,,true,6,12268501,1,0,0,0,,,,0,0,0,0,0,0.00,,,,0,0,Timothy Horton Ball,,,,,,,0,,
12269001,,"Terrier dogs: showing the best methods of breedings, rearing, feeding, cropping, physicing, cure of diseases, etc. ... also, rats and rat killing ..",,,,,ES,,,,true,12,14384796,2,9,2,0,1873/1/1,,book,1,1,0,0,0,4.50,,,,0,0,Ed. James,,,,,,,0,,
12269501,,Jericho Walls,,B004XJ5MVG,,,ES,,,,true,4,2225683,216,402,100,24,2002/4/1,Jericho Walls,book,31,44,22,2,1,4.02,,,,0,0,Kristi Collier,,,,,,78,5,7,"chapter-books,faith,family,fiction,historical,historical-fiction,history,realistic-fiction,relationships,school,young-adult"
12270501,1429929030,Digressions on Some Poems by Frank O'Hara: A Memoir,9781429929035,,,,ES,2004/4/21,"Farrar, Straus and Giroux",,true,4,79350,328,610,154,11,2003/1/1,Digressions on Some Poems By Frank O'Hara: A Memoir,,51,56,38,8,1,3.96,336,ebook,,3,0,Joe LeSueur,,,,,,126,7,17,"american,biography,gay,lgbt,memoir,non-fiction,poetry,queer"
12271501,3570009734,Deutsche Geschichte 11,9783570009734,,,,ES,,,,false,1,12271501,1,0,0,0,1987/1/1,,,0,0,0,0,0,0.00,,,,0,0,Werner Dettelbacher,,,,,,,0,,
12273001,1231401753,"Bandas Sonoras: Banda Sonora, New Moon, Twilight, Rio, High School Musical, Eclipse, the Wall, High School Musical 2",9781231401750,,,,ES,2011/6/26,"Books LLC, Wiki Series",,false,1,12273001,2,5,1,0,2011/6/28,,,1,0,0,0,0,5.00,,Paperback,,1,0,Source Wikipedia,,,,,,2,0,,
12273501,,A Guide To Deep Sea Fishing,2940012318695,,,,ES,,,,true,1,12273501,0,0,0,0,2011/3/28,,,0,0,0,0,0,0.00,,,,0,0,Tason,,,,,,,0,,
12274001,,The Balance Thing,,B003C2SP8W,,,ES,,,,true,4,7196,261,447,133,15,2006/9/1,The Balance Thing,,13,41,60,19,0,3.36,,,,1,0,Margaret Dumas,,,,,,79,3,2,"adult-fiction,chick-lit,comedy,romance"
12274501,184101575X,Growing Women Leaders,9781841015750,,,,ES,,Brf (the Bible Reading Fellowship),eng,false,1,12274501,11,13,4,1,2008/9/19,,book,1,1,1,0,1,3.25,240,Paperback,,4,1,Rosie  Ward,,,,,,4,0,1,non-fiction
12275501,,The Profession Of Arms,,,,,ES,1983/1/1,Macmillan Publishing Company,,false,4,2640296,122,91,24,2,1983/9/1,The Profession Of Arms,book,4,12,7,1,0,3.79,,,,2,0,John W. Hackett,,,,,,59,9,,"history,non-fiction,philosophy,reference,war"
12276001,,Flatland,2940012044853,,,,ES,,,,true,778,433567,94347,175864,46098,3502,1884/1/1,Flatland: A Romance of Many Dimensions,book,13033,17017,11638,3307,1103,3.82,,,,2,1,Edwin A. Abbott,,,,,,35021,102,4225,"adult,british-literature,classic-literature,classics,dystopia,fantasy,fiction,humor,literary-fiction,literature,non-fiction,novella,novels,philosophy,politics,school,science,science-fiction,science-fiction-fantasy,sociology,speculative-fiction,unfinished,victorian"
12277001,6071107091,Mejor cada día con Gaby Vargas,9786071107091,,,,ES,2011/1/1,Aguilar,,false,1,12277001,2,5,1,0,2011/2/7,,,1,0,0,0,0,5.00,370,Hardcover,,1,0,Gaby Vargas,,,,,,1,0,,
12279001,,Dancing Moon,,B005CDMBFM,,,ES,,,,true,4,2856086,118,185,49,4,1996/9/1,Dancing Moon,book,14,15,16,3,1,3.78,,,,18,2,Barbara Samuel,,,,,,49,3,4,"historical,historical-fiction,romance"
12279501,,Mile High,,B0058ETRTS,,,ES,,,,true,3,12279501,15,36,11,0,2011/6/27,,book,2,3,2,4,0,3.27,,,,10,0,Felicia Rose,,,,,,4,1,,
12280001,1557800685,Far Traveller,9781557800688,,,,ES,,,,false,1,12280001,1,0,0,0,1980/5/28,,,0,0,0,0,0,0.00,,,,0,0,Sonya Dorman,,,,,,,0,,
12280501,1159192073,"Musik (Frankreich): Les Enfoires, French House, Frankreich Beim Eurovision Song Contest, Nouvelle Chanson",9781159192075,,,,ES,2011/8/28,"Books LLC, Wiki Series",,false,1,12280501,0,0,0,0,2010/7/22,,,0,0,0,0,0,0.00,,Paperback,,0,0,Source Wikipedia,,,,,,,0,,
12281001,,Finni Johann,2940035865404,,,,ES,,,,true,4,12281001,2,0,0,0,,,,0,0,0,0,0,0.00,,,,0,0,Finnur Jo,,,,,,1,0,1,
12281501,,Major Barbara,,B002RKRQ9E,,,ES,,,,true,190,367762,8218,18149,4925,163,1905/1/1,Major Barbara,book,1170,1694,1492,478,91,3.69,,,,13,1,George Bernard Shaw,,,,,,2402,28,45,"adult-fiction,british-literature,christianity,classic-literature,classics,comedy,drama,european-literature,fiction,grad-school,historical,historical-fiction,humor,literature,philosophy,plays,politics,school,theatre,victorian"
12282001,1231489219,"Jogos Para DOS: Doom, UFO: Enemy Unknown, Donkey Kong, Master of Magic, the Settlers II, Street Fighter II, Blood, Shadow Warrior, Fallout",9781231489215,,,,ES,2011/6/27,"Books LLC, Wiki Series",,false,1,12282001,0,0,0,0,2011/6/1,,,0,0,0,0,0,0.00,,Paperback,,0,0,Source Wikipedia,,,,,,,0,,
12282501,0876668376,Pigeons,9780876668375,,,,ES,1992/11/20,TFH Publications,,false,1,12282501,3,11,3,2,1989/9/1,,,1,0,2,0,0,3.67,96,Hardcover,,3,2,Carl Naether,,,,,,,0,,
12283501,,"Cam Jansen and the Mystery of the Carnival Prize (Cam Jansen Mysteries, #9)",,B002CIY8LU,,,ES,,,,true,20,608376,1132,2278,573,25,1984/10/15,"Cam Jansen and the Mystery of the Carnival Prize (Cam Jansen Mysteries, #9)",book,224,158,152,31,8,3.98,,,,10,0,David A. Adler,Susanna Natti,,,,,302,15,7,"chapter-books,childrens,middle-grade,mystery,picture-books,school,young-adult"
12284001,1844742075,Words Of Life: Scripture As The Living And Active Word Of God,9781844742073,,,,ES,2009/11/1,InterVarsity Press,,false,1,12284001,68,119,28,2,2009/11/1,,book,10,15,3,0,0,4.25,192,Paperback,,28,2,Timothy Ward,,,,,,24,2,4,"christian,theology"
12285501,,The tremont street special district,2940026027279,,,,ES,,,,true,1,12285501,0,0,0,0,,,,0,0,0,0,0,0.00,,,,0,0,Boston Redevelopment Authority,,,,,,,0,,
12286001,,The Dragon Box,9781301076437,,,,ES,2011/8/1,,eng,true,3,22664978,221,223,56,17,2011/8/1,,book,19,21,13,2,1,3.98,123,ebook,,34,16,Katie W. Stewart,,,,,,135,10,7,"adventure,childrens,fantasy,fiction,magic,middle-grade,paranormal,young-adult"
12287501,3131289511,Offbeat Otolaryngology,9783131289513,,,,ES,2001/6/5,TPS,,false,2,3074927,1,2,1,0,2001/1/28,Offbeat (eccentric) Otolaryngology,,0,0,0,1,0,2.00,161,Hardcover,,0,0,"John D.C. Bennett,John Riddington Young",,,,,,,0,,
12289001,,Bijdragen tot de flora van Nederlandsch Indi,2940036033031,,,,ES,,,,true,1,12289001,0,0,0,0,,,,0,0,0,0,0,0.00,,,,0,0,C.L. Blume,,,,,,,0,,
12289501,1851495800,The Artist's Daughter: A Fictionalised Memoir Of Ellen Churchyard,9781851495801,,,,ES,2009/1/1,Acc Art Books,,false,1,12289501,0,0,0,0,2009/1/1,,,0,0,0,0,0,0.00,224,Hardcover,,0,0,Sally Kibble,,,,,,,0,,
12290001,0891122877,The Fulfillment Principle: Experiencing a Life of Pure Joy and Fulfillment,9780891122876,,,,ES,2011/8/1,ACU Press/Leafwood Publishers,,false,2,12290001,11,30,8,3,2011/7/5,,,2,4,1,0,1,3.75,125,Hardcover,,8,3,Bob Westfall,,,,,,2,0,1,
12291501,1879852314,In All Their Animal Brilliance: Poems,9781879852310,,,,ES,2005/4/19,University of Tampa Press,,false,2,1223234,47,106,26,3,,In All Their Animal Brilliance: Poems,book,10,9,6,1,0,4.08,83,Hardcover,,1,0,Lance Larsen,,,,,,14,0,,"poetry,school"
12292001,3837100073,Fabelheim,9783837100075,,,,ES,,,,false,56,44652,210139,477662,116711,9272,2006/6/7,Fablehaven,book,49965,37968,20831,5525,2422,4.09,,,,1,0,Brandon Mull,,,,,,78168,235,1808,"action,adventure,chapter-books,childrens,fairy-tales,family,fantasy,fiction,juvenile,magic,middle-grade,mystery,mythology,novels,paranormal,science-fiction-fantasy,supernatural,teen,urban-fantasy,witches,young-adult"
12293001,,Drag Queen (Fierce Poetry),,B005CS67GQ,,,ES,,,,true,4,12293001,43,34,11,1,2011/7/8,,book,2,2,3,3,1,3.09,,ebook,,11,1,German Alcala,,,,,,23,3,,poetry
12294001,2874490253,prix fixe du livre en Belgique: histoire d'un combat,9782874490255,,,,ES,2007/5/11,Les impressions nouvelles,,false,1,12294001,1,0,0,0,2007/5/11,,,0,0,0,0,0,0.00,149,,,0,0,Tanguy Habrand,,,,,,,0,,
12294501,,La migration des symboles,2940029865762,,,,ES,,,,true,5,8941603,2,8,2,0,2010/2/17,,,1,0,1,0,0,4.00,,,,0,0,Eugène Goblet d'Alviella,,,,,,,1,,
12295001,1231743794,"Naturais de Montevideu: Alvaro Recoba, Laura Canoura, Diego Forlan, Eduardo Galeano, Juan Castillo, Alfredo Zitarrosa, Barbara Mori",9781231743799,,,,ES,2011/6/25,"Books LLC, Wiki Series",,false,1,12295001,0,0,0,0,2011/6/28,,,0,0,0,0,0,0.00,46,Paperback,,0,0,Source Wikipedia,,,,,,,0,,
12296501,,Dyskursy młodych andragogów 9,9788374811668,,,,ES,,,,false,1,12296501,1,3,1,0,,,book,0,0,1,0,0,3.00,,,,1,0,,,,,,,,0,,
12298501,1440524955,The Everything College Survival Book: All you need to get the most out of college life,9781440524950,,,,ES,2011/3/18,Everything,,true,6,12374775,100,99,29,1,2011/12/1,,book,5,8,10,6,0,3.41,288,ebook,,1,0,Susan Fitzgerald,,,,,,50,1,3,"academic,college,cooking,education,non-fiction,reference,self-help,survival"
12299001,,On the Theory of Logic: An Essay,2940026808533,,,,ES,,,,true,7,26914291,0,0,0,0,2015/9/27,,,0,0,0,0,0,0.00,,,,0,0,Carveth Read,,,,,,,0,,
12299501,1848871414,Prisoner's Dilemma,9781848871410,,,,ES,,,,false,11,23010,1308,2119,548,46,1988/1/1,Prisoner's Dilemma,book,153,225,124,36,10,3.87,,,,3,1,Richard Powers,,,,,,619,17,15,"american,american-history,family,fiction,historical-fiction,history,literary-fiction,literature,love-story,mystery-thriller,novels,philosophy,science"
12300001,0857291149,A Short History of Mathematical Population Dynamics,9780857291141,,,,ES,2010/11/25,Springer,,false,3,12300001,6,12,3,3,2010/11/24,,,1,1,1,0,0,4.00,160,Paperback,,3,3,Nicolas Bacaer,,,,,,3,0,,non-fiction
12301501,1434980669,Deutsch from Scratch: An Elementary Approach to Learning German,9781434980663,,,,ES,2012/5/1,Dorrance Publishing Co.,,false,1,12301501,0,0,0,0,2012/5/1,,,0,0,0,0,0,0.00,364,Paperback,,0,0,David Cameron Dunn,,,,,,,0,,
12302001,,Career orientation of university administrators,2940028826580,,,,ES,,,,true,1,12302001,2,0,0,0,,,,0,0,0,0,0,0.00,,,,0,0,Sandra West Morgan,,,,,,1,0,,
12302501,073771770X,Dragonfly,9780737717709,,,,ES,2004/9/9,KidHaven Press,,false,1,12302501,0,0,0,0,2004/9/28,,,0,0,0,0,0,0.00,32,Hardcover,,0,0,Kelly L. Borchelt,,,,,,,0,,
12303001,142402157X,Life on the Orinoco,9781424021574,,,,ES,2008/6/1,Cengage Learning,,false,5,12303001,14,2,1,2,2007/8/1,,book,0,0,0,1,0,2.00,24,Unknown Binding,,1,2,Rob Waring,,,,,,7,0,1,
12304501,080286631X,"The Kuyper Center Review, Volume 2: Revelation and Common Grace",9780802866318,,,,ES,2011/4/7,Eerdmans,,false,2,12304501,2,0,0,0,2011/3/15,,,0,0,0,0,0,0.00,320,Paperback,,0,0,,,,John R. Bowlin,,,2,0,,
12305001,059561082X,Broken Chains: The Collected Works of Pashen Riley,9780595610822,,,,ES,,,,true,2,12305001,0,0,0,0,2009/1/16,,,0,0,0,0,0,0.00,,,,0,0,Pashen Riley,,,,,,,0,,
12305501,,Scott's poetic gems,2940020753402,,,,ES,,,,true,1,12305501,0,0,0,0,,,,0,0,0,0,0,0.00,,,,0,0,R. Alonzo Scott,,,,,,,0,,
12306501,0892729228,The Winter Travelers: A Christmas Fable,9780892729227,,,,ES,2011/10/16,Down East Books,,false,6,12306501,33,79,24,6,2011/10/16,,,4,6,10,1,3,3.29,207,Hardcover,,24,6,Don J. Snyder,,,,,,8,0,,"adult-fiction,christmas,fantasy,fiction,historical-fiction,holiday"
12308001,,Esperienze e principj d' idraulica pratica e dottrina sulle macchine idrauliche,2940033348411,,,,ES,,,,true,1,12308001,0,0,0,0,,,,0,0,0,0,0,0.00,,,,0,0,Luigi Pacinotti,,,,,,,0,,
12308501,1157388353,Taking Back Sunday Albums,9781157388357,,,,ES,,,,false,1,12308501,1,0,0,0,2010/5/30,,,0,0,0,0,0,0.00,,,,0,0,Books LLC,,,,,,1,0,,
12309001,,Blood Squad,,B004Y04T2M,,,ES,,,en-GB,true,5,12309001,147,174,41,11,2005/1/1,,book,21,11,7,2,0,4.24,,,,23,3,Rae Monet,,,,,,76,10,9,"contemporary,fantasy,horror,paranormal,romance,supernatural,vampires"
12309501,,Calendar of the manuscripts of the ... marquis of Salisbury ... preserved at Hatfield house,2940029880673,,,,ES,,,,true,3,12309500,0,0,0,0,,,,0,0,0,0,0,0.00,,,,0,0,Salisbury,,,,,,,0,,
12311001,0160738687,"Code of Federal Regulations, Title 21, Food and Drugs, Pt. 200-299, Revised as of April 1, 2005",9780160738685,,,,ES,2005/6/8,National Archives and Records Administra,,false,1,12311001,0,0,0,0,2005/6/8,,,0,0,0,0,0,0.00,208,Paperback,,0,0,,,,,,,,0,,
12311501,4772101454,Yume nikoniko,9784772101455,,,,ES,1998/2/1,Kogumasha,,false,1,12311501,2,3,1,0,1998/2/1,,book,0,0,1,0,0,3.00,22,,,1,0,Yanagihara Ryōhei,,,,,,,0,,
12312501,2080711679,La Bhagavadgîtâ,9782080711670,,,,ES,,,,false,1,12312501,7,5,2,0,2007/1/1,,,0,0,1,1,0,2.50,,,,2,0,Marc Ballanfat,,,,,,1,0,1,
12313001,,"The Sign of Four (Sherlock Holmes, #2)",,B005AVIYCA,,,ES,,,,true,14,608474,135146,340777,86372,3819,1890/1/1,The Sign of Four,book,25435,35155,21959,3282,541,3.95,,,,5,0,Arthur Conan Doyle,,,,,,27821,707,3415,"adult,adult-fiction,adventure,british-literature,classic-literature,classics,crime,detective,english-literature,fiction,historical,historical-fiction,literature,murder-mystery,mystery,mystery-thriller,novels,short-stories,suspense,thriller,victorian"
12314001,,La religion romaine d'Auguste aux Antonins,2940031343401,,,,ES,,,fre,true,8,27909567,0,0,0,0,2010/2/9,,book,0,0,0,0,0,0.00,,,,0,0,Gaston Boissier,,,,,,,0,,
12314501,0199119082,The Strange Box,9780199119080,,,,ES,2010/11/1,"Oxford University Press, USA",,false,4,12314501,65,119,28,2,2014/1/9,,book,14,9,4,0,1,4.25,36,Paperback,,14,2,"Alex Brychta,David Hunt,Roderick Hunt",,,,,,18,1,4,
12315001,1406335878,Judy Moody Declares Independence,9781406335873,,,,ES,2011/5/1,Walker & Company,,false,38,24155,7318,16473,4041,156,2005/1/1,,book,1819,1057,884,217,64,4.08,160,Paperback,,16,3,Megan McDonald,,,,,,2148,10,94,"chapter-books,childrens,fiction,funny,holiday,humor,juvenile,middle-grade,realistic-fiction,school"
12315501,,"John Murray III, 1808-1892: a brief memoir",2940018906056,,,,ES,,,,true,2,12315504,0,0,0,0,,,,0,0,0,0,0,0.00,,,,0,0,John Murray IV,,,,,,,0,,
12316001,0900075848,Corunna,9780900075841,,,,ES,2000/8/22,Windrush Press,,false,5,2310158,71,102,26,3,1961/1/1,Corunna (Great Battles),,7,11,7,1,0,3.92,224,Paperback,,1,0,Christopher Hibbert,,,,,,33,0,1,"france,historical,history,non-fiction"
12316501,3838624394,Internet Branding,9783838624396,,,,ES,2000/6/18,Diplom.de,,false,1,12316501,0,0,0,0,2000/6/18,,,0,0,0,0,0,0.00,116,Paperback,,0,0,Dirk Eckert,,,,,,,0,,
12317001,3655079400,The Complete Poems of Sir Thomas Moore Collected by Himself with Explanatory Notes,9783655079409,,,,ES,,,,true,12,19382524,56,34,7,1,2009/7/29,,book,6,1,0,0,0,4.86,,,,0,0,Thomas   Moore,,,,,,33,1,15,poetry
12317501,,শুকনো ফুল রঙিন ফুল,9847009601477,,,,ES,2011/2/1,তাম্রলিপি,ben,false,1,12317501,442,765,223,2,2011/2/1,শুকনো ফুল রঙিন ফুল,book,47,62,70,28,16,3.43,240,Hardcover,১ম,223,2,Muhammed Zafar Iqbal,,,,,,86,3,2,"contemporary,drama,fiction,humor,social"
12318501,1400013143,"Fodor's Oregon, 5th Edition",9781400013142,,,,ES,2011/2/22,"Fodor's Travel Publications, Inc.",,false,6,11690773,53,149,37,1,1998/4/28,,,12,15,9,1,0,4.03,400,Paperback,,0,0,Fodor's Travel Publications Inc.,,,,,,9,1,,"non-fiction,travel"
12319001,0876913079,The Clermont Book of Backgammon,9780876913079,,,,ES,,,eng,false,2,12319001,2,3,1,0,1979/9/28,,book,0,0,1,0,0,3.00,147,,,1,0,David Dor-El,,,,,,,0,,
12319501,1569016798,Forever Young,9781569016794,,,,ES,,,,false,1,12319501,0,0,0,0,1995/10/1,,,0,0,0,0,0,0.00,,,,0,0,C.L. Johnson,,,,,,,0,,
12320001,0312095716,The Presence of Others,9780312095710,,,,ES,,,,false,1,12320001,0,0,0,0,1994/2/1,,,0,0,0,0,0,0.00,,,,0,0,"Angela A. Lunsford,Angela A. Lunsford",,,,,,,0,,
12320501,1859061265,Beginners Guide To Yoga,9781859061268,,,,ES,,,,false,1,12320501,4,4,1,0,2003/1/1,,,0,1,0,0,0,4.00,,,,1,0,Howard Kent,,,,,,,0,,
12321501,1401234100,Flashpoint: The World of Flashpoint Featuring Wonder Woman,9781401234102,,,,ES,2012/3/20,DC Comics,eng,false,3,12321501,1116,2525,682,56,2012/3/20,Flashpoint: The World of Flashpoint Featuring Wonder Woman,book,193,182,232,61,14,3.70,272,Paperback,,669,55,,"Agustín Padilla,Ardian Syaf,Christian Duce,David Beaty,Diana Egea,Don Ho,Eddie Núñez,Gianluca Gugliotta,Javi Fernandez,Jose Aviles,Scott Clark,Vicente Cifuentes,Walden Wong",,,,,315,14,13,"action,adventure,comics,fantasy,fiction,graphic-novels,graphic-novels-comics,science-fiction,superheroes"
12322501,1613247311,Harvesting the Seas,9781613247310,,,,ES,2012/2/17,Nova Science Publishers,,false,1,12322501,0,0,0,0,2011/10/1,,,0,0,0,0,0,0.00,391,Hardcover,,0,0,,,U.S. Government,,,,,0,,
12323501,0962401226,"Emily, the Yellow Rose: A Texas Legend",9780962401220,,,,ES,2011/1/31,Rinard Pub.,,false,4,12297881,30,23,5,0,1989/10/1,"Emily, the Yellow Rose",,3,2,0,0,0,4.60,268,Paperback,,0,0,Anita Richmond Bunkley,,,,,,21,0,2,historical
12324001,0889226725,All Is Flesh,9780889226722,,,,ES,2012/3/13,Talonbooks,,false,2,12324001,8,6,2,1,2011/9/1,,,0,0,2,0,0,3.00,160,Paperback,,2,1,Yannick Renaud,,,,Hugh Hazelton,,2,0,,poetry
12325001,0945352182,Mulches,9780945352181,,,,ES,1990/1/1,Brooklyn Botanic Garden,,false,1,12325001,0,0,0,0,1990/1/1,,,0,0,0,0,0,0.00,,Paperback,,0,0,Paul F. Frese,,,,,,,0,,
12325501,,Po,2940027703783,,,,ES,,,,true,1,12325501,0,0,0,0,,,,0,0,0,0,0,0.00,,,,0,0,J. Delpit Joseph de La Grange -Chancel,,,,,,,0,,
12326001,,Beowulf,,B005D9IVCC,,,ES,,,,true,256,52357,326720,702410,204905,5676,536/1/1,Beowulf,book,42441,57623,63322,28228,13291,3.43,,,,5,0,Unknown,,,Amanda Lee,,,65643,1455,2714,"academic,adult,adult-fiction,adventure,british-literature,classic-literature,classics,college,english-literature,epic,fantasy,fiction,high-school,historical,historical-fiction,history,horror,literary-fiction,literature,medieval,mythology,non-fiction,novels,poetry,school"
12326501,2294713508,Rhumatologie - Traumatologie - Orthop�die,9782294713507,,,,ES,2011/1/19,Elsevier Masson,,false,1,12326501,0,0,0,0,,,,0,0,0,0,0,0.00,192,Unknown Binding,,0,0,Marc-Antoine Rousseau,,,,,,,0,,
12327001,,سرزمین‌های گرگ و میش,9786005193282,,,,ES,2009/1/1,نشر بیدگل,per,false,28,6205,3250,4439,1271,103,1974/1/1,Dusklands,book,209,423,461,141,37,3.49,212,Paperback,,5,2,J.M. Coetzee,,,,محسن کاس‌نژاد,,1534,107,37,"americana,classics,cultural,dark,drama,fiction,historical-fiction,horror,literary-fiction,literature,novella,novels,politics,short-stories,war"
12328501,,"Pride & Popularity (The Jane Austen Diaries, #1)",,B005FY5ZP6,,,ES,2011/8/3,Brigham Distributing,eng,true,4,12092005,12758,23773,6186,646,2011/5/7,Pride & Popularity,book,2097,1894,1522,473,200,3.84,240,,,558,80,Jenni James,,,,,,5894,70,55,"chick-lit,contemporary,fiction,high-school,humor,love-story,realistic-fiction,retellings,romance,teen,young-adult"
12329001,,Blood Wounds,,B005G5RV92,,,ES,2011/9/13,Houghton Mifflin Harcourt,en-US,true,6,8440028,4675,5400,1639,299,2011/1/1,Blood Wounds,book,251,436,574,301,77,3.29,261,,,66,1,Susan Beth Pfeffer,,,,,,2614,33,32,"abuse,contemporary,crime,death,drama,family,fiction,high-school,mental-health,mental-illness,mystery,mystery-thriller,novels,realistic-fiction,school,suspense,teen,thriller,young-adult"
12329501,3866784880,Michael Morgner: Bilder/Paintings 1985-2008,9783866784888,,,,ES,2011/9/30,Kerber Verlag,,false,1,12329501,0,0,0,0,2011/9/30,,,0,0,0,0,0,0.00,85,Hardcover,,0,0,"Barbara Wally,Ingrid M",,Peter Iden,,,,,0,,
12330001,1159136807,"Leichtathlet (Australien): Cathy Freeman, Neil Fuller, Louise Sauvage, John Landy, Stan Rowley, Marjorie Jackson",9781159136802,,,,ES,2011/8/28,"Books LLC, Wiki Series",,false,1,12330001,1,0,0,0,2010/7/28,,,0,0,0,0,0,0.00,,Paperback,,0,0,Source Wikipedia,,,,,,1,0,,
12330501,0810877309,Tennessee Tech Tuba Ensemble and R. Winston Morris: A 40th Anniversary Retrospective,9780810877306,,,,ES,2010/11/16,Scarecrow Press,,false,2,12330501,0,0,0,0,2010/11/16,,,0,0,0,0,0,0.00,206,Paperback,,0,0,"Charles A. McAdams,Richard H. Perry",,,,,,,0,,
12331001,1615930736,Voiceovers: Everything You Need to Know about How to Make Money with Your Voice,9781615930739,,,,ES,2011/4/6,Michael Wiese Productions,,true,4,10250207,41,52,13,1,2011/3/1,,,6,3,3,0,1,4.00,392,ebook,,0,0,Terri Apple,,,,,,21,0,1,non-fiction
12331501,0030989809,Invertebrate Zoology,9780030989803,,,,ES,,,,false,6,4258728,1050,383,91,3,1963/1/1,Invertebrate Zoology,book,56,14,11,4,6,4.21,,,,1,0,Edward E. Ruppert,,,,,,783,0,63,science
12332001,0788195549,God among the Shakers: Search for Stillness and Faith at Sabbathday Lake,9780788195549,,,,ES,,,,false,4,1689915,96,210,58,13,1999/3/3,God Among the Shakers: A Search for Stillness and Faith at Sabbathday Lake,,13,19,19,5,2,3.62,,,,0,0,Suzanne Skees,,,,,,21,2,2,"christianity,memoir,non-fiction,religion,spirituality"
12332501,1869221524,Leading The Way Through CSI: A Guidebook For Corporate Social Investment Practitioners,9781869221522,,,,ES,,,,false,1,12332501,2,1,1,0,2007/1/1,,book,0,0,0,0,1,1.00,,,,1,0,"Arnold Smit,Samuel Njenga",,,,,,,0,,
12333501,1462880258,A Buried Past,9781462880256,,,,ES,2011/6/6,Xlibris Corporation,,false,2,12333501,0,0,0,0,2011/6/6,,,0,0,0,0,0,0.00,204,Paperback,,0,0,Khanya Maselela,,,,,,,0,,
12335501,0553233130,Utah Blaine,9780553233131,,,,ES,1983/9/1,Bantam Books,,false,23,633110,3485,9879,2467,99,1954/1/1,Utah Blaine,book,871,858,629,96,13,4.00,,Paperback,,6,2,Louis L'Amour,,,,,,398,9,74,"adult-fiction,fiction,historical,historical-fiction,history,novels,realistic-fiction,young-adult"
12336001,4101410097,Kobune Kogishi Kono Kawa,9784101410098,,,,ES,,,,false,1,12336001,1,4,1,0,32767/1/1,,,0,1,0,0,0,4.00,,,,1,0,Tomosuke Noda,,,,,,,0,,
12336501,0812431057,Black Gold,9780812431056,,,,ES,1992/4/1,Perfection Learning,,false,21,901311,8191,24155,5783,72,1957/1/1,Black Gold,book,2566,1872,1183,126,36,4.18,172,Hardcover,,0,0,"Marguerite Henry,Wesley Dennis",,,,,,1773,24,10,"adventure,american,animals,chapter-books,childrens,classics,fiction,historical,historical-fiction,history,juvenile,middle-grade,non-fiction,realistic-fiction,young-adult"
12337001,061536800X,Economy of the Spirit,9780615368009,,,,ES,2010/6/13,Higher Realm Publishing,,false,1,12337001,1,5,1,0,2010/6/13,,,1,0,0,0,0,5.00,82,Paperback,,1,0,"Gwendolyn Powell,Jessica Tilles,Vanessa Werts",,,,,,,0,,
12337501,,Heartaches and Miracles,,B005FYG7E4,,,ES,,,,true,5,12111349,22,57,12,5,2011/8/2,,book,9,3,0,0,0,4.75,,,,2,0,Greta Burroughs,,,,,,6,0,,fiction
12339001,,Frank Capra,,,,,ES,1995/4/1,L'Unità / Il Castoro,ita,false,1,12339001,11,0,0,1,1995/4/1,Frank Capra,book,0,0,0,0,0,0.00,121,Paperback,Collana Grandi Registi - prima serie #15,0,1,Vito Zagarrio,,,,,,5,0,,
12340001,,The Bitter Price of Love,,B0056HCA5A,,,ES,,,eng,true,9,1772141,95,153,45,6,1995/6/1,The Bitter Price of Love,book,14,8,10,8,5,3.40,,,,9,1,Amanda Browning,,,,,,27,7,2,"chick-lit,harlequin,romance"
12340501,2912042267,En Guerre: Campagnes De France Et D'albanie (1940 1941),9782912042262,,,,ES,,,,false,1,12340501,1,4,1,0,2000/1/1,,,0,1,0,0,0,4.00,,,,1,0,Mario Rigoni Stern,,,,,,,0,,
12341001,0691092117,"Vietnam War and International Law, Vol. 1",9780691092119,,,,ES,,,,false,5,12341001,2,0,0,0,1968/4/28,,,0,0,0,0,0,0.00,,,,0,0,Richard A. Falk,,,,,,1,0,,politics
12341501,,"A Critical and Exegetical Commentary on Micah, Zephaniah, Nahum, Habakkuk, Obadiah and Joel",2940017587485,,,,ES,,,,true,7,12341501,0,0,0,0,,,book,0,0,0,0,0,0.00,,,,0,0,"J.M. Powis Smith,William Hayes Ward",,,,,,,0,,
12342001,2110038667,Histoire De L'art Antique,9782110038661,,,,ES,,,,false,2,12342001,4,4,1,0,,,,0,1,0,0,0,4.00,,,,1,0,"Alain Pasquier,Bernard Holtzmann",,,,,,1,0,,art
12342501,2921561638,Devenir son propre patron?: mythes et réalités du nouveau travail autonome,9782921561631,,,,ES,,Éditions Écosociété,fre,false,1,12342501,2,0,0,1,,,book,0,0,0,0,0,0.00,147,,,0,1,"Jean-Sébastien Marsan,Various",,,,,,,1,,
12343001,,"Sensible etiquette of the best society, customs, manners, morals, and home culture",2940019526567,,,,ES,,,,true,10,29166848,0,0,0,0,2008/1/1,,,0,0,0,0,0,0.00,,,,0,0,Clara Jessup Moore,,,,,,,0,,
12343501,051621165X,A Pill Bug's Life,9780516211657,,,,ES,1999/9/1,Children's Press(CT),,false,4,465361,43,74,18,2,1999/3/1,Pill Bug's Life,book,6,8,4,0,0,4.11,,Hardcover,,0,0,John Himmelman,,,,,,12,0,,"childrens,nature,non-fiction,picture-books,science"
12344001,,The Warden,,,,,ES,1976/1/1,Folio Society,eng,false,376,267123,29819,42625,11447,1092,1855/1/1,The Warden,book,2672,4350,3298,844,283,3.72,,Hardcover,,2,0,Anthony Trollope,,,,,,15931,91,498,"adult,adult-fiction,british-literature,classic-literature,classics,english-literature,fiction,historical,historical-fiction,history,humor,literary-fiction,literature,novels,religion,victorian"
12344501,3897499193,"Macht Schlagzeilen!1000 Pr Ideen, Um Kunden Und Journalisten Für Ihr Unternehmen Zu Gewinnen",9783897499195,,,,ES,,,,false,1,12344501,2,2,1,0,2009/1/1,,,0,0,0,1,0,2.00,,,,1,0,Christian Maria Fischer,,,,,,1,0,,
12345001,1905192843,Defending Multiculturalism: a guide for the movement,9781905192847,,,,ES,2011/10/1,Bookmarks,,false,1,12345001,10,9,3,1,2011/10/1,,book,0,1,1,1,0,3.00,231,Paperback,,3,1,,,,Hassan Mahamdallie,,,5,0,,politics
12345501,220505418X,Charmes Fous,9782205054187,,,,ES,2005/2/4,,fre,false,1,12345501,5,12,4,0,2005/1/1,,book,0,1,2,1,0,3.00,,Hardcover,,4,0,"Olivier Balez,Éric Corbeyran",,,,,,,0,,comics
12346001,0062041193,More Than Words Can Say,9780062041197,,,,ES,2011/12/20,William Morrow Paperbacks,en-US,false,7,12346001,1358,2180,660,130,2011/12/1,,book,112,184,197,126,41,3.30,400,Paperback,,621,122,Robert Barclay,,,,,,536,28,25,"adult,adult-fiction,fiction,historical,historical-fiction,mystery-thriller,romance"
12347001,0595675174,The Empty Tomb: My Wife's Faked Death: A True Story,9780595675173,,,,ES,,,,false,1,12347001,0,0,0,0,2006/1/5,,,0,0,0,0,0,0.00,,,,0,0,Lionel Correa,,,,,,,0,,
12347501,3898856658,Vagabond 6,9783898856652,,,,ES,,,,false,12,996566,1370,4406,1000,20,2000/4/21,バガボンド 6,book,548,331,101,19,1,4.41,,,,2,1,Takehiko Inoue,,,,,,131,17,7,"adult,adventure,comics,drama,fiction,graphic-novels,historical,historical-fiction,manga,romance"
12348001,0449131467,The Horse Soldiers,9780449131466,,,,ES,1987/6/12,Random House Publishing Group,,false,1,12348001,6,13,3,0,1987/6/12,,book,2,0,1,0,0,4.33,196,Mass Market Paperback,,3,0,Bill Pronzini,,,,,,3,0,,
12349001,1449901727,The Eliezer Call: The Call of the Bride,9781449901721,,,,ES,2009/11/14,Createspace Independent Publishing Platform,,false,1,12349001,0,0,0,0,2009/11/14,,,0,0,0,0,0,0.00,174,Paperback,,0,0,Lloyd Gardner,,,,,,,0,,
12352001,9511241885,Huominen on liian kaukana,9789511241881,,,,ES,2011/1/1,Otava,fin,false,72,5587960,59455,88817,21069,2072,2009/6/16,The Thing Around Your Neck,book,8539,9068,2992,404,66,4.22,271,Hardcover,,107,18,Chimamanda Ngozi Adichie,,,,Sari Karhulahti,,32700,222,1455,"adult,adult-fiction,contemporary,cultural,feminism,fiction,historical,historical-fiction,international,literary-fiction,literature,non-fiction,novels,realistic-fiction,school,short-stories"
12352501,,Warlock's Bride,,B003XYEWEU,,,ES,,,,true,5,7748242,27,32,9,3,2009/9/1,,book,0,6,2,1,0,3.56,,,,0,0,Jennifer Rinehart,,,,,,13,2,,witches
12354001,,The Surgeon's New Year Wedding Wish,,B002WEPDNQ,,,ES,,,,true,9,7815675,24,18,6,1,2009/1/1,,book,0,1,4,1,0,3.00,,,,2,1,Laura Iding,,,,,,6,1,,"harlequin,romance"
12354501,1616378875,Ed King,9781616378875,,,,ES,2011/10/18,Findaway World,,false,17,10682800,3098,5632,1753,408,2011/1/1,Ed King,book,177,531,644,290,111,3.21,15,Preloaded Digital Audio Player,Unabridged,0,0,David Guterson,,,,,,1053,25,38,"contemporary,family,fiction,historical-fiction,literary-fiction,literature,mystery,novels,relationships,retellings"
12355501,8370796400,Wielkie emocje i uczucia niedoskonałe,,,,,ES,1996/1/1,Muza,pol,false,17,1545586,723,1758,444,20,1988/1/1,Vastas Emoções e Pensamentos Imperfeitos,book,156,159,93,27,9,3.96,353,Paperback,,6,0,Rubem Fonseca,,,,,,177,3,7,"classic-literature,fiction,literature,mystery,novels,romance"
12356501,1462019684,Sleeping Gods: A Novel by,9781462019687,,,,ES,2011/5/24,iUniverse.com,,false,2,19898861,0,0,0,0,2011/5/24,,,0,0,0,0,0,0.00,428,Paperback,,0,0,Michael Hodjera,,,,,,,0,,
12358001,,Cloud 9,,,,,ES,,,,false,1,12358001,1,0,0,0,,,book,0,0,0,0,0,0.00,,,,0,0,J-Time,,,,,,,0,1,
12359001,,Angel Of Solace,,B005GL5SPU,,,ES,2011/8/8,Jade Fantasy,eng,true,1,12359001,67,28,7,1,2011/8/8,,book,3,2,1,1,0,4.00,,,1,7,1,,,,,,,45,7,,"angels,fantasy,fiction,paranormal,romance,science,science-fiction,young-adult"
12360001,1147564930,"Sanctuaires d'Orient: �gypte, Greec, Palestine",9781147564938,,,,ES,2010/3/19,Nabu Press,,false,7,12360001,4,4,1,0,1926/1/1,,,0,1,0,0,0,4.00,464,Paperback,,0,0,Edouard Schur,,,,,,2,0,,
12360501,0007262884,Little Ghost Wicky,9780007262885,,,,ES,2008/10/1,HarperCollins Children's Books,,false,1,12360501,8,25,6,1,2008/10/1,,book,2,3,1,0,0,4.17,32,Paperback,,6,1,Yokococo,,,,,,2,1,,art
12361001,,Assassin's Cafe,,B0055WY0WM,,,ES,,,,true,2,12081755,8,12,4,1,2011/6/13,,,1,0,1,2,0,3.00,,,,1,0,Lisa Adams,,,,,,4,0,,"erotica,romance"
12361501,,Cheater's Digest,,,,,ES,2011/1/1,PSICOM Publishing Inc.,,false,1,12361501,139,70,20,6,2011/1/1,,book,7,2,7,2,2,3.50,120,Paperback,,20,6,Vic Ejanda,,,,,,67,2,,"humor,non-fiction"
12362001,0978925300,Here at Least: Poems,9780978925307,,,,ES,2006/10/1,Cottey House Press,,false,1,12362001,1,0,0,0,2006/10/1,,,0,0,0,0,0,0.00,67,Paperback,,0,0,B. Morrison,,,,,,1,0,,
12364001,1898838410,Worship Pack with CD,9781898838418,,,,ES,2005/1/1,Alpha North America,,false,1,12364001,1,0,0,0,,,,0,0,0,0,0,0.00,,Audio CD,,0,0,,,,,,,,0,,
12364501,,Unknown Book 12364501,,,,,ES,,,,false,1,12364501,0,0,0,0,,,,0,0,0,0,0,0.00,,,,0,0,Unknown,,,,,,,0,,
12365501,2228903035,La Morale Sexuelle,9782228903035,,,,ES,,,,false,1,12365501,2,0,0,0,2008/1/1,,,0,0,0,0,0,0.00,,,,0,0,Gabriel Tarde,,,,,,1,0,,
12366001,3924320144,Duyarsĭzlĭklar: Şiirler,9783924320140,,,,ES,,,,false,1,12366001,1,0,0,0,1985/1/1,,,0,0,0,0,0,0.00,,,,0,0,Aras Ören,Utku Varlik,,,,,1,0,,
12366501,,pool,,,,,ES,2090/1/1,,eng,false,1,12366501,4,1,1,0,2090/1/1,,book,0,0,0,0,1,1.00,,Paperback,,1,0,lol,,,,,,3,0,,
12367001,,"The Honor of the Queen (Honor Harrington, #2)",,,,,ES,1993/6/1,Baen Books,eng,true,33,77735,29255,96013,22772,608,1993/1/1,The Honor of the Queen,book,9613,9158,3440,435,126,4.22,753,ebook,,5,1,David Weber,,,,,,2801,75,461,"action,adult,adventure,amazon,fantasy,fiction,novels,science,science-fiction,science-fiction-fantasy,speculative-fiction,war"
12367501,1884855261,Flag of Islam,9781884855269,,,,ES,1973/2/17,Secretarius Memps Publications,,false,4,12367501,38,43,10,0,1973/2/17,,,7,1,1,0,1,4.30,40,Paperback,,8,0,Elijah Muhammad,,,,,,21,0,,
12368501,,The Runaway (Titled Texans),,B005AL1PK8,,,ES,,,,true,7,3201887,142,252,59,5,2001/1/1,"Runaway Ranch (Titled Texans, #3)",book,27,21,11,0,0,4.27,,,,1,0,Cindi Myers,,,,,,35,3,2,"adult,fiction,historical,historical-fiction,romance"
12369501,0739488457,Dark of the Moon,9780739488454,,,,ES,,,eng,false,39,988950,48538,106936,26974,1193,2004/1/1,Dark of the Moon,book,8896,10740,5526,1106,706,3.96,,,large print,1,0,John Sandford,,,,,,14853,57,1420,"action,adult,contemporary,crime,detective,fiction,murder-mystery,mystery,mystery-thriller,novels,suspense,thriller"
12370001,8484436403,Aula Internacional 1: [A Spanish Course For English Speakers],9788484436409,,,,ES,,,,false,1,12370001,11,9,2,0,2009/1/1,,,1,1,0,0,0,4.50,,,,2,0,Jaime Corpas,,,,,,6,0,,
12371001,1241112401,"Primary Sources, Historical Collections: Across Russia, from the Baltic to the Danube, with a Foreword by T. S. Wentworth",9781241112400,,,,ES,2011/2/18,"Primary Sources, Historical Collections",,false,7,10298930,2,3,1,0,2009/5/13,,,0,0,1,0,0,3.00,318,Paperback,,0,0,Charles Augustus Stoddard,,,,,,,0,-1,
12371501,,The Law Of Attraction (Fortunes of Texas: Reunion #8),,B003Z6QOQK,,,ES,,,,true,8,1161418,165,216,55,6,2006/1/1,The Law Of Attraction (Fortunes of Texas: Reunion #8),,15,23,15,2,0,3.93,,,,5,0,Kristi Gold,,,,,,63,5,9,"adult,harlequin,romance"
12372001,0521118905,Opera in the Novel from Balzac to Proust,9780521118903,,,,ES,2011/5/1,Cambridge University Press,,false,4,12372001,6,0,0,0,2011/2/28,,,0,0,0,0,0,0.00,287,Hardcover,,0,0,Cormac Newark,,,,,,5,0,,
12373001,9684518420,Electro-Magnetismo,9789684518421,,,,ES,1998/2/1,McGraw-Hill Companies,,false,1,12373001,5,2,1,0,1998/2/1,,,0,0,0,1,0,2.00,,Paperback,,1,0,John Kraus,,,,,,3,0,,
12374001,0908877943,"The Immigrants: The Great Migration From Britain To New Zealand, 1830 1890",9780908877942,,,,ES,1997/1/1,Godwit Pub.,,false,2,12374001,5,12,3,1,2012/8/1,,,0,3,0,0,0,4.00,240,Hardcover,,2,0,Tony Simpson,,,,,,1,0,,"history,non-fiction"
12375001,,"Tarzan and the Castaways (Tarzan, #24)",,,,,ES,1965/7/1,Ballantine Books,eng,false,34,1775684,1530,2614,704,18,1941/1/1,Tarzan and the Castaways (Tarzan 24),book,169,232,246,46,11,3.71,191,Mass Market Paperback,,5,1,Edgar Rice Burroughs,,,,,,611,11,8,"action,adventure,amazon,classics,fantasy,fiction,historical,science-fiction,speculative-fiction"
12375501,1869792947,Bird On A Wire: The Inside Story From A Straight Talking Ceo,9781869792947,,,,ES,,,,false,3,8031064,31,49,17,0,2010/1/1,,book,1,0,12,4,0,2.88,,,,4,0,Theresa Gattung,,,,,,4,0,2,"business,non-fiction"
12376501,0553172433,"Alone, together",9780553172430,,,,ES,1986/1/1,Bantam,,false,2,1637897,94,90,25,2,1985/8/1,"Alone, Together (Couples No. 3)",book,6,7,10,0,2,3.60,184,,,0,0,Linda A. Cooney,,,,,,39,4,,young-adult
12378001,,Reading In Four Dimensions,,B005FQN3SA,,,ES,,,,true,1,12378001,36,52,14,3,2011/8/2,,book,4,5,3,1,1,3.71,,ebook,,14,3,Andrew Losowsky,Benjamin Shaykin,,,,,16,-4,1,social
12378501,,Pocahontas - Walt Disney,9788447107469,,,,ES,2000/1/1,Editorial Salvat,,false,1,12378501,3,12,3,0,2000/1/1,,book,1,1,1,0,0,4.00,44,Hardcover,,3,0,,,,,Elsa Rocha,,,0,,
12379001,,"The spirit of the West, a dream of 1915",2940024770528,,,,ES,,,,true,3,25269946,1,2,1,1,1915/1/1,,,0,0,0,1,0,2.00,,,,0,0,Courtney Rowland,,,,,,,0,,
12379501,,Hilang dan Ditemukan (The Department of Lost & Found),9789792274585,,,,ES,2011/8/1,PT Gramedia Pustaka Utama,ind,false,13,638959,5643,8404,2268,253,2007/5/1,The Department of Lost & Found,book,473,915,671,157,52,3.71,416,Paperback,,10,1,Allison Winn Scotch,,,,,,2941,30,31,"adult,adult-fiction,chick-lit,contemporary,fiction,literary-fiction,novels,relationships,romance"
12380501,9681912861,El fin de la Guerra Fría y el salvaje mundo nuevo,9789681912864,,,,ES,2006/1/1,Taurus,,false,1,12380501,17,13,3,1,2006/1/1,,,1,2,0,0,0,4.33,347,,,3,1,Juan Jose Bremer,,,,,,11,0,,
12381001,0900198044,Mendip Hills in Prehistoric and Roman Times,9780900198045,,,,ES,1970/12/1,Bristol & Avon Archaeological Society,eng,false,1,12381001,1,0,0,0,1970/12/1,,book,0,0,0,0,0,0.00,,Hardcover,,0,0,J. Campbell,,,,,,,0,,
12381501,,The Animals' Boat Ride,,B000E3VECG,,,ES,1956/1/1,,eng,false,1,12381501,5,16,4,0,1956/1/1,,book,2,1,0,1,0,4.00,,Hardcover,,4,0,,Racey Helps,,,,,1,0,,animals
12383501,8806113828,Romanzi. La guardia bianca. Romanzo teatrale. Il maestro e Margherita,9788806113827,,,,ES,1988/1/1,Einaudi,ita,false,2,12383501,62,113,27,3,1988/1/1,Romany: Belaia gvardiia ; Teatral§nyi roman ; Master i Margarita,book,11,11,4,1,0,4.19,1020,Paperback,Biblioteca dell'Orsa,20,3,Mikhail Bulgakov,,,,,,20,0,2,
12384001,,Mistress Of Deception,,B005EHQE18,,,ES,2011/7/15,Harlequin Treasury-Harlequin Presents 90s,,true,13,705324,186,281,82,18,1993/1/1,Mistress of Deception,book,16,18,35,11,2,3.43,,,,7,0,Miranda Lee,,,,,,74,3,3,"harlequin,romance"
12385001,1108026257,Our First Ambassador to China,9781108026253,,,,ES,2010/11/8,Cambridge University Press,,false,2,12385001,2,0,0,0,2010/11/8,,,0,0,0,0,0,0.00,540,Paperback,,0,0,"George Macartney,Helen Henrietta Robbins",,,,,,2,0,,
12385501,,Deja Vu You,,B003XREXBY,,,ES,,,,true,2,7532595,11,5,1,0,2007/1/1,,book,1,0,0,0,0,5.00,,,,0,0,Beverly Rae,,,,,,8,1,,
12386001,3901851119,Katholischer Katechismus Zur Kirchlichen Krise,,,,,ES,2000/1/1,Rex Regum,ger,false,3,21186986,31,54,12,1,2000/1/1,,book,8,3,0,1,0,4.50,,,,1,0,Matthias Gaudron,,,,,,12,1,3,"history,religion"
12387001,0803991371,The Social Context Of An Ideology: Ambedkar's Political And Social Thought,9780803991378,,,,ES,1993/1/1,Sage Publications (CA),,false,1,12387001,5,5,1,0,,,book,1,0,0,0,0,5.00,361,Hardcover,,1,0,M.S. Gore,,,,,,3,0,1,
12387501,8816301228,Papi e la scienza: antologia del magistero della Chiesa sulla questione scientifica da Leone XIII a Giovanni Paolo II,9788816301221,,,,ES,1985/1/1,Jaca Book,,false,1,12387501,1,0,0,0,1985/1/1,,,0,0,0,0,0,0.00,272,,,0,0,Unknown,,,,,,,0,,
12389501,,شخصية مصر,,,,,ES,2001/1/1,مكتبة الأسرة,ara,false,5,6076462,6770,4051,934,67,1967/1/1,شخصية مصر: دراسة في عبقرية المكان - 4 مجلدات,book,544,245,85,36,24,4.34,241,,,19,6,جمال حمدان,,,,,,3069,4,124,"historical,history,non-fiction,philosophy,politics"
12390001,0802461808,Names Of Heroes Of The Faith,9780802461803,,,,ES,1997/8/1,Moody Publishers,,false,2,12390001,6,3,1,0,,,,0,0,1,0,0,3.00,176,Paperback,,1,0,Mark A. Tabb,,,,,,4,0,,
12390501,1854106929,The Complete Book Of The Olympics,9781854106926,,,,ES,,,,false,12,2489861,105,204,46,5,1984/1/1,The Complete Book of the Olympics: 2008 Edition,book,23,21,1,1,0,4.43,,,,0,0,David Wallechinsky,,,,,,23,1,-5,"history,non-fiction,reference,sports"
12391001,208123193X,Tous touristes,9782081231931,,,,ES,2010/3/19,Flammarion,,false,1,12391001,0,0,0,0,2010/3/19,,,0,0,0,0,0,0.00,124,,,0,0,Marin de Viry,,,,,,,0,,
12392001,080530522X,Blackboard Student Access Kit For Elements Of Ecology,9780805305227,,,,ES,2003/1/1,,,false,1,12392001,0,0,0,0,2003/1/1,,,0,0,0,0,0,0.00,,,,0,0,"Robert Leo Smith,Thomas M. Smith",,,,,,,0,,
12392501,,Death Cruise,,B003J564SK,,,ES,,,,true,8,1588163,188,314,85,6,1996/4/1,Death Cruise (St. Martin's True Crime Library),book,16,33,30,6,0,3.69,,,,14,0,Don Davis,,,,,,70,2,3,"mystery,non-fiction,true-crime"
12394001,,Prahara Di Nainawa: Sebuah Roman Sejarah Abad VII Masehi,,,,,ES,1999/9/1,Yayasan Ulul-Albab,ind,false,1,12394001,34,46,11,2,1999/9/1,,book,6,2,2,1,0,4.18,287,Paperback,,11,2,Muhsin Labib,,,,,,21,0,2,religion
12394501,1616265736,"A Wedding Song in Lexington, Kentucky",9781616265731,,,,ES,2012/6/1,Barbour Books,eng,false,4,12394501,151,304,71,17,2012/6/1,,book,36,21,12,2,0,4.28,320,Paperback,,53,14,Jennifer Collins Johnson,,,,,,67,6,2,"christian,christian-fiction,contemporary,romance"
12395501,4844329278,Gūguru Ēpīai Ekisupāto Ga Kaisetsu Suru Eichitīemueru Faibu Gaidobukku: Shiyō Setsumei Dake Dewa Nai Uebu Hyōjun Gijutsu No Katsuyōsho,9784844329275,,,,ES,,,,false,1,12395501,1,0,0,0,2010/1/1,,,0,0,0,0,0,0.00,,,,0,0,"Futomi Hatano,古籏 一浩,太田 昌吾,白石 俊平",,,,,,1,0,,
12396001,3453009673,Der Turm der Göttin: 1. Roman D. Atlantis Zyklus:  Fantasy,9783453009677,,,,ES,,,ger,false,13,1937432,702,677,183,25,1963/1/1,The Serpent (Atlan #1b),book,52,58,47,18,8,3.70,,,,0,0,Jane Gaskell,,,,,,433,13,1,"adventure,contemporary,epic-fantasy,fantasy,fiction,love,novels,science,science-fiction,speculative-fiction"
12397001,,Way of Wisdom,,,,,ES,,,,false,3,2806841,62,95,22,4,2007/1/1,Way of Wisdom,,14,2,5,1,0,4.32,,,,0,0,James MacDonald,,,,,,31,1,2,"christian,faith"
12398001,,Síntesis de estilos arquitectonicos,,,,,ES,1963/1/1,Ediciones Ceac,spa,false,1,12398001,57,19,6,1,1962/1/1,Síntesis de estilos arquitectonicos,book,2,1,1,0,2,3.17,219,Hardcover,4th edition Monografías Ceac sobre Construcción y Arquitectura [35],6,1,Arnaldo Puig Grau,,,,,,40,0,2,
12398501,067004184X,Castles,9780670041848,,,,ES,,,,false,2,12398501,6,13,4,2,2008/9/23,,,0,1,3,0,0,3.25,,,,4,2,Allan Baillie,,,,,,2,0,,picture-books
12401501,,The New and Revised Outline of History,,,,,ES,1931/1/1,"Garden City Publishing Company, Inc.",eng,false,128,17376287,1358,1088,274,37,1919/1/1,,book,98,99,55,15,7,3.97,1255,Hardcover,De Luxe Edition,2,0,H.G. Wells,,,,,,782,18,138,"classics,historical,history,non-fiction,reference,unfinished"
12402001,,"Unveiled Mysteries (Saint Germain Series, Vol. 1)",,B0046H9HCU,,,ES,,,,true,50,752325,512,929,212,18,1935/1/1,Unveiled Mysteries,book,127,53,22,6,4,4.38,,,,0,0,Godfré Ray King,,,,,,154,9,87,"fiction,memoir,non-fiction,novels,paranormal,religion,self-help,spirituality"
12402501,1850911738,Power Tomorrow: Sizewell B the Central Electricity Generating Board's Case,9781850911739,,,,ES,,,,false,1,12402501,0,0,0,0,1986/8/28,,,0,0,0,0,0,0.00,,,,0,0,Geoffrey Greenhalgh,,,,,,,0,,
12403001,0135046300,Object Oriented Devel: The Fusion Method: The Fusion Method,9780135046302,,,,ES,,,,false,3,2138723,11,34,9,0,1994/1/1,Object-Oriented Development: The Fusion Method,book,2,4,2,1,0,3.78,,,,0,0,Derek  Coleman,,,,,,,0,,
12403501,0753188848,Ragnarok: The End of the Gods,9780753188842,,,,ES,2011/10/1,ISIS Large Print Books,,false,50,11020173,10152,14365,4115,747,2011/10/1,Ragnarök: The End of the Gods,book,720,1386,1347,518,144,3.49,123,Hardcover,Large Print,3,1,A.S. Byatt,,,,,,5060,73,181,"adult-fiction,british-literature,classics,contemporary,english-literature,fantasy,fiction,historical,historical-fiction,history,literary-fiction,literature,mythology,non-fiction,novella,novels,religion,retellings,spirituality,unfinished,war"
12404001,2252030747,"Baudelaire, Figures De La Mort, Figures De L'éternité",9782252030745,,,,ES,,,,false,1,12404001,0,0,0,0,,,,0,0,0,0,0,0.00,,,,0,0,John Edwin Jackson,,,,,,,0,,
12404501,0140293183,Lines in the Sand,9780140293180,,,,ES,2000/12/2,Penguin Group Australia,eng,false,2,3787314,42,60,20,2,2000/5/25,Lines in the Sand,book,1,6,6,6,1,3.00,348,Paperback,,2,0,Anne Deveson,,,,,,10,2,2,
12405001,0809117347,The Consciousness of Jesus,9780809117345,,,,ES,,,,false,1,12405001,1,4,1,0,1972/10/1,,,0,1,0,0,0,4.00,,,,1,0,"Edmond Bonin,Jacques Guillet",,,,,,,0,,
12407001,3821865245,In Teufels Küche -Ein Restaurantkritiker packt aus,9783821865249,,,,ES,,,ger,false,1,12407001,13,23,7,0,2011/1/1,In Teufels Küche - Ein Restaurantkritiker packt aus,book,0,3,3,1,0,3.29,288,Hardcover,,7,0,Jörg Zipprick,,,,,,4,1,,"cooking,non-fiction"
12408001,0314205586,"Organizational Behavior: Foundations, Realities and Challenges ",9780314205582,,,,ES,,,,false,10,79861,42,39,13,1,1000/1/1,"Organizational Behavior: Foundations, Realities, and Challenges",book,0,3,7,3,0,3.00,,,,0,0,Debra L. Nelson,,,,,,15,2,,"business,psychology"
12408501,037388754X,Miss Fairmont And The Gentleman Investigator (Harlequin Intrigue),9780373887545,,,,ES,2007/3/13,Harlequin Intrigue Large Print,,false,7,952854,56,85,22,2,2007/3/1,Miss Fairmont And The Gentleman Investigator (Harlequin Intrigue Series),book,9,3,8,2,0,3.86,320,Paperback,,2,0,Pat White,,,,,,23,7,2,"harlequin,romance"
12409001,,Miami and the Siege of Chicago,,,,,ES,1968/1/1,World Publishing Company (NYC),eng,false,25,131788,1716,2873,759,76,1968/1/1,Miami and the Siege of Chicago: An Informal History of the Republican and Democratic Conventions of 1968,book,166,321,224,39,9,3.79,224,Hardcover,1st,1,1,Norman Mailer,,,,,,756,11,48,"american,american-history,americana,essays,fiction,history,literature,memoir,non-fiction,politics,school,war"
12409501,1863966080,"Cafe Classics ( "" Australian Women's Weekly "" )",9781863966085,,,,ES,2006/10/1,Australian Women's Weekly,,false,1,12409501,0,0,0,0,2006/10/1,,,0,0,0,0,0,0.00,119,Paperback,,0,0,Susan Tomnay,,,,,,,0,,
12410501,,"What Really Happened at Paris: The Story of the Peace Conference, 1918-1919",,B003WQAWY8,,,ES,,,,true,22,233989,12,6,2,0,1921/1/1," What Really Happened in Paris: the story of the Peace Conference, 1918-1919",book,0,0,2,0,0,3.00,,,,1,0,Edward Mandell House,,,,,,8,1,,
12411001,0874868548,Anni: Letters and Writings of Annemarie Wächter  - A Bruderhof Member's Story,9780874868548,,,,ES,2013/9/15,Plough Publishing House,,false,3,12411001,10,14,3,2,2013/9/15,,book,2,1,0,0,0,4.67,231,Hardcover,,3,2,,,,"Annemarie Waechter Arnold,Erna Albertz,Marianne Wright",,,6,0,,
12413001,8854500860,Forget Kathmandu ,9788854500860,,,,ES,2006/1/1,Neri Pozza,ita,false,5,987418,699,1240,338,32,2005/1/1,Forget Kathmandu: An Elegy for Democracy,book,57,152,97,24,8,3.67,312,Paperback,I Colibrì,8,0,Manjushree Thapa,,,,Gioia Guerzoni,,261,14,23,"fiction,history,memoir,non-fiction,politics,reference,school,travel,war"
12413501,1451668139,The Collected Works of W.B. Yeats Volume VIII: The Iri,9781451668131,,,,ES,2011/9/24,Scribner,,false,5,53026,32,8,2,0,2003/5/27,,book,0,2,0,0,0,4.00,352,Paperback,,0,0,W.B. Yeats,,,"Mary Fitzgerald,Richard J. Finneran",,,24,0,,"essays,poetry"
12414001,0877071969,Esoteric Mind Power,9780877071969,,,,ES,,,eng,false,6,345931,211,265,59,7,,The Mystic Path to Cosmic Power,book,38,14,6,0,1,4.49,,Paperback,,0,0,Vernon Howard,,,,,,134,1,11,"personal-development,psychology"
12414501,4046311266,アイスプリンセス 3,9784046311269,,,,ES,,Asukīmediawākusu,jpn,false,1,12414501,7,5,1,0,2011/1/1,,book,1,0,0,0,0,5.00,,,,1,0,"Linda Chapman,タアモ",,,,,,5,0,1,
12415001,,Sarı Yazma,9786053601883,,,,ES,2011/1/1,Çınar Yayınları / Türkiye İş Bankası Kültür Yayınları,tur,false,3,12415001,170,272,62,9,2000/11/1,,book,33,21,7,1,0,4.39,529,Paperback,,59,9,Rıfat Ilgaz,,,,,,52,1,3,
12415501,,Unknown Book 12415501,,,,,ES,,,,false,1,12415501,1,0,0,0,,,,0,0,0,0,0,0.00,,,,0,0,Unknown,,,,,,,0,,
12416001,,A Stroke Of Luck,,B005FFO2DG,,,ES,2011/7/31,,,true,1,12416001,29,15,5,3,2011/7/31,,book,2,0,0,2,1,3.00,,,,5,3,Stuart   Walker,,,,,,21,0,,fiction
12416501,,Unknown Book 12416501,,,,,ES,,,,false,1,12416501,1,0,0,0,,,,0,0,0,0,0,0.00,,,,0,0,Unknown,,,,,,1,0,,
12417001,0899571611,Twenty-Third Psalm for Those Who Grieve,9780899571614,,,,ES,2005/4/1,Living Ink Books,,false,1,12417001,2,5,1,0,2005/4/1,,,1,0,0,0,0,5.00,108,Hardcover,,1,0,Carmen Leal,,,,,,,0,,
12417501,1599506521,"Rage of the Mountain Man (Mountain Man, #13)",9781599506524,,,,ES,2010/4/1,Graphic Audio,eng,false,8,2013418,363,666,159,6,1994/1/1,Rage of the Mountain Man,book,73,50,31,3,2,4.19,,Audio CD,,0,0,William W. Johnstone,,,,,,140,3,5,"fiction,historical-fiction,novels"
12418001,0976994798,Electric Angel,9780976994794,,,,ES,2011/7/1,Black Bed Sheets Books,,false,5,21482268,32,35,10,6,2011/7/1,,book,5,1,1,0,3,3.50,204,Paperback,,10,6,Sue Dent,,,,,,7,8,,
12418501,,Mystery on the Queen Mary,,,,,ES,1937/1/1,Hutchinson,eng,false,2,10410987,11,0,0,0,1937/1/1,,,0,0,0,0,0,0.00,,Hardcover,,0,0,Bruce Graeme,,,,,,10,0,,mystery
12419001,0889752427,Canadian Health Policy Failures: What's Wrong? Who Gets Hurt? Why Nothing Changes,9780889752429,,,,ES,2009/1/1,Fraser Institute,,false,1,12419001,0,0,0,0,2009/9/21,,,0,0,0,0,0,0.00,266,Paperback,,0,0,Brett J. Skinner,,,,,,,0,,
12420001,1616888342,"Executive Power (Mitch Rapp, #6)",9781616888343,,,,ES,,,eng,false,48,777211,45880,155152,35845,804,2003/5/6,Executive Power,book,17581,13187,4456,510,111,4.33,,,,3,0,Vince Flynn,,,,,,5468,22,1561,"action,adult,adult-fiction,adventure,crime,fiction,mystery,mystery-thriller,novels,politics,suspense,thriller,war"
12420501,,A wild-cat scheme,2940021994507,,,,ES,,,,true,3,26950661,0,0,0,0,2015/9/27,,,0,0,0,0,0,0.00,,,,0,0,E.M. Keate,,,,,,,0,,
12421501,0590048503,What's Up There,9780590048507,,,,ES,1976/6/1,Scholastic Paperbacks,,false,1,12421501,9,9,2,0,1976/6/1,,,1,1,0,0,0,4.50,,Paperback,,2,0,Dinah L. Moché,,,,,,4,0,,
12422501,4385136408,Kanji jiten =: Sanseido's gem dictionary,9784385136400,,,,ES,1993/4/1,Sanseido,,false,1,12422501,1,0,0,0,1993/4/1,,,0,0,0,0,0,0.00,38,Unknown Binding,,0,0,Unknown,,,,,,,0,,
12423001,0049200321,Forty Years in Kuwait,9780049200326,,,,ES,1971/1/1,,,false,2,12423001,32,28,6,1,1971/1/1,Forty Years in Kuwait,book,5,0,1,0,0,4.67,,,,6,1,Violet Dickson,,,,,,22,0,,
12424501,,Um Alfabeto para Gourmets,9788571645677,,,,ES,1996/8/15,Companhia das Letras,por,false,6,764387,780,1490,356,24,1949/1/1,An Alphabet for Gourmets,book,158,120,65,12,1,4.19,264,Brochura,,0,0,M.F.K. Fisher,,,,,,353,11,8,"anthologies,biography,classics,cookbooks,cooking,essays,food,history,memoir,non-fiction,travel,writing"
12425501,1101559446,Haunted Warrior (Highlander #6),9781101559444,,,,ES,2012/1/3,Signet Book,,true,6,11018874,873,1156,303,51,2012/1/3,,book,106,72,92,29,4,3.82,352,ebook,,2,0,Allie Mackay,,,,,,116,20,19,"adult-fiction,erotica,fantasy,ghosts,historical,magic,paranormal,romance,suspense,time-travel"
12426001,1440312796,My Life & Times: A Guided Journal for Collecting Your Stories,9781440312793,,,,ES,,,,false,1,12426001,17,18,4,0,2011/11/3,,,3,0,1,0,0,4.50,,,,4,0,Sunny Morton,,,,,,9,1,,writing
12426501,0205134831,Applied Statistics,9780205134830,,,,ES,2000/11/1,Allyn & Bacon,,false,1,12426501,9,7,2,0,1993/1/28,,,0,1,1,0,0,3.50,,Paperback,,2,0,"John Neter,William Wasserman",,,,,,7,0,,
12427001,,Anleitung zur chemisch-technischen Analyse organischer Stoffe,2940034123178,,,,ES,,,,true,2,12427001,0,0,0,0,,,,0,0,0,0,0,0.00,,,,0,0,F.M. Horn,,,,,,,0,,
12427501,0495488399,Foundations of Astronomy [with CengageNOW Virtual Astronomy Labs Access Code],9780495488392,,,,ES,,,,false,42,204738,194,305,77,9,1984/1/1,"Foundations of Astronomy (with Printed Access Card Ace Astronomy , Virtual Astronomy Labs)",book,29,24,18,4,2,3.96,,,,0,0,Michael A. Seeds,,,,,,64,2,8,"american-history,college,education,nature,non-fiction,reference,science,technology,textbooks"
12429501,4863322720,バットマン：ダークビクトリー Ｖｏｌ．1 (BATMAN:DARK VICTORY Pt. 1),9784863322721,,,,ES,,"ヴィレッジブックス (Village Books, DC Comics)",jpn,false,7,11236555,70,125,31,6,1999/1/1,Batman Dark Victory #0-7,periodical,13,9,7,1,1,4.03,,,,0,0,"Jeph Loeb,Tim Sale",,,,,,26,2,,"comics,fiction,graphic-novels"
12431001,,The Prospective Wife,,B004IATBTE,,,ES,,,,true,13,7085448,111,165,50,4,2001/1/1,The Prospective Wife ,book,12,5,22,8,3,3.30,,,,1,0,Kim Lawrence,,,,,,39,5,1,"fiction,harlequin,mystery,romance"
12431501,8441409404,Brujas Y Magos,9788441409408,,,,ES,2001/9/9,,,false,1,12431501,0,0,0,0,2001/9/9,,,0,0,0,0,0,0.00,,Paperback,,0,0,Carmen Diaz Fernandez,,,,,,,0,,
12432001,3492257909,Funke der Freiheit,9783492257909,,,,ES,2010/1/1,München Zürich Piper,ger,false,3,5620626,12,27,7,2,2002/1/1,Funke der Freiheit. Sand oder Der Freiheit eine Gasse.,book,2,2,3,0,0,3.86,319,,,1,1,Tilman Röhrig,,,,,,3,2,,historical-fiction
12432501,,Römische Mythologie,,B004YKWBMM,,,ES,,,,true,1,12432501,9,0,0,0,2011/4/28,,,0,0,0,0,0,0.00,,Kindle Edition,,0,0,L. Preller,,,,,,7,2,,non-fiction
12433501,,"Predigt, gehalten am 19. April 1865, als am Tage des Leichenbeg",2940039480672,,,,ES,,,,true,1,12433501,0,0,0,0,,,,0,0,0,0,0,0.00,,,,0,0,H. Hochheimer,,,,,,,0,,
12434501,0594095786,Devices and Desires (Engineer Trilogy Series #1),9780594095781,,,,ES,,,,false,13,202544,8843,13231,3580,325,2005/4/7,Devices and Desires,book,857,1347,937,308,131,3.70,,,,0,0,K.J. Parker,,,,,,4341,34,194,"adult,crime,epic,epic-fantasy,fantasy,fiction,high-fantasy,mystery,novels,politics,science,science-fiction,science-fiction-fantasy,speculative-fiction,steampunk,unfinished,war"
12435001,,The Prisoner of Zenda and Rupert of Hentzau by Anthony Hope,2940013605879,,,,ES,,,,true,20,54494,921,1778,447,41,1894/1/1,The Prisoner of Zenda and Rupert of Hentzau,book,160,159,100,14,14,3.98,,,,0,0,Anthony Hope,,,,,,352,10,21,"adventure,classic-literature,classics,fantasy,fiction,historical,historical-fiction,literature,romance,suspense"
12435501,1932888748,"Hello, Paws!",9781932888744,,,,ES,2008/7/1,Mascot Books,,false,2,12435501,2,5,1,0,2007/1/28,,,1,0,0,0,0,5.00,,Hardcover,,1,0,Aimee Aryal,,,,,,,0,,
12436001,0878490655,The Best of Bulk Solids Handling: Bulk Handling in Open Pit Mines and Quarries,9780878490653,,,,ES,,,,false,1,12436001,0,0,0,0,1986/10/28,,,0,0,0,0,0,0.00,,,,0,0,Reinhard H. Whohlbier,,,,,,,0,,
12436501,0968838928,Alaska by Cruise Ship: The Complete Guide to Cruising Alaska [With Folded Map],9780968838921,,,,ES,,,,false,10,137147,176,407,105,9,1996/12/1,Alaska by Cruise Ship: The Complete Guide to Cruising Alaska,book,28,45,25,5,2,3.88,,,,7,0,Anne Vipond,,,,,,21,3,19,"non-fiction,reference,travel"
12437001,,Grim Fairy Tale,2940011380747,,,,ES,,,,true,2,12437001,1,0,0,0,2011/7/6,,,0,0,0,0,0,0.00,,,,0,0,Stephen Goldin,,,,,,,0,,
12437501,1231908696,"Cavalleria: Cavalleria Italiana, Cavalleria Medievale, Unita Di Cavalleria, Scuola Truppe Corazzate, Reggimento ""Lancieri Di Aosta""",9781231908693,,,,ES,2011/7/29,"Books LLC, Wiki Series",,false,1,12437501,0,0,0,0,2011/7/28,,,0,0,0,0,0,0.00,,Paperback,,0,0,Source Wikipedia,,,,,,,0,,
12438001,354069269X,Database Theory Icdt 2007,9783540692690,,,,ES,2006/12/21,Springer,,false,1,12438001,1,0,0,0,2006/12/21,,,0,0,0,0,0,0.00,419,Paperback,,0,0,Dan Suciu,,,Thomas Schwentick,,,1,0,,
12438501,8496020177,Los Fantasmas,9788496020177,,,,ES,,,,false,1,12438501,6,7,3,0,2003/1/1,,,0,0,1,2,0,2.33,,,,3,0,FRITZ LEINGBER,,,,,,3,0,,
12439001,,Winter Song,,B0055EC2HK,,,ES,2011/6/9,Angry Robot,en-GB,true,10,6719242,196,301,97,18,2010/1/1,,book,7,25,40,21,4,3.10,,,,5,0,Colin Harvey,,,,,,54,7,1,"action,adventure,amazon,fiction,novels,science-fiction,science-fiction-fantasy,survival"
12439501,0878933344,Mechanics of Motor Proteins & the Cytoskeleton,9780878933341,,,,ES,2001/2/1,Sinauer Associates,,false,2,651492,75,43,11,1,2001/1/28,Mechanics of Motor Proteins and the Cytoskeleton,,4,4,2,0,1,3.91,367,Hardcover,,1,0,Jonathon Howard,,,,,,54,0,,
12440001,094117526X,Coaching Team Defense,9780941175265,,,,ES,,,,false,3,3075798,48,87,20,1,1989/1/1,Coaching Team Defense,,12,5,2,0,1,4.35,,,,0,0,Fritz Shurmur,,,,,,19,0,1,"non-fiction,sports"
12440501,1133108512,"Study Guide with Student Solutions Manual and Problems Book for Garrett/Grisham's Biochemistry, 5th",9781133108511,,,,ES,2012/2/28,Cengage Learning,,false,2,12440501,41,69,15,0,2012/2/28,,,11,3,0,1,0,4.60,640,Paperback,,14,0,"Charles M. Grisham,Reginald H. Garrett",,,,,,22,0,3,
12442001,,Colonel Fortescue's daughter,2940024346853,,,,ES,,,,true,3,12442002,0,0,0,0,2010/2/11,,,0,0,0,0,0,0.00,,,,0,0,Harriet Frances Thynne,,,,,,,0,,
12442501,,"A bulwark against Germany; the fight of the Slovenes, the western branch of the Jugoslavs, for national existence",2940017978078,,,,ES,,,,true,15,12442501,3,10,2,0,2010/7/28,,,2,0,0,0,0,5.00,,,,1,0,Bogumil Vosnjak,,,,,,1,0,,
12443501,,Misti Welcomes a New Neighbor,2940012612489,,,,ES,,,,true,3,11483419,17,22,5,0,2011/5/24,,book,4,0,0,1,0,4.40,,,,0,0,Nikki Palmer,,,,,,11,0,,erotica
12444001,6130325169,Uriel,9786130325169,,,,ES,2013/10/16,Betascript Publishing,,false,1,12444001,0,0,0,0,,,,0,0,0,0,0,0.00,104,Paperback,,0,0,,,,Surhone Lambert M,,,,0,,
12444501,,Der Besuch im Carcer: Humoreske,2940039050592,,,,ES,,,,true,4,12444502,3,5,2,0,2012/7/1,,,0,0,1,1,0,2.50,,,,0,0,Ernst Eckstein,,,,,,1,0,,fiction
12445001,1463632096,"Enchantment (Channie, #1)",9781463632090,,,,ES,2011/8/17,CreateSpace,eng,false,7,11878534,8729,12386,3380,351,2011/6/17,Enchantment,book,1031,994,791,318,246,3.66,364,Paperback,,5,2,Charlotte Abel,,,,,,4440,46,237,"amazon,fantasy,fiction,love,magic,new-adult,paranormal,romance,supernatural,urban-fantasy,witches,young-adult"
12445501,1461091047,A New Dream,9781461091042,,,,ES,2011/3/1,Createspace,,false,6,10983755,135,153,45,9,2011/3/1,,book,11,11,10,11,2,3.40,318,Paperback,,0,0,Elaine Cantrell,,,,,,73,3,,"contemporary,fiction,romance,sports"
12446001,0307796922,Red Hot Mamas: Coming into Our Own at Fifty,9780307796929,,,,ES,2011/6/22,Bantam,,true,5,3803274,20,22,8,2,1996/1/1,Red Hot Mamas: Coming into Our Own at Fifty,,1,1,3,1,2,2.75,304,ebook,,0,0,Colette Dowling,,,,,,6,0,,
12447001,1891234021,Gartner Group Glossary of Information Technology Acronyms and Terms,9781891234026,,,,ES,,,,false,1,12447001,0,0,0,0,1999/5/28,,,0,0,0,0,0,0.00,,,,0,0,"George Hoza,Gisela Moriarty,Lou Latham,Robin N. Whiting",,,,,,,0,,
12448001,,CPI-M Rule in West Bengal: the Reign of Terror,2940011371233,,,,ES,,,eng,true,2,12448001,1,3,1,1,2011/6/22,,book,0,0,1,0,0,3.00,,,,1,1,Samir Sengupta,,,,,,,0,,
12448501,,Kismet,2940013618282,,,,ES,,,,true,1,12448501,0,0,0,0,2011/7/21,,,0,0,0,0,0,0.00,,,,0,0,Casey Hutson,,,,,,,0,,
12449501,1461145821,"Ghosts among Us: Stories of Hauntings, Possessions and More",9781461145820,,,,ES,,,,false,2,11817486,5,0,0,0,2011/4/11,,,0,0,0,0,0,0.00,,,,0,0,Gregory Branson-Trent,,,,,,5,0,,
12451501,,Nouvelles petites ,2940027795580,,,,ES,,,,true,1,12451501,0,0,0,0,,,,0,0,0,0,0,0.00,,,,0,0,Robert Gustave,,,,,,,0,,
12452501,1609284623,Ain't No Sunshine,9781609284626,,,,ES,2011/5/31,Samhain Publishing,,true,2,11018056,26,34,10,4,2011/3/11,,book,3,2,2,2,1,3.40,89,ebook,,1,0,Selah March,,,,,,14,5,,"contemporary,fantasy,harlequin,romance"
12454501,9048185114,Ecology and Biogeography of High Altitude Insects,9789048185115,,,,ES,2010/12/25,Springer,,false,3,10621547,1,0,0,0,1968/6/30,,,0,0,0,0,0,0.00,527,Paperback,,0,0,M.S. Mani,,,,,,1,0,,
12455001,,"Myth, ritual and religion",2940020316270,,,,ES,,,,true,28,10371490,18,5,3,0,1887/1/1,"Myth, Ritual, and Religion",book,0,0,0,2,1,1.67,,,,0,0,Andrew Lang,,,,,,12,0,,"mythology,non-fiction,reference,religion"
12455501,,Denkw,2940039367553,,,,ES,,,,true,1,12455501,0,0,0,0,,,,0,0,0,0,0,0.00,,,,0,0,Christian Wilhelm Von Dohm,,,,,,,0,,
12456001,,Will His Love Be Like His Rum?,2940011341953,,,,ES,,,,true,3,12456001,7,8,4,1,2011/5/3,,,0,0,1,2,1,2.00,,,,4,1,Richard Daybell,,,,,,3,0,,"romance,short-stories"
12456501,0898220408,Current Events,9780898220407,,,,ES,,,,false,1,12456501,0,0,0,0,1984/1/1,,,0,0,0,0,0,0.00,,,,0,0,M.M. Lum,,,,,,,0,,
12457001,0892553936,Jessie De La Cruz: A Profile of a United Farm Worker,9780892553938,,,,ES,2002/10/17,Persea,,true,8,456704,87,96,25,3,2001/1/1,Jessie de la Cruz: A Profile of a United Farm Worker,,9,5,9,2,0,3.84,,ebook,,0,0,Gary Soto,,,,,,45,2,2,"biography,biography-memoir,history,non-fiction"
12457501,9460915132,Paulo Freire: Rousseau of the Twentieth Century,9789460915130,,,,ES,2011/1/1,Brill - Sense,,false,1,12457501,2,2,1,0,2011/4/22,,,0,0,0,1,0,2.00,324,Paperback,,1,0,Asoke Bhattacharya,,,,,,2,0,,
12458001,0857153013,Beguiling Briley,9780857153012,,,,ES,2010/10/4,Total-E-Bound Publishing,,true,2,10119842,45,90,21,1,2010/10/4,,book,12,3,6,0,0,4.29,91,ebook,,1,0,Allie Standifer,,,,,,21,1,1,"bdsm,erotica"
12459001,,Dirt Cheap Krakow - Honest Budget Travel Guide,2940011305825,,,,ES,,,,true,2,12459001,0,0,0,0,2011/5/19,,,0,0,0,0,0,0.00,,,,0,0,Peter Panda,,,,,,,0,,
12460001,0516446045,The Story of the Capitol,9780516446042,,,,ES,,,,false,4,2724312,56,46,14,3,1969/4/1,The Story of the Capitol,book,1,4,8,0,1,3.29,,,,0,0,"Darrell Wiskur,Marilyn Prolman",,,,,,20,1,,"american-history,childrens,history,non-fiction,reference"
12460501,0373014082,The Silver Fishes,,,,,ES,1970/6/1,Harlequin Romance,,false,2,12460501,16,29,8,2,,,book,2,2,3,1,0,3.62,191,,Harlequin Romance #1408,8,2,Lucy Gillen,,,,,,7,0,,
12461001,0393342093,A Servant's Tale,9780393342093,,,,ES,2011/6/6,W. W. Norton  Company,,true,11,91870,324,403,109,25,1984/1/1,A Servant's Tale,book,24,38,37,10,0,3.70,336,ebook,,0,0,"Melanie Rehak,Paula Fox",,,,,,177,6,6,"american,americana,fiction,historical-fiction,literary-fiction,literature,novels"
12462501,4416395183,Origami Yūenchi,9784416395189,,,,ES,,,,false,1,12462501,3,3,1,0,,,,0,0,1,0,0,3.00,,,,1,0,Yoshihide Momotani,,,,,,1,0,,
12463501,,Bericht ,2940034150112,,,,ES,,,,true,1,12463501,0,0,0,0,,,,0,0,0,0,0,0.00,,,,0,0,Paul Albrecht Boerner,,,,,,,0,,
12464501,1849207844,Political Marketing,9781849207843,,,,ES,2011/3/14,Sage Publications Ltd,,false,1,12464501,4,0,0,0,2011/3/14,,,0,0,0,0,0,0.00,1240,Hardcover,,0,0,,,,Paul Baines,,,3,0,,
12465001,8702044323,Livsens Ondskab,9788702044324,,,,ES,2006/1/5,Gyldendal,dan,false,10,12465001,181,386,98,7,1899/1/1,Livsens Ondskab,book,28,42,23,4,1,3.94,256,,,87,5,Gustav Wied,,,,,,48,5,3,"classics,fiction"
12465501,,A possible glow experiment for the EOM 1-2 mission,2940030489285,,,,ES,,,,true,1,12465501,0,0,0,0,,,,0,0,0,0,0,0.00,,,,0,0,M. R Torr,,,,,,,0,,
12466501,,"Arbitration Act, 1892, with the Rules of 24th March, 1893, Forms and Notes ...",2940017684047,,,,ES,,,,true,1,12466501,0,0,0,0,,,,0,0,0,0,0,0.00,,,,0,0,James Moriarty,,,,,,,0,,
12467501,,"Bibliotheca Iberica: being a choice collection of scarce and valuable books and manuscripts on Spain and Portugal, their literature, history, art, colonial dominions, or otherwise of Spanish and Portuguese interest containing partly the libraries of D. A",2940025310808,,,,ES,,,,true,1,12467501,0,0,0,0,,,,0,0,0,0,0,0.00,,,,0,0,Karl W. Hiersemann (Firm),,,,,,,0,,
12468001,0285638599,Held by the Sea,9780285638594,,,,ES,2011/5/1,Souvenir Press,,false,5,12468001,8,23,6,0,2011/1/1,,book,2,2,1,1,0,3.83,192,Hardcover,,6,0,Jane Darke,,,,,,1,0,,non-fiction
12468501,160198460X,Distributed Optimization and Statistical Learning Via the Alternating Direction Method of Multipliers,9781601984609,,,,ES,2011/5/23,Now Publishers,,false,2,12468501,8,18,4,0,2011/6/1,,,2,2,0,0,0,4.50,140,Paperback,,4,0,"Borja Peleato,Eric Chu,Jonathan Eckstein,Neal Parikh,Stephen Boyd",,,,,,4,0,,
12469501,0007283059,My Father's Watch: The Story of a Child Prisoner in 70s Britain,9780007283057,,,,ES,,,,true,5,2920223,113,201,50,4,2008/1/1,My Father's Watch,book,21,14,10,5,0,4.02,,,,0,0,"Carlo Gébler,Patrick Maguire",,,,,,53,0,2,"memoir,non-fiction"
12470001,0387965106,Temperament and Eating Characteristics,9780387965109,,,,ES,1987/7/1,,,false,1,12470001,1,0,0,0,1987/7/28,,,0,0,0,0,0,0.00,145,Hardcover,,0,0,Albert Mehrabian,,,,,,1,0,,
12471501,1932129952,"Champlain Valley Memories: Volume III- the 1970s, '80s and '90s",9781932129953,,,,ES,,,,false,1,12471501,0,0,0,0,2004/1/28,,,0,0,0,0,0,0.00,,,,0,0,Burlington Free Press,,,,,,,0,,
12472001,9789173432,I takt med tiden: Olof Palme 1927-1969,,,,,ES,2008/1/1,Leopard förlag,swe,false,2,12472001,37,57,14,0,2008/1/1,,book,5,6,2,1,0,4.07,427,Paperback,,13,0,Kjell Östberg,,,,,,14,0,2,"biography,history,politics"
12473001,,The Cape Catalogue of Stars,2940027399085,,,,ES,,,,true,1,12473001,0,0,0,0,,,,0,0,0,0,0,0.00,,,,0,0,E.J. Stone,,,,,,,0,,
12473501,5425086172,Operaciya Autodafe (Russian Edition),9785425086174,,,,ES,,,,true,1,12473501,0,0,0,0,2000/1/1,,,0,0,0,0,0,0.00,,,,0,0,Ilya Derevyanko,,,,,,,0,,
12474001,1448660998,Health Workbook: Daily Record for Recovery,9781448660995,,,,ES,2009/7/26,Createspace,,false,1,12474001,1,0,0,0,2009/7/26,,,0,0,0,0,0,0.00,142,Paperback,,0,0,A. van Tol,,,,,,1,0,,reference
12474501,142689239X,Chaos Tryst,9781426892394,,,,ES,2011/10/1,Carina Press,,true,4,12474467,110,119,34,18,2011/10/3,,book,9,6,14,3,2,3.50,,ebook,,2,2,Shirin Dubbin,,,,,,58,9,2,"contemporary,fantasy,fiction,paranormal,retellings,romance,shapeshifters,young-adult"
12475001,1429993731,The Prometheus Deception/The Sigma Protocol,9781429993739,,,,ES,2006/9/5,St. Martin's Griffin,,true,5,1098112,695,1475,366,5,2002/1/1,,book,116,162,73,13,2,4.03,1072,ebook,,2,0,Robert Ludlum,,,,,,187,2,10,"action,fiction,thriller"
12475501,1936274353,Alphabet of Masks,9781936274352,,,,ES,2011/9/20,Enigma Books,,false,2,12475501,6,0,0,0,2011/9/20,,,0,0,0,0,0,0.00,200,Hardcover,,0,0,"Antonina W. Bouis,Bela Shayevich,Dmitri Birman",,,,,,5,0,,poetry
12476001,0310441463,"NIV, Bloom Collection Bible, Compact, Leathersoft, Pink, Red Letter Edition",9780310441465,,,,ES,2011/8/27,Zondervan,,false,1467,280111,82609,256218,55719,2086,1973/1/1,,book,45127,4433,2620,1452,2087,4.60,1140,Leather Bound,,0,0,Anonymous,,,,,,14052,72,8592,"adult,adventure,biography,christian,christianity,classic-literature,classics,faith,fantasy,fiction,historical,historical-fiction,history,inspirational,literature,mythology,non-fiction,philosophy,poetry,reference,religion,romance,self-help,spirituality,theology,unfinished,young-adult"
12476501,,"Bonsai Trees: Growing, Trimming, Pruning, and Sculpting",2940012792594,,,,ES,,,,true,2,12476501,1,3,1,0,2010/12/30,,,0,0,1,0,0,3.00,,,,1,0,Anonymous,,,,,,,0,,nature
12477001,1742851606,Forgiveness and Other Acts of Love,9781742851600,,,,ES,2011/10/30,Bolinda Publishing,,false,20,1236211,383,639,161,16,1997/6/1,Forgiveness and Other Acts of Love,book,54,59,39,7,2,3.97,,Audio CD,,0,0,Stephanie Dowrick,,,,,,159,9,17,"adult,inspirational,non-fiction,personal-development,philosophy,psychology,relationships,self-help,social-issues,spirituality"
12478501,,Good Doggy,2940011441998,,,,ES,,,,true,3,16042804,6,15,4,1,2011/5/20,,book,1,2,0,1,0,3.75,,,,2,1,Gemma Parkes,,,,,,1,0,,
12480001,0749905328,Moscow Nights,9780749905323,,,,ES,,,,false,4,31670517,164,93,22,5,,Moscow Nights,book,9,9,4,0,0,4.23,,,,0,0,Ellen Crosby,,,,,,129,4,1,fiction
12481001,0761953833,"Engendering AIDS: Deconstructing Sex, Text and Epidemic",9780761953838,,,,ES,1997/5/1,Sage Publications UK,,false,3,3969927,4,13,3,0,1997/2/18,"EnGendering AIDS: Deconstructing Sex, Text and Epidemic",,1,2,0,0,0,4.33,176,Paperback,,0,0,"Tamsin Wilton,Wilton",,,,,,1,0,,feminism
12481501,1847197744,Bpel PM and Osb Operational Management with Oracle Enterprise Manager 10g Grid Control,9781847197740,,,,ES,2010/8/20,Packt Publishing,,false,3,12481501,3,0,0,0,2010/8/23,,,0,0,0,0,0,0.00,248,Paperback,,0,0,Narayan Bharadwaj,,,,,,1,0,,
12482001,0752836978,Jonah Man: [the mystery of the whaleship Essex],9780752836973,,,,ES,2000/1/1,Orion,,false,1,12482001,3,0,0,0,2000/1/1,,,0,0,0,0,0,0.00,254,,,0,0,Henry Carlisle,,,,,,2,1,,
12482501,,Lezioni sulle malattie nervose: per servire di prolegomeni ad un trattato completo intorno alle ...,2940038243919,,,,ES,,,,true,1,12482501,0,0,0,0,,,,0,0,0,0,0,0.00,,,,0,0,Francesco Puccinotti,,,,,,,0,,
12484001,,The Secret of the Sacred Scarab: The Chronicles of the Stone - Book One,2940011400773,,,,ES,,,,true,10,34661803,489,342,75,51,2008/12/1,The Secret of the Sacred Scarab,book,53,13,7,2,0,4.56,,,,0,0,Fiona Ingram,,,,,,384,11,9,"adventure,childrens,fiction,historical,historical-fiction,middle-grade,mystery,suspense,teen,travel"
12484501,,"Re-entry and recovery of near-earth satellites, with particular attention to a manned vehicle",2940020378490,,,,ES,,,,true,1,12484501,0,0,0,0,,,,0,0,0,0,0,0.00,,,,0,0,A.J. Eggers,,,,,,,0,,
12485001,,The Escape,,B005IQZ03I,,,ES,2012/2/15,eXtasy Books,en-US,true,2,12485001,0,0,0,0,2011/8/15,,book,0,0,0,0,0,0.00,,,,0,0,P.M.J. Downing,,,,,,,0,,
12486001,8497160673,La Primera Águila,9788497160674,,,,ES,2001/1/1,J.J. de Olañeta,spa,false,39,48090,7940,21568,5324,228,1998/7/29,The First Eagle,book,1683,2365,1158,101,17,4.05,292,Paperback,#23 de Torre de Viento,0,0,Tony Hillerman,,,,,,1161,12,177,"adult-fiction,american,crime,cultural,detective,fiction,historical-fiction,murder-mystery,mystery,mystery-thriller,thriller"
12488001,0307631133,"I Want to Go to School, Too",9780307631138,,,,ES,,,eng,false,1,12488001,6,16,4,0,1990/1/1,,book,1,2,1,0,0,4.00,,,,4,0,"Children's Television Workshop,Joe Ewers,Liza Alexander",,,,,,1,2,,fiction
12488501,1892692198,Fundamentals of the Rambam,9781892692191,,,,ES,,,,false,1,12488501,2,0,0,0,2006/3/30,,,0,0,0,0,0,0.00,,,,0,0,Shmuel Flam,,,,,,2,0,,
12490501,009173455X,Arcadia One Mile,9780091734558,,,,ES,1999/1/4,Random House Adult Trade Publishing Group,,false,1,12490501,3,0,0,0,1999/1/4,,,0,0,0,0,0,0.00,70,Paperback,,0,0,Dannie Abse,,,,,,2,0,,poetry
12491001,999218096X,"Art in America: 2002 Guide to Galleries, Museums, Artists : Museum Preview 2002-2003",9789992180969,,,,ES,,,,false,1,12491001,2,0,0,0,1902/12/1,,,0,0,0,0,0,0.00,,,,0,0,Elizabeth C. Baker,,,,,,1,0,,
12491501,1231384441,"LIV: Beteende, Doden, Fortplantning, Halsa, Organismer, Aldrande, Aldrar, Eukaryoter, Pestdod, Tonaring, Individ, Spricklavar, Dodbok",9781231384442,,,,ES,2011/8/3,"Books LLC, Wiki Series",,false,1,12491501,0,0,0,0,2011/8/28,,,0,0,0,0,0,0.00,,Paperback,,0,0,Source Wikipedia,,,,,,,0,,
12492001,,"Clinical lectures on the contagious typhus, epidemic in Glasgow, and the vicinity",2940024375266,,,,ES,,,,true,1,12492001,0,0,0,0,,,,0,0,0,0,0,0.00,,,,0,0,Richard Millar,,,,,,,0,,
12493001,1452887586,Wide Open: Hottest Lesbian Erotica,9781452887586,,,,ES,,,,false,1,12493001,4,0,0,0,,,,0,0,0,0,0,0.00,,,,0,0,Katrina Arango,,,,,,4,0,,
12493501,,"Chaco paraguayo: Memoria presentada al arbitro por Benjamin Aceval, e. E. Y ...",2940031535509,,,,ES,,,,true,1,12493501,0,0,0,0,,,,0,0,0,0,0,0.00,,,,0,0,Benjamín Aceval,,,,,,,0,,
12494001,0060253959,Seeds & More Seeds,9780060253950,,,,ES,1959/12/1,HarperCollins Publishers,,false,3,1409256,129,173,41,10,1959/1/1,Seeds and More Seeds (A Science I CAN READ Book),book,18,16,5,2,0,4.22,,Hardcover,,3,0,Millicent E. Selsam,,,,,,55,23,1,"childrens,non-fiction,picture-books,science"
12494501,1895918383,"Drugs, Deals, Delivered",9781895918380,,,,ES,,,,false,1,12494501,9,20,5,1,,,,3,1,0,0,1,4.00,,,,5,1,Sheila Hollands,,,,,,5,0,,"action,memoir,short-stories"
12495001,0881462497,The Greats of Cuttercane: The Southern Stories,9780881462494,,,,ES,2011/10/30,Mercer University Press,,false,3,12495001,87,175,43,6,2011/1/1,,,21,7,12,3,0,4.07,195,Hardcover,,34,5,Terry Kay,,,,,,34,1,4,"fiction,short-stories"
12495501,,The 5th Witch,,B003OYK1BW,,,ES,,,eng,true,12,2278833,942,1635,461,38,2008/1/1,The 5th Witch,book,112,127,144,57,21,3.55,,,,17,0,Graham Masterton,,,,,,370,15,10,"crime,fantasy,fiction,horror,magic,mystery,paranormal,supernatural,witches"
12496001,,Life in Cape Town,,,,,ES,,,,false,2,12496001,22,11,4,1,2011/8/25,,book,1,1,0,0,2,2.75,,,,1,1,,,,,,,11,1,,autobiography
12496501,,I Want Everything To Be Okay,,,,,ES,2006/1/1,Tugboat Press,eng,false,1,12496501,19,41,11,0,2006/1/1,,book,5,1,2,3,0,3.73,,Paperback,First,11,0,Carrie McNinch,,,,,,7,1,,"graphic-novels,graphic-novels-comics"
12497001,,Cold Truth,2940013067639,,,,ES,,,,true,2,12497021,2191,4458,1088,35,2004/2/1,Cold Truth,book,426,413,192,43,14,4.10,,,,0,0,Joel Goldman,,,,,,510,25,210,"amazon,fiction,mystery,mystery-thriller,suspense,thriller"
12498001,1442642629,"Debating Sharia: Islam, Gender Politics, and Family Law Arbitration",9781442642621,,,,ES,2012/5/11,University of Toronto Press,,false,2,12498000,8,4,1,0,2011/10/30,,book,0,1,0,0,0,4.00,384,Hardcover,,0,0,,,,"Anna C. Korteweg,Jennifer A. Selby",,,6,0,,
12498501,3865218180,Dust Book,9783865218186,,,,ES,2009/10/12,Steidl,,false,1,12498501,1,0,0,0,2009/10/12,,,0,0,0,0,0,0.00,104,Hardcover,,0,0,"Aline Diepois,Thomas Gizolme",,,,,,1,0,,
12499501,1463755392,The Son Of The Wolf,9781463755393,,,,ES,2011/8/3,Createspace Independent Publishing Platform,,false,242,2836089,1133,1878,523,33,1900/1/1,The Son of the Wolf: Tales of the Far North,book,111,164,185,49,14,3.59,114,Paperback,,0,0,Jack London,,,,,,440,14,40,"adventure,american,animals,classics,collections,drama,fiction,historical,short-stories"
12500001,1607425122,Lost in Dreams,9781607425120,,,,ES,,,,true,10,8767419,505,636,169,35,2010/11/18,,book,56,42,50,17,4,3.76,,,,1,0,"Kristi Rae Bruner,Roger Bruner",,,,,,229,15,17,"chick-lit,christian,christian-fiction,contemporary,fiction,high-school,young-adult"
12501001,,Lumbee Indian Girl: Battered But Not Shattered,2940012812605,,,,ES,,,,true,2,24401210,2,3,1,0,2011/6/24,,,0,0,1,0,0,3.00,,,,0,0,Loretta Hunt Freeman,,,,,,1,0,,
12501501,,"The Insolvent Act of 1864, with Notes, Together with the Rules of Practice ...",2940021334624,,,,ES,,,,true,5,28752740,0,0,0,0,2015/7/13,,,0,0,0,0,0,0.00,,,,0,0,J.J.C. Abbott,,,,,,,0,,
12503501,,Unknown Book 12503501,,,,,ES,,,,false,1,12503501,1,0,0,0,,,,0,0,0,0,0,0.00,,,,0,0,Unknown,,,,,,,0,,
12504001,1844264327,The Lorestone,9781844264322,,,,ES,2007/8/30,Upfront Publishing,,false,7,22023114,27,51,11,8,2014/4/16,,book,7,4,0,0,0,4.64,672,Paperback,,0,0,Carol Browne,,,,,,11,1,1,
12505001,0300168489,Contesting Development: Participatory Projects and Local Conflict Dynamics in Indonesia,9780300168488,,,,ES,2014/5/14,Yale University Press,,true,4,12505001,13,11,3,1,2011/1/1,,,0,2,1,0,0,3.67,375,ebook,,2,1,"Michael Woolcock,Patrick Barron,Rachael Diprose",,,,,,9,0,1,"economics,non-fiction,politics"
12505501,,Ik Dictionary,2940023015798,,,,ES,,,,true,4,4863288,0,0,0,0,,"Ik Dictionary (Nilo-Saharan,)",,0,0,0,0,0,0.00,,,,0,0,Bernd Heine,,,,,,,0,,
12506501,0671823728,German English Dictionary,9780671823726,,,,ES,,,,false,1,12506501,6,6,2,0,1998/12/17,,book,1,0,0,0,1,3.00,,,,2,0,Richard Scarry,,,,,,2,0,,language
12507501,3841325068,Lustiges Taschenbuch English Edition #06,9783841325068,,,,ES,,,eng,false,1,12507501,6,16,4,0,2011/1/1,,book,2,1,0,1,0,4.00,,,,4,0,Walt Disney Company,,,,,,1,1,,
12508501,0898155606,JOB SEARCH TIME MANAGER,9780898155600,,,,ES,1993/11/1,Ten Speed Press,,false,1,12508501,0,0,0,0,1993/11/1,,,0,0,0,0,0,0.00,208,Paperback,,0,0,William S. Frank,,,,,,,0,,
12509501,,TEACHING THE CHILD PATRIOTISM,,B005AMV30E,,,ES,,,,true,7,12509501,5,5,1,0,2011/3/6,,,1,0,0,0,0,5.00,,,,1,0,Kate Upson Clark,Harriet O'Brien,,,,,3,0,1,
12511001,0022513469,"The Manifesto of Islam, An Exposition of Islam as the Inevitable World Ideology of the Future",,,,,ES,,,eng,false,1,12511001,14,18,4,0,,,book,2,2,0,0,0,4.50,166,Hardcover,,4,0,Muhammad Rafi-Ud-Din,,,,,,8,0,,"philosophy,religion"
12511501,1934925624,Breathing Life Into Dance,9781934925621,,,,ES,,,,false,1,12511501,2,9,2,1,2000/9/5,,,1,1,0,0,0,4.50,,,,2,1,Robin Conrad Sturm,,,,,,,0,,
12512501,0762763515,Stone of Kings: In Search of the Lost Jade of the Maya,9780762763511,,,,ES,2011/12/6,Lyons Press,,false,5,12512501,141,187,53,9,2011/12/6,,book,11,16,18,6,2,3.53,304,Hardcover,,43,9,Gerard Helferich,,,,,,22,2,2,"history,non-fiction,science"
12514001,,چند مقاله,,,,,ES,,,per,false,1,12514001,177,222,48,1,,,book,38,5,3,1,1,4.62,,,,48,1,محمدعلی طاهری,,,,,,127,0,3,
12514501,0750530332,Tragic Country Queen,9780750530330,,,,ES,2011/7/1,Magna Large Print Books,,false,13,7152565,588,1033,275,37,2010/3/1,Tammy Wynette: Tragic Country Queen,book,76,88,84,22,5,3.76,576,Hardcover,,0,0,Jimmy McDonough,,,,,,239,12,22,"abuse,biography,biography-memoir,history,memoir,music,non-fiction"
12515001,0792775066,The Death of Kings (Emperor Series #2),9780792775065,,,,ES,2011/3/1,,,false,55,671724,20139,61196,14333,358,2004/1/1,"The Death of Kings (Emperor, #2)",book,6374,5833,1809,250,67,4.27,,Audio CD,,0,0,Conn Iggulden,,,,,Robert Glenister,3207,27,184,"action,adult,adventure,fantasy,fiction,historical,historical-fiction,history,literature,novels,war"
12515501,,Ik was een van hen,9789045801995,,,,ES,2009/1/1,,nl,true,2,16697507,44,59,20,1,2009/11/1,Ero Cosa Loro,book,0,8,4,7,1,2.95,154,ebook,,1,1,"Camilla Costanzo,Giusy Vitale",,,,Philip Supèr,,9,3,1,non-fiction
12516501,,Call Down the Moon,,B005H7Q43I,,,ES,,,,true,3,12426971,8,21,5,0,2011/7/28,,,1,4,0,0,0,4.20,,,,0,0,Jackie MacKenzie,,,,,,3,0,,fantasy
12517501,1232117455,"Premio Della Giuria Al Festival Di Cannes: Il Divo, Il Settimo Sigillo, La Regina Margot, Eva Contro Eva, Morte a Venezia, Il Colonnello Redl",9781232117452,,,,ES,2011/7/30,"Books LLC, Wiki Series",,false,1,12517501,0,0,0,0,2011/7/28,,,0,0,0,0,0,0.00,,Paperback,,0,0,Source Wikipedia,,,,,,,0,,
12518501,1171060688,"Great Rock/Pop Artists of the 80s: Including David Bowie, R.E.M., the Cure and Others",9781171060680,,,,ES,2010/11/1,Webster's Digital Services,,false,1,12518501,1,0,0,0,2010/11/1,,,0,0,0,0,0,0.00,216,Paperback,,0,0,Anthony Holden,,,,,,1,0,,
12519501,,Portland to Portland,,B004UMH05M,,,ES,,,,true,2,12519501,13,31,9,0,2011/3/30,,,1,5,1,1,1,3.44,,,,7,0,"Robert Russell,Theresa Russell",,,,,,2,0,1,non-fiction
12521001,3039109049,Cradle to Grave: Municipal Medicine in Interwar England and Wales,9783039109043,,,,ES,2011/5/12,"Peter Lang Gmbh, Internationaler Verlag Der Wissenschaften",,false,1,12521001,0,0,0,0,2011/4/28,,,0,0,0,0,0,0.00,258,Paperback,,0,0,Alysa Levene,,,,,,,0,,
12523501,1459617290,How to Love: Choosing Well at Every Stage of Life,9781459617292,,,,ES,2011/4/1,ReadHowYouWant,,false,12,6222101,505,830,221,29,2009/5/25,How to Love,book,70,63,60,20,8,3.76,228,Paperback,Large 16pt Print,0,0,Gordon Livingston,,,,,,202,6,27,"love,non-fiction,philosophy,psychology,relationships,self-help"
12524001,3897226049,Effects of the forest fragmentation on the diversity and abundance patterns of central Amazonian Bats,9783897226043,,,,ES,,,,false,1,12524001,0,0,0,0,2001/2/15,,,0,0,0,0,0,0.00,,,,0,0,Erika Sampaio,,,,,,,0,,
12524501,,Documentos referentes ,2940031529232,,,,ES,,,,true,1,12524501,0,0,0,0,,,,0,0,0,0,0,0.00,,,,0,0,Philippines Gobernador general Fernando Primo de Rivera y Sobremanto,,,,,,,0,,
12525501,,A Short History of England [Illustrated],2940012763594,,,,ES,,,eng,true,119,946494,1217,1373,399,46,1917/1/1,A Short History of England,book,60,129,147,53,10,3.44,,,Nook book,1,0,"Amanda Lee,G.K. Chesterton",,,,,,599,10,104,"classics,historical,history,humor,non-fiction,politics,reference,religion,theology,unfinished"
12527001,,Misery Unleashed,2940011295331,,,,ES,,,,true,2,11330340,8,20,4,2,2011/5/5,,,4,0,0,0,0,5.00,,,,0,0,Jeffrey Martin,,,,,,3,0,,
12528001,,El año 2000,,,,,ES,2010/1/1,Capitán Swing Libros,eng,true,388,296977,11705,14485,4432,565,1888/1/1,Looking Backward 2000–1887,book,603,1230,1599,753,247,3.27,368,Kindle Edition,,1,0,Edward Bellamy,,,,,,5444,34,469,"adult,american,american-history,classic-literature,classics,college,dystopia,economics,fantasy,fiction,historical-fiction,history,literature,non-fiction,novels,philosophy,politics,research,school,science,science-fiction,science-fiction-fantasy,speculative-fiction,time-travel,unfinished"
12528501,0415009812,English and Englishness,9780415009812,,,,ES,1989/1/1,Routledge,,false,8,3368686,9,12,3,0,1989/1/1,English and Englishness (New Accents Series),book,0,3,0,0,0,4.00,181,Unknown Binding,,0,0,Brian       Doyle,,,,,,3,0,,
12529001,,Grandmother O Kyo,,,,,ES,,,,false,1,12529001,11,9,3,0,,,book,0,0,3,0,0,3.00,,,,3,0,Etsu Inagaki Sugimoto,,,,,,7,0,,biography
12530001,1849731357,Advanced Oil Crop Biorefineries,9781849731355,,,,ES,2011/11/25,Royal Society of Chemistry,,false,1,12530001,2,0,0,0,2011/11/25,,book,0,0,0,0,0,0.00,336,Hardcover,,0,0,"George A. Kraus,James H. Clark,Katerina Stamatelatou,Wim Mulder",,"Birgit Kamm,Rainer Hofer",Abbas Kazmi,,,2,0,,
12530501,0944957730,Can't Wait Till Monday Morning: Syndication in Broadcasting,9780944957738,,,,ES,,,,false,1,12530501,0,0,0,0,1998/7/1,,,0,0,0,0,0,0.00,,,,0,0,Marvin A. Kempner,,,,,,,0,,
12531001,,Acta Fratrum Arvalium quae supersunt,2940039038743,,,,ES,,,,true,2,12186587,0,0,0,0,,,,0,0,0,0,0,0.00,,,,0,0,Wilhelm Henzen Fratres Arvales,,,,,,,0,,
12531501,1233075624,"People from Kenai Peninsula Borough, Alaska: People from Homer, Alaska, Jewel, Mike Gravel, Jean Keene, Lincoln Brewster, Alan Boraas",9781233075621,,,,ES,2011/8/18,"Books LLC, Wiki Series",,false,1,12531501,0,0,0,0,2011/8/18,,,0,0,0,0,0,0.00,,Paperback,,0,0,Source Wikipedia,,,,,,,0,,
12532001,1429933410,"Gerald R. Ford (The American Presidents, #38)",9781429933414,,,,ES,2007/2/6,Times Books,,true,6,98074,942,1645,423,37,2007/2/6,Gerald R. Ford (The American Presidents),book,138,136,122,18,9,3.89,224,ebook,,1,0,"Arthur M. Schlesinger Jr.,Douglas Brinkley",,,,,,437,15,19,"american-history,biography,biography-memoir,historical,history,non-fiction,politics"
12532501,9022527719,Nachtgoud,9789022527719,,,,ES,2000/1/1,De Boekerij,nl,false,111,24244,77161,216368,53179,1944,1993/1/1,The Black Ice,book,17049,24205,10643,1092,190,4.07,299,Paperback,,19,3,Michael Connelly,,,,Frans Hempen,,9137,104,2511,"action,adult,adult-fiction,american,crime,detective,fiction,murder-mystery,mystery,mystery-thriller,novels,suspense,thriller"
12534501,0956174078,A Practical Guide to Designing with Data,9780956174079,,,,ES,2010/8/1,Five Simple Steps,,true,3,12378221,261,238,65,3,,,book,13,23,23,6,0,3.66,,ebook,,2,0,Brian Suda,,,,,,147,5,10,"business,non-fiction,psychology"
12535001,193152405X,Balkan Farewells,9781931524056,,,,ES,2003/4/1,Moondance Publishing,,false,2,12535001,2,8,2,0,2003/4/1,,book,0,2,0,0,0,4.00,321,Paperback,,1,0,Dražan Gunjača,,,,,,,0,,
12535501,3655293666,Die Colonie. Zweiter Band. Brasilianisches Lebensbild,9783655293669,,,,ES,,,,true,5,12535500,1,0,0,0,2010/1/1,,,0,0,0,0,0,0.00,,,,0,0,Friedrich Gerstäcker,,,,,,,0,,
12536501,1124067108,Building leadership: The knowledge of principals in creating collaborative communities of professional learning.,9781124067100,,,,ES,,,,false,1,12536501,0,0,0,0,,,,0,0,0,0,0,0.00,,,,0,0,Chad Michael. Dumas,,,,,,,0,,
12540001,1232554170,"Naturais Do Porto: Rui Preto Pacheco, Sofia de Melo Breyner, Almeida Garrett, Antonio de Vasconcelos Xavier, Andre Villas Boas, Luciana Abreu",9781232554172,,,,ES,2011/6/28,"Books LLC, Wiki Series",,false,1,12540001,0,0,0,0,2011/6/28,,,0,0,0,0,0,0.00,,Paperback,,0,0,Source Wikipedia,,,,,,,0,,
12541001,0761854924,Unburdened by Conscience: A Black People's Collective Account of America's Ante-Bellum South and the Aftermath,9780761854920,,,,ES,2011/6/3,University Press of America,,false,2,12541000,2,0,0,0,2011/6/3,,,0,0,0,0,0,0.00,172,Paperback,,0,0,Anthony Neal,,,,,,2,0,,
12541501,059523335X,Revelation: The Truth Unveiled,9780595233359,,,,ES,2002/6/27,iUniverse,,false,3,12541501,0,0,0,0,2002/6/27,,,0,0,0,0,0,0.00,112,Paperback,,0,0,Rose M. Parrish,,,,,,,0,,
12542001,1231563923,"Povos Amerindios: Cultura DOS Amerindios, Missoes Jesuiticas, Povos Indigenas Da America Do Norte, Povos Indigenas Da America Do Sul",9781231563922,,,,ES,2011/6/26,"Books LLC, Wiki Series",,false,1,12542001,0,0,0,0,2011/6/28,,,0,0,0,0,0,0.00,,Paperback,,0,0,Source Wikipedia,,,,,,,0,,
12542501,1589796020,"Super Bowl Monday: From the Persian Gulf to the Shores of West Florida--The New York Giants, the Buffalo Bills, and Super Bowl XXV",9781589796027,,,,ES,2011/8/16,Taylor Trade Publishing,,true,4,12003784,60,111,30,6,2011/8/16,,,4,16,8,1,1,3.70,344,ebook,,2,0,Adam Lazarus,,,,,,21,0,,sports
12543501,,Hammer of Thor ,,B005JLLTWS,,,ES,2011/8/27,World Castle Publishing,,true,5,12305306,99,118,28,11,2011/8/27,,book,15,6,6,0,1,4.21,,Kindle Edition,,7,4,S. Evan Townsend,,,,,,65,1,1,"fantasy,historical,magic,urban-fantasy"
12544001,088332153X,The Larousse Guide to Birds of Britain and Europe,9780883321539,,,,ES,,,,false,4,14739938,4,4,1,1,1978/1/1,,book,0,1,0,0,0,4.00,,,,0,0,"Arthur Singer,Bertel Bruun,Bruce   Campbell,H?kan Delin,Lars Svensson",,,,,,1,0,,"non-fiction,reference"
12544501,,To all whom these presents may concern,2940017403426,,,,ES,,,,true,1,12544501,0,0,0,0,,,,0,0,0,0,0,0.00,,,,0,0,New York  Governor,,,,,,,0,,
12546501,1455505110,"Love Out Loud: 365 Devotions for Loving God, Loving Yourself and Loving Others",9781455505111,,,,ES,2011/11/2,FaithWords,,true,10,12411357,1331,1770,392,36,2011/1/1,,,254,98,31,6,3,4.52,,ebook,,1,0,Joyce Meyer,,,,,,331,13,36,"christian,christianity,faith,humor,inspirational,love,non-fiction,religion,self-help,spirituality,unfinished"
12547001,,رحلة إلى صومال المحاكم ,9789953873749,,,,ES,2008/1/1,دار العربية للعلوم ناشرون,ara,false,1,12547001,11,3,1,0,2008/1/1,,book,0,0,1,0,0,3.00,96,,,1,0,محمد عبد الله العلي,,,,,,9,0,,
12547501,1232118508,"Principi Immaginari: Vegeta, Principe Di Persia, He-Man, Namor, Mamoru Chiba, Ling Yao, Lelouch VI Britannia, Principe Filippo, Principe Eric",9781232118503,,,,ES,2011/7/31,"Books LLC, Wiki Series",,false,1,12547501,0,0,0,0,2011/7/28,,,0,0,0,0,0,0.00,,Paperback,,0,0,Source Wikipedia,,,,,,,0,,
12549501,1232692018,"My Name Is Earl: Personaggi Di My Name Is Earl, Stagioni Di My Name Is Earl, Episodi Di My Name Is Earl, La Lista, La Lista Di Earl",9781232692010,,,,ES,2011/8/3,"Books LLC, Wiki Series",,false,1,12549501,0,0,0,0,2011/8/28,,,0,0,0,0,0,0.00,,Paperback,,0,0,Source Wikipedia,,,,,,,0,,
12550001,1232236160,"Londonere: Isaac Newton, Jack the Ripper, Marie Tussaud, Karl Marx, Michael Faraday, Joshua A. Norton, Marianne Faithfull, Ron Wood",9781232236160,,,,ES,2011/8/9,"Books LLC, Wiki Series",,false,1,12550001,0,0,0,0,2011/8/28,,,0,0,0,0,0,0.00,,Paperback,,0,0,Source Wikipedia,,,,,,,0,,
12550501,1233130714,"Science Fiction Novel Trilogies (Book Guide): Foundation Series, Mars Trilogy, Coldfire Trilogy, the Book of the Short Sun, the Space Trilogy",9781233130719,,,,ES,2011/8/19,"Books LLC, Wiki Series",,false,1,12550501,2,5,1,0,2011/8/28,,,1,0,0,0,0,5.00,,Paperback,,1,0,Source Wikipedia,,,,,,1,0,,
12551001,,"Whose Body? (Lord Peter Wimsey Mysteries, #1)",2940013100992,,,,ES,,,eng,true,281,192893,76630,144674,37175,2118,1923/1/1,Whose Body?,book,11499,13734,9201,1899,842,3.89,,,Annotated edition,5,1,"Bill Peschel,Dorothy L. Sayers",,,,,,33742,202,1634,"adult,adult-fiction,british-literature,classics,cozy-mystery,crime,detective,fiction,historical,historical-fiction,humor,literature,murder-mystery,mystery,mystery-thriller,novels,suspense,thriller"
12552501,1232706922,"Brittiska Hovdamer: Engelska Hovdamer, Sarah Churchill, Hertiginna AV Marlborough, Anne Boleyn, Katarina Howard, Jane Seymour",9781232706922,,,,ES,2011/8/4,"Books LLC, Wiki Series",,false,1,12552501,1,0,0,0,2011/8/28,,,0,0,0,0,0,0.00,,Paperback,,0,0,Source Wikipedia,,,,,,1,0,,
12553501,968186560X,Los Cuatro Libros De La Arquitectura/ The Four Books Of Architecture (Spanish Edition),9789681865603,,,,ES,,,,false,46,905280,1775,1835,444,9,1738/1/1,I quattro libri dell'architettura,book,207,124,87,17,9,4.13,,,,0,0,Andrea Palladio,,,,,,1193,11,29,"art,history,non-fiction,philosophy,reference"
12554001,0275908259,Child Welfare in Israel.,9780275908256,,,,ES,1982/4/15,Praeger,,false,2,7149925,2,0,0,0,1982/1/1,,,0,0,0,0,0,0.00,319,Hardcover,,0,0,"Eliezer David Jaffe,Harry Specht,Neil Gilbert",,,,,,2,0,,
12554501,1617775231,Dewey's First Adventure,9781617775239,,,,ES,2011/8/16,Tate Publishing & Enterprises,,false,1,12554501,2,4,1,0,2011/8/16,,,0,1,0,0,0,4.00,,Paperback,,1,0,Alecia Martino,,,,,,,0,,
12556001,0307426394,Indelible Acts,9780307426390,,,,ES,2007/12/18,Vintage,,true,14,531374,418,724,203,20,2002/1/1,Indelible Acts,book,31,87,58,20,7,3.57,208,ebook,,0,0,A.L. Kennedy,,,,,,162,5,6,"amazon,americana,fiction,lgbt,literary-fiction,literature,short-stories"
12556501,,A Collection of papers published previous to 1909 v. 2,2940023559001,,,,ES,,,,true,1,12556501,0,0,0,0,2010/2/24,,,0,0,0,0,0,0.00,,,,0,0,William James Mayo,,,,,,,0,,
12557001,,Missione al Gran Mogor del P. Ridolfo Aqvaviva della Compagnia di Gesu: sua ...,2940038152631,,,,ES,,,,true,2,17858437,1,3,1,0,,,book,0,0,1,0,0,3.00,,,,0,0,Daniello Bartoli,,,,,,,0,,
12558001,1551808471,Buying a Franchise in Canada,9781551808475,,,,ES,2009/8/1,Self-Counsel Press,,false,4,12558001,10,17,4,1,2004/12/1,,book,2,1,1,0,0,4.25,192,Paperback,,3,0,Tony    Wilson,,,,,,5,0,,
12559501,0983304610,Four Lives,9780983304616,,,,ES,2011/6/1,Roth & Roth,,false,4,12144438,3,2,1,0,2011/5/26,,book,0,0,0,1,0,2.00,428,Paperback,,0,0,Steven C. Roth,,,,,,1,0,,
12560001,3525353839,Aspekte Der Historischen Forschung in Frankreich Und Deutschland / Aspects de La Recherche Historique En France Et En Allemagne: Schwerpunkte Und Methoden / Tendances Et Methodes. Deutsch-Franzosisches Historikertreffen in Gottingen Vom 3. Bis 6. Oktob...,9783525353837,,,,ES,1981/3/12,Vandehoeck & Rupprecht,,false,1,12560001,0,0,0,0,1981/3/12,,,0,0,0,0,0,0.00,226,Hardcover,,0,0,,,,Gerhard Albert Ritter,,,,0,,
12560501,,Võlupood,,,,,ES,1966/1/1,Perioodika,est,false,1,12560501,19,51,12,1,,,,7,2,2,1,0,4.25,65,Paperback,,12,1,H.G. Wells,,,,Aleksander Zirnask,,4,0,1,science-fiction
12561001,1233069810,"American People of Swiss-German Descent: Dwight D. Eisenhower, Othmar Ammann, Peggy Guggenheim, Jewel, Ben Roethlisberger, William F. Buckley",9781233069811,,,,ES,2011/8/18,"Books LLC, Wiki Series",,false,1,12561001,1,0,0,0,2011/8/28,,,0,0,0,0,0,0.00,,Paperback,,0,0,Source Wikipedia,,,,,,1,0,,
12561501,9791651205,The Pursuit of Happyness,9799791651201,,,,ES,2007/1/1,MQS Publishing,ind,false,28,10907,36484,87716,20928,762,2006/1/1,The Pursuit of Happyness,book,9776,6724,3371,770,287,4.19,398,Paperback,,26,1,Chris Gardner,,,,,,14031,19,370,"autobiography,biography,biography-memoir,business,classics,contemporary,drama,family,fiction,history,inspirational,memoir,movies,non-fiction,novels,parenting,personal-development,philosophy"
12563001,9996459101,Fountain Sealed,9789996459108,,,,ES,1982/6/1,Kindred Pr,,false,2,12563001,11,21,5,0,1982/6/1,,,1,4,0,0,0,4.20,,Paperback,,5,0,Margaret Epp,,,,,,6,0,,
12563501,2265074276,"La séquence des préludes, tome 10 : Rivebise, l'homme des plaines",9782265074279,,,,ES,2002/5/24,Fleuve noir,,false,1,12563501,3,6,2,0,2002/5/24,,,0,1,0,1,0,3.00,249,Paperback,,2,0,Paul Thompson,,,,,,,0,,fantasy
12564001,1231488948,"Jogos Para Game Boy: Street Fighter II, Killer Instinct, Primal Rage, Mighty Morphin Power Rangers: The Movie, Mortal Kombat, Battletoads",9781231488942,,,,ES,2011/6/26,"Books LLC, Wiki Series",,false,1,12564001,4,5,1,0,2011/6/28,,,1,0,0,0,0,5.00,,Paperback,,1,0,Source Wikipedia,,,,,,3,0,,
12565001,0745107761,Joyful Voices,9780745107769,,,,ES,,,,false,4,1903385,92,202,45,3,1987/1/1,Joyful Voices,,30,7,8,0,0,4.49,,,,0,0,Doris Stokes,,,,,,36,3,1,"non-fiction,paranormal"
12566001,,Sinister Sisters,2940012425911,,,,ES,,,,true,3,10559932,1,5,1,0,2009/5/21,,,1,0,0,0,0,5.00,,,,0,0,Richard Russell,,,,,,,0,,
12566501,0205158811,Critical Thinking: Consider the Verdict,9780205158812,,,,ES,2011/7/21,Pearson,,false,12,205092,103,85,23,1,1988/1/1,Critical Thinking: Consider the Verdict,book,6,9,5,1,2,3.70,480,Unbound,,0,0,Bruce N. Waller,,,,,,56,3,3,"non-fiction,philosophy,reference"
12567001,9984768376,Kartona kareivji,,,,,ES,2005/1/1,Valters un Rapa,lav,false,1,12567001,29,78,19,1,2005/1/1,,book,6,10,2,1,0,4.11,260,Hardcover,,19,1,Johans Korins,,,,,,8,0,,"crime,fiction,mystery,science"
12569001,1449630189,Patient Education: A Practical Approach,9781449630188,,,,ES,,,eng,false,2,12569001,2,0,0,0,2011/2/7,,book,0,0,0,0,0,0.00,,,,0,0,"Barbara Ann Lyons,Richard D. Muma",,,,,,1,0,,
12570001,1457610396,Choices 4e & paperback dictionary,9781457610394,,,,ES,2011/5/3,Bedford/St. Martin's,,false,1,12570001,1,0,0,0,2011/5/3,,,0,0,0,0,0,0.00,,Paperback,,0,0,"Anonymous,Evelyn Posey,Kate Mangelsdorf",,,,,,1,0,,
12570501,0230213294,The Organisation of Employment: An International Perspective on Work,9780230213296,,,,ES,2016/1/19,Palgrave Macmillan,,false,2,3028025,7,8,2,0,2003/3/19,The Organisation of Employment: An International Perspective,,0,2,0,0,0,4.00,316,Paperback,,0,0,"Damian Grimshaw,Jill Rubery",,,,,,5,0,,
12571001,1242819398,"Articles on Novels by Neal Stephenson, Including: Cryptonomicon, the Diamond Age, the Big U, Snow Crash, Zodiac (Novel), the System of the World (Novel), the Confusion, the Baroque Cycle, the Cobweb (Novel), Interface (Novel), Anathem",9781242819391,,,,ES,2011/8/26,Hephaestus Books,,false,2,12571001,125,218,47,4,2011/8/26,,,36,8,1,1,1,4.64,,Paperback,,37,3,Hephaestus Books,,,,,,63,0,5,"fiction,science"
12571501,1429223111,Pscyhology in Modules [with Scientific American Reader: Mind],9781429223119,,,,ES,2008/1/14,Worth Publishers,,false,489,405575,2848,4241,1084,76,1986/2/1,Psychology,book,377,377,217,84,29,3.91,,Unknown Binding,,0,0,David G. Myers,,,,,,1078,12,138,"academic,american,college,economics,education,high-school,non-fiction,philosophy,psychology,reference,research,school,science,textbooks"
12572001,0312673140,Writer's Reference 6e with 2009 MLA and 2010 APA Updates & Research and Documentation in the Electronic Age 5e,9780312673147,,,,ES,2010/5/24,Bedford/St. Martin's,,false,1,12572001,0,0,0,0,2010/5/24,,,0,0,0,0,0,0.00,,Hardcover,,0,0,Diana Hacker,,,,,,,0,,
12572501,0312613571,Mirror on America 4e & Research and Writing with 2009 MLA Update,9780312613570,,,,ES,2009/6/19,Bedford/St. Martin's,,false,43,37571,95,95,31,7,2000/1/28,Mirror on America: Short Essays and Images from Popular Culture,book,2,8,14,4,3,3.06,,Hardcover,,0,0,"Elizabeth M. Nollen,Joan T. Mims,Marcia F. Muth",,,,,,38,4,4,"academic,american-history,education,language,non-fiction,teaching,textbooks"
12573001,0716788373,"Psychology, 7e in Modules (spiral), SG & Cal Student Questionnaire",9780716788379,,,,ES,2003/11/1,Worth Publishers,,false,489,405575,2848,4241,1084,76,1986/2/1,Psychology,book,377,377,217,84,29,3.91,1206,Unknown Binding,,0,0,"David G. Myers,Richard O. Straub",,,,,,1078,12,138,"academic,american,college,economics,education,high-school,non-fiction,philosophy,psychology,reference,research,school,science,textbooks"
12573501,1457604779,"Reading Critically, Writing Well 9e & Writer's Reference 6e with MLA and APA Updates & Compclass for Writer's Reference 6e",9781457604775,,,,ES,2011/2/24,Bedford/St. Martin's,,false,1,12573501,0,0,0,0,2011/2/24,,,0,0,0,0,0,0.00,,Unknown Binding,,0,0,"Alison M. Warriner,Charles R. Cooper,Diana Hacker,Rise B. Axelrod",,,,,,,0,,
12575001,1232179574,"Bogvaesen Og Boghandvaerk: Boger, Trykning Og Typografi, Typografi, Korrektur, Xerografi, Bibliotek, Kaerlighed Ved Forste Hik, Biografi",9781232179573,,,,ES,2011/8/9,"Books LLC, Wiki Series",,false,1,12575001,1,0,0,0,2011/8/28,,,0,0,0,0,0,0.00,,Paperback,,0,0,Source Wikipedia,,,,,,1,0,,
12575501,,Unknown Book 12575501,,,,,ES,,,,false,1,12575501,1,0,0,0,,,,0,0,0,0,0,0.00,,,,0,0,Unknown,,,,,,,0,,
12576001,,A cazar me vuelvo; comedia original en cuatro actos y en verso,2940031557044,,,,ES,,,,true,3,12576001,0,0,0,0,,,,0,0,0,0,0,0.00,,,,0,0,Abenamar,,,,,,,0,,
12576501,,"Represent Yourself in Court: Go Pro Se, Save Money, and Win!",2940012847331,,,,ES,,,,true,1,12576501,0,0,0,0,2011/7/11,,,0,0,0,0,0,0.00,,,,0,0,Minute Help Guides,,,,,,,0,,
12577501,0830708308,Jesus Loves and Shows God's Love to Us,9780830708307,,,,ES,1982/12/1,Gospel Light Publications,,false,1,12577501,2,3,1,0,1982/12/1,,,0,0,1,0,0,3.00,,,,1,0,Little Fish,,,,,,2,0,,
12579501,1403916136,Social Work with Older People: Fourth Edition,9781403916136,,,,ES,,Palgrave Macmillan,,false,1,12579501,5,0,0,0,,,,0,0,0,0,0,0.00,192,Paperback,,0,0,"Judith Phillips,Mary Marshall,Mo Ray",,,,,,2,0,,
12580001,0862831091,Charles And Diana Visit Canada,9780862831097,,,,ES,,,,false,1,12580001,7,12,3,0,1983/7/1,,,1,1,1,0,0,4.00,,,,3,0,Trevor Hall,,,,,,3,0,,"biography,non-fiction"
12580501,1403984042,Law and Politics in Latin America: The Difficult Path toward Limited Government and Rights-Based Citizenship,9781403984043,,,,ES,2020/1/3,Palgrave Macmillan,,false,1,12580501,0,0,0,0,2020/1/3,,,0,0,0,0,0,0.00,256,Hardcover,,0,0,Pilar Domingo,,,,,,,0,,
12581001,1842777041,Water under Threat,9781842777046,,,,ES,2006/8/1,Zed Books,,false,2,12580775,4,1,1,0,2006/10/3,,,0,0,0,0,1,1.00,224,Hardcover,,0,0,Larbi Bouguerra,,,,,,2,1,,non-fiction
12582001,0230292798,Public Sector Management: Mission Impossible?,9780230292796,,,,ES,2011/6/15,Palgrave Macmillan,,false,1,12582001,3,0,0,0,2011/6/15,,,0,0,0,0,0,0.00,352,Paperback,,0,0,Ian Chaston,,,,,,1,0,,
12582501,,Black Jack,,,,,ES,1978/1/1,Puffin Books,,false,11,1228733,285,526,135,22,1969/1/1,Black Jack,book,32,66,29,7,1,3.90,189,Paperback,,8,3,Leon Garfield,Antony Maitland,,,,,105,11,,"adventure,canon,childrens,fiction,gothic,historical,historical-fiction,history,juvenile,literature,middle-grade,modern-classics,novels,young-adult"
12583501,,Male Nude Photography- Landon Taylor,2940012042675,,,,ES,,,,true,1,12583501,1,0,0,0,2011/1/2,,book,0,0,0,0,0,0.00,,,,0,0,Nick Baer,,,,,,1,0,,
12584501,,The New Group of World Workers,,,,,ES,,,,false,1,12584501,10,2,1,0,,,book,0,0,0,1,0,2.00,,,,1,0,Alice A. Bailey,,,,,,7,0,,
12585001,1462871968,A Complete Guide to Managing and Controlling the Outcome of Your Insurance Claim,9781462871964,,,,ES,2011/5/26,Xlibris Corporation,,false,1,12585001,0,0,0,0,2011/5/26,,,0,0,0,0,0,0.00,84,Hardcover,,0,0,William Fischer,,,,,,,0,,
12586001,,Vermelho da Cor do Sangue (Não Matarás #2),9789892315447,,,,ES,2011/9/1,Edições Asa,por,false,2,12586001,75,111,29,7,2011/9/1,Vermelho da Cor do Sangue,book,5,14,10,0,0,3.83,304,Paperback,Large print,29,7,Pedro Garcia Rosado,,,,,,22,4,,"contemporary,crime,fiction"
12586501,,Unknown Book 12586501,,,,,ES,,,,false,1,12586501,1,0,0,0,,,,0,0,0,0,0,0.00,,,,0,0,Unknown,,,,,,1,0,,
12588001,,"Outback Steakhouse Cleanliness, Sanitation, and Maintenance Requirements",,,,,ES,,,,false,1,12588001,1,0,0,0,,,book,0,0,0,0,0,0.00,,,,0,0,AlbertNash,,,,,,,0,,
12588501,8573512997,V de Vingança,9788573512991,,,,ES,1993/1/1,Globo,por,false,91,5805,436187,1004053,236276,4801,1990/1/1,V for Vendetta,book,115734,78315,31434,7028,3765,4.25,308,Paperback,,9,1,"Alan Moore,David   Lloyd",,,,,,186499,366,2709,"action,adult,adult-fiction,adventure,classics,comics,contemporary,crime,dark,drama,dystopia,fantasy,fiction,graphic-novels,graphic-novels-comics,literature,manga,movies,mystery,novels,philosophy,politics,post-apocalyptic,science-fiction,speculative-fiction,thriller"
12589501,,Reuben Sachs: a sketch,2940022929331,,,,ES,,,,true,26,1031943,513,775,224,33,1888/1/1,Reuben Sachs,book,24,90,80,25,5,3.46,,,,0,0,Amy Levy,,,,,,221,15,7,"british-literature,classics,feminism,fiction,historical-fiction,literary-fiction,literature,romance,school,victorian"
12591001,,"Air Castle Don, or, From dreamland to hardpan [microform]",2940028880988,,,,ES,,,,true,1,12591001,0,0,0,0,,,,0,0,0,0,0,0.00,,,,0,0,B. Freeman Ashley,,,,,,,0,,
12591501,1448807697,Alaska: The Last Frontier,9781448807697,,,,ES,2010/8/15,PowerKids Press,,false,5,14494203,1,3,1,0,2010/8/15,,,0,0,1,0,0,3.00,24,Paperback,,0,0,Marcia Amidon Lusted,,,,,,,0,,
12592501,,The Influence of Shades,,,,,ES,,,,false,1,12592501,0,0,0,0,,,book,0,0,0,0,0,0.00,,,,0,0,DemetriusMiddleton,,,,,,,0,,
12593001,,Handbook of Health and Nursing; A Complete Home-Study Course Comprising: Household Bacteriology,2940019532124,,,,ES,,,,true,2,12593001,1,4,1,0,2010/1/28,,book,0,1,0,0,0,4.00,,,,1,0,American School of Home Economics,,,,,,,0,,
12593501,,Nook Address Book,2940012912596,,,,ES,,,,true,1,12593501,0,0,0,0,2011/5/30,,,0,0,0,0,0,0.00,,,,0,0,Ella Marzano,,,,,,,0,,
12595501,8821564959,William Congdon: L'avventura Dello Sguardo:  Romanzo Epistolare,9788821564956,,,,ES,,,,false,1,12595501,2,5,1,0,2009/1/1,,book,1,0,0,0,0,5.00,,,,1,0,Pigi Colognesi,,,,,,1,0,,
12596001,,Certified Ultrasound Technician Schools In New York,,,,,ES,,,,false,1,12596001,0,0,0,0,,,book,0,0,0,0,0,0.00,,,,0,0,AlvaRussell,,,,,,,0,,
12598001,,"Davy and the goblin; or, What followed reading Alice's adventures in Wonderland",2940019281459,,,,ES,,,,true,34,3484620,82,118,34,6,1885/1/1,Davy and the Goblin,book,8,9,11,3,3,3.47,,,,0,0,Charles E. Carryl,,,,,,34,3,2,"art,childrens,classics,fantasy,middle-grade"
12598501,,"Abraham Lincoln's cardinal traits; a study in ethics, with an epilogue addressed to theologians",2940017614686,,,,ES,,,,true,13,4751768,3,5,2,1,1914/1/1,"Abraham Lincoln's Cardinal Traits: A Study In Ethics, With An Epilogue Addressed To Theologians (1914)",,0,0,1,1,0,2.50,,,,0,0,C.S. Beardslee,,,,,,,1,,
12599001,1594532648,Evaluating Outdated Beliefs,9781594532641,,,,ES,2004/9/1,Bookman Publishing,,false,1,12599001,1,0,0,0,2004/9/28,,,0,0,0,0,0,0.00,,Paperback,,0,0,Lloyd E. Mcilveen,,,,,,1,0,,
12599501,,An Example of Plain Catechising Upon the Assembly's Shorter Catechism ...,2940023947365,,,,ES,,,,true,7,37722785,1,5,1,0,,,book,1,0,0,0,0,5.00,,,,0,0,John Willison,,,,,,,0,,
12600001,1450060668,Prophetic Women Of Bold Love,9781450060660,,,,ES,,,,true,3,9851048,1,5,1,0,2010/6/18,,,1,0,0,0,0,5.00,,,,0,0,Shawn Madigan,,,,,,,0,,
12600501,,Banners Vancouver- Banners suggest business?,,,,,ES,,,,false,1,12600501,0,0,0,0,,,book,0,0,0,0,0,0.00,,,,0,0,TommyHumphrey,,,,,,,0,,
12601001,1451637608,The Power of Illusion,9781451637601,,,,ES,2011/10/25,Baen,,false,3,7841351,101,143,39,8,2010/10/1,,book,3,22,12,2,0,3.67,592,Paperback,,5,0,Christopher Anvil,,,,,,39,3,4,"adventure,collections,fantasy,fiction,humor,mystery,science,science-fiction,short-stories"
12601501,1466204915,A Deadly Chocolate Pi (Liz Ogilvie-Smythe Provincetown Mysteries #2),9781466204911,,,,ES,2011/8/5,Createspace Independent Publishing Platform,,false,2,12601501,79,83,27,2,2011/8/5,,book,3,6,10,6,2,3.07,278,Paperback,,14,1,Cynthia Gallant-Simpson,,,,,,35,2,7,"cozy-mystery,mystery"
12603001,,The very best Ugg Boots Are Genuine Ugg Boots77,,,,,ES,,,,false,1,12603001,1,0,0,0,,,book,0,0,0,0,0,0.00,,,,0,0,EricWoods,,,,,,,0,,
12605001,,Information on Truck Wheels,,,,,ES,,,,false,1,12605001,0,0,0,0,,,book,0,0,0,0,0,0.00,,,,0,0,SanfordMiles,,,,,,,0,,
12606001,,The first thing a  finding their way back for more with their particular variation.,,,,,ES,,,,false,1,12606001,1,0,0,0,,,book,0,0,0,0,0,0.00,,,,0,0,ArmandVincent,,,,,,,0,,
12608001,1453694188,Protecting Your Family with Food: Eating Right Made Simple,9781453694183,,,,ES,2010/8/26,Createspace Independent Publishing Platform,,false,1,12608001,1,0,0,0,2010/8/26,,,0,0,0,0,0,0.00,110,Paperback,,0,0,Robert Korczynski,,,,,,1,0,,
12609001,124256070X,"Articles on Grasses of the United States, Including: Poa Pratensis, Phragmites, Reed Canary Grass, Panicum Virgatum, Oryzopsis Hymenoides, List of U.S. State Grasses, Andropogon Gerardii, Spartina Patens, Purple Reedgrass, Pascopyrum",9781242560705,,,,ES,2011/8/21,Hephaestus Books,,false,1,12609001,1,1,1,0,2011/8/21,,,0,0,0,0,1,1.00,,Paperback,,1,0,Hephaestus Books,,,,,,2,0,,
12609501,9696446128,میں نے خوابوں کا شجر دیکھا ہے (Main Ne Khuwabon Ka Shajar Dekha Hai),9789696446125,,,,ES,2012/1/1,Ilm-o-Irfan,urd,false,1,12609501,836,1147,317,7,1998/12/1,میں نے خوابوں کا شجر دیکھا ہے,book,80,91,100,37,9,3.62,184,Hardcover,,317,7,Umera Ahmed,,,,,,357,3,15,fiction
12610501,,Mens Flare Jeans - How to Make Your Appearance Ideal With These Jeans,,,,,ES,,,,false,1,12610501,1,0,0,0,,,book,0,0,0,0,0,0.00,,,,0,0,FreddieOwen,,,,,,,0,,
12611001,,UK Shopping Site For top United kingdom Deals On-line,,,,,ES,,,,false,1,12611001,0,0,0,0,,,book,0,0,0,0,0,0.00,,,,0,0,DemetriusHayes,,,,,,,0,,
12612001,,Governing Climate Change (Global Institutions),,B003AU7DH0,,,ES,,,eng,true,12,7198568,21,38,12,1,2010/1/1,,book,1,2,7,2,0,3.17,,,,0,0,"Harriet Bulkeley,Peter  Newell",,,,,,6,0,,non-fiction
12615501,1101079576,Why Our Health Matters: A Vision of Medicine That Can Transform Our Future,9781101079577,,,,ES,2009/9/8,Penguin Audio,,false,15,6583221,514,988,254,54,2009/9/1,Why Our Health Matters,book,67,113,57,13,4,3.89,,Audio,,3,2,Andrew Weil,,,,,,183,5,15,"business,food,grad-school,health,medical,non-fiction,philosophy,politics,reference,science,self-help"
12616001,,Bangsawan Tulen,,,,,ES,1950/1/1,MIBS,msa,false,1,12616001,0,0,0,0,1950/1/1,,book,0,0,0,0,0,0.00,108,Paperback,,0,0,Khalidah Adibah Amin,,,,,,,0,,
12617001,,Ghetto Re'sume' part 1,2940012404671,,,,ES,,,,true,1,12617001,4,10,2,0,2011/3/30,,,2,0,0,0,0,5.00,,,,2,0,Freddie Simmons,,,,,,2,0,,
12618001,0594195438,Let's Read with Dora! (Dora the Explorer Ready-to-Read Series),9780594195436,,,,ES,,,,false,1,12618001,1,0,0,0,2010/1/5,,,0,0,0,0,0,0.00,,,,0,0,Various,,,,,,1,0,,
12619001,,Detective Daddy (Harlequin Intrigue Series),,B005EHQECM,,,ES,2011/9/1,Harlequin,en-US,true,9,12233962,391,587,148,15,2011/1/1,,book,50,52,38,7,1,3.97,219,,,17,0,Mallory Kane,,,,,,187,18,7,"contemporary,detective,fiction,mystery,romance"
12620001,9737678184,Educaţia sentimentală,,,,,ES,2006/1/1,Editura GRUP EDITORIAL ART,rum,false,391,2183,41031,60843,15868,625,1869/4/15,L'Éducation sentimentale,book,5011,5386,3757,1259,455,3.83,414,Hardcover,,31,1,Gustave Flaubert,,,,,,21510,144,834,"classic-literature,classics,college,contemporary,fiction,france,historical,historical-fiction,literary-fiction,literature,modern,novels,romance,unfinished"
12620501,3655207778,"St. Nicholas Magazine for Boys and Girls, Vol. 5, July 1878, No. 9",9783655207772,,,,ES,,,eng,true,4,18662960,3,0,0,0,1878/1/1,,book,0,0,0,0,0,0.00,,,,0,0,,,,Mary Mapes Dodge,,,3,0,,
12621501,,Kelli Becomes a Slave,2940011420115,,,,ES,,,,true,3,12349832,12,4,1,0,2011/7/23,,book,0,1,0,0,0,4.00,,,,0,0,Nikki Palmer,,,,,,8,0,,erotica
12622001,,The Bachelor's Cat,2940011065286,,,,ES,,,,true,5,1245640,486,1106,317,68,1997/2/1,The Bachelor's Cat: A Love Story,book,67,88,108,41,13,3.49,,,,1,0,Lynn Hoffman,,,,,,98,17,,"adult,adult-fiction,animals,christmas,drama,fantasy,fiction,high-school,inspirational,non-fiction,novella,realistic-fiction,romance,young-adult"
12623001,0263203425,Bride at Briar's Ridge,9780263203424,,,,ES,2008/7/1,Mills & Boon,,false,21,5156141,108,146,42,7,2007/1/1,Bride at Briar's Ridge,book,10,10,14,6,2,3.48,,Hardcover,,0,0,Margaret Way,,,,,,36,2,4,"harlequin,humor,romance"
12623501,1426979517,The Paths That Lie Ahead,9781426979514,,,,ES,2011/8/26,Trafford Publishing eBooks,,true,3,12623500,5,23,5,0,2011/8/17,,book,3,2,0,0,0,4.60,,ebook,,1,0,Melvin Luster,,,,,,,0,,
12624501,,"With Mr. Chamberlain in the United States and Canada, 1887-88",2940019570065,,,,ES,,,,true,7,9807475,0,0,0,0,,,,0,0,0,0,0,0.00,,,,0,0,Willoughby Maycock,,,,,,,0,,
12628001,0884119483,The Keepers of the Trail: A Story of the Great Woods,9780884119487,,,,ES,2005/7/1,John M. Carroll Co.,eng,false,36,1811737,68,152,37,2,1916/1/1,The Keepers of the Trail: A Story of the Great Woods,book,17,9,10,0,1,4.11,323,Hardcover,,0,0,Joseph Alexander Altsheler,,,,,,14,0,,"fiction,historical-fiction,history"
12629501,1153653427,Cottage Economy to Which Is Added the Poor Man's Friend,9781153653428,,,,ES,2012/10/1,Rarebooksclub.com,,false,64,3077150,169,218,54,6,1823/11/30,Cottage Economy (Verey & Von Kanitz Rural Classics),book,16,26,10,2,0,4.04,74,Paperback,,4,0,William Cobbett,,,,,,81,2,17,"business,cooking,economics,essays,history,literature,non-fiction,philosophy,politics,technology"
12634501,,Dog Lover eBook NookBook - Perfect Handbook for Imperfect Dog Owners,2940013356573,,,,ES,,,,true,1,12634501,0,0,0,0,2011/8/13,,,0,0,0,0,0,0.00,,,,0,0,Study Guide,,,,,,,0,,
12636501,1451211783,A New Don Rises,9781451211788,,,,ES,2010/5/17,America Star Books,,false,1,12636501,0,0,0,0,2010/5/17,,,0,0,0,0,0,0.00,262,Paperback,,0,0,Louis Artalona,,,,,,,0,,
12637001,,An essay on the origin and prospects of man,2940017636930,,,,ES,,,,true,6,12637004,0,0,0,0,2010/10/14,,,0,0,0,0,0,0.00,,,,0,0,Thomas Hope,,,,,,,0,,
12638501,,EPICTETO: TESTEMUNHOS E FRAGMENTOS,2940033314881,,,,ES,,,,true,1,12638501,0,0,0,0,,,,0,0,0,0,0,0.00,,,,0,0,Alfredo Julien Aldo Dinucci,,,,,,,0,,
12639501,,"A Descriptive Catalogue of Friends' Books: Or, Books Written by Members of the Society of ...",2940029760654,,,,ES,,,,true,18,7143639,0,0,0,0,2009/7/8,,book,0,0,0,0,0,0.00,,,,0,0,Joseph Smith,,,,,,,0,,
12640001,383344598X,Das erotische Spiel der Sinne: Gedichte zum Tanz zwischen Mann und Frau,9783833445989,,,,ES,2006/5/10,Books on Demand,,false,1,12640001,0,0,0,0,2006/5/10,,,0,0,0,0,0,0.00,132,Paperback,,0,0,Josef M  llner,,,,,,,0,,
12640501,,"Promenade autour du monde pendant les annes 1817, 1818, 1819 et 1820, sur les corvettes du roi l'Uranie et la Physicienne",2940027443290,,,,ES,,,,true,2,12640501,0,0,0,0,,,,0,0,0,0,0,0.00,,,,0,0,Jacques Arago,,,,,,,0,,
12642001,1844275973,Thank God It's Monday,9781844275977,,,,ES,2009/7/1,Scripture Union (UK),,true,9,1802088,124,236,57,6,2001/8/1,Thank God It's Monday : Ministry In The Workplace,book,21,24,11,1,0,4.14,180,ebook,,13,0,Mark Greene,,,,,,36,4,8,"christian,christianity,non-fiction,religion"
12643001,8888960465,Superheroes Decadence,9788888960463,,,,ES,,,,false,1,12643001,3,0,0,0,2008/1/1,,,0,0,0,0,0,0.00,,,,0,0,Donald Soffritti,,,,,,1,0,,
12643501,1609830415,2012 International Residential Code for One- And Two- Family Dwellings,9781609830410,,,,ES,2011/7/13,International Code Council,,false,2,12432414,18,42,11,1,2011/7/15,,,4,3,3,0,1,3.82,,Loose-Leaf,,0,0,Anonymous,,,,,,9,0,,
12644501,,Charles Demailly,2940030402086,,,,ES,,,,true,10,13604085,10,10,3,0,1860/1/1,,book,1,0,1,1,0,3.33,,,,0,0,"Edmond de Goncourt,Jules de Goncourt",,,,,,5,2,,"classics,fiction"
12645001,3655189737,Cluthe's Advice to the Ruptured,9783655189733,,,,ES,,,eng,true,3,12645001,0,0,0,0,2009/1/1,,,0,0,0,0,0,0.00,,,,0,0,Chas. Cluthe & Sons,,,,,,,0,,
12645501,1232763292,"Edats de L'Esser Huma: Adolescencia, Infantesa, Joventut, Nado, Nounat, Vellesa, Malaltia D'Alzheimer, Nen",9781232763291,,,,ES,2011/8/5,"Books LLC, Wiki Series",,false,1,12645501,0,0,0,0,2011/8/28,,,0,0,0,0,0,0.00,,Paperback,,0,0,Source Wikipedia,,,,,,,0,,
12646501,,"Take Me, I'm Yours",2940011411915,,,,ES,,,,true,8,593364,465,704,209,12,2002/4/1,"Take Me, I'm Yours",book,28,67,81,20,13,3.37,,,,0,0,Elizabeth Bevarly,,,,,,171,11,4,"adult,chick-lit,contemporary,fiction,funny,humor,romance"
12647001,0812444019,Mummies Made in Egypt,9780812444018,,,,ES,1985/9/1,Perfection Learning,,false,9,263839,898,1835,465,46,1979/1/1,Mummies Made in Egypt (Reading Rainbow Book),book,167,150,115,22,11,3.95,,Hardcover,,1,1,Aliki,,,,,,266,11,6,"childrens,historical,history,international,mythology,non-fiction,picture-books,reference,school,teaching"
12647501,,"Two new species of a little known genus Myrmecina Curtis (Insecta: Hymenoptera: Formicidae) from Kerala, India.",2940017924891,,,,ES,,,,true,1,12647501,0,0,0,0,,,,0,0,0,0,0,0.00,,,,0,0,R.N. Tiwari,,,,,,,0,,
12649001,0749461268,The Study Skills Guide: Essential Strategies for Smart Students,9780749461263,,,,ES,2010/10/20,Kogan Page,eng,false,2,12649001,19,8,2,1,2010/9/3,,book,1,0,1,0,0,4.00,208,Paperback,,2,1,"Jacqueline Connelly,Patrick Forsyth",,,,,,9,0,,
12649501,,An Advanced Catechism of Catholic Faith and Practice: Based Upon the Third Plenary Council ...,2940018219842,,,,ES,,,,true,5,12649501,1,2,1,0,1901/1/1,,,0,0,0,1,0,2.00,,,,1,0,Thomas J. O'Brien,,,,,,,0,,
12651001,1604442115,Real Ghost Stories,9781604442113,,,,ES,2010/5/16,Indoeuropeanpublishing.com,,false,62,20323681,831,936,270,6,1921/1/1,,book,83,48,80,30,29,3.47,184,Paperback,,0,0,William T. Stead,,,,,,423,12,84,"amazon,classics,collections,english-literature,fantasy,fiction,ghosts,horror,mystery,mystery-thriller,non-fiction,paranormal,short-stories"
12651501,,Like a black rose: Biografie einer Domina,9783833488054,,,,ES,2008/1/7,Books on Demand,,false,1,12651501,0,0,0,0,2008/1/7,,,0,0,0,0,0,0.00,212,Hardcover,,0,0,Yadi Pearl,,,,,,,0,,
12652001,1232283738,"Traeer: Trae, Lovtraeer, Fyr I Danmark, Aedelgran I Danmark, Tempeltrae, Almindelig Bog, Selje-Pil, Navr, Traegraense, Have-Lon, Hvid-Pil",9781232283737,,,,ES,2011/8/9,"Books LLC, Wiki Series",,false,1,12652001,0,0,0,0,2011/8/28,,,0,0,0,0,0,0.00,88,Paperback,,0,0,Source Wikipedia,,,,,,,0,,
12652501,2124848119,Terminologie: constitution des données.,9782124848119,,,,ES,1991/10/1,AFNOR,,false,1,12652501,3,0,0,0,1991/10/1,,,0,0,0,0,0,0.00,,,,0,0,"Daniel Gouadec,Gouadec",,,,,,2,0,,
12653001,1463623852,Backpacked: A Reluctant Trip Across Central America,9781463623852,,,,ES,2011/8/31,Createspace,,false,4,12500815,1581,2677,729,85,2011/8/28,,book,157,270,229,52,21,3.67,278,Paperback,,5,2,Catherine Ryan Howard,,,,,,740,15,22,"adventure,amazon,autobiography,biography,biography-memoir,history,humor,memoir,non-fiction,travel"
12653501,1459271475,"Have Bride, Need Groom",9781459271470,,,,ES,2011/7/15,Harlequin Treasury-Silhouette Desire 90s,,true,10,2403758,62,100,25,2,1997/2/1,"Have Bride, Need Groom",book,10,6,8,1,0,4.00,,ebook,,1,0,Maureen Child,,,,,,30,0,,romance
12654001,,Sidhe's Call,2940011471575,,,,ES,,,,true,5,12363749,430,110,28,6,2011/8/10,,book,10,9,6,3,0,3.93,,,,0,0,Christy G. Thomas,,,,,,79,9,-2,"fantasy,fiction,young-adult"
12654501,,Auction of To-day,2940012009739,,,,ES,,,,true,7,18349199,1,0,0,0,2008/3/18,,,0,0,0,0,0,0.00,,,,0,0,Milton C. Work,,,,,,1,0,,
12655001,1459603451,Andrew Fisher: An Underestimated Man (Large Print 16pt),9781459603455,,,,ES,2010/9/1,ReadHowYouWant,,false,3,9250454,5,3,1,0,2009/9/1,,book,0,0,1,0,0,3.00,668,Paperback,,0,0,Peter Bastian,,,,,,4,0,,
12655501,1442956194,Strategic Business Partner: Aligning People Strategies with Business Goals (Easyread Large Edition),9781442956193,,,,ES,,,,false,4,564440,54,71,17,1,2005/1/1,Strategic Business Partner: Aligning People Strategies with Business Goals,,4,12,1,0,0,4.18,,,Large Print,0,0,Dana Gaines Robinson,,,,,,17,0,11,business
12657001,1453754598,Cosmic Conspiracy: Psychic to the Rich & Famous,9781453754597,,,,ES,2011/2/5,Createspace,,false,2,12657001,13,16,4,1,2011/2/5,,,1,2,1,0,0,4.00,418,Paperback,,2,0,Patricia McLaine,,,,,,6,1,2,non-fiction
12657501,9775827094,صور من حياة الصحابيات,,,,,ES,2010/1/1,دار الأدب الإسلامي,ara,false,1,12657501,1839,2039,478,95,2010/1/1,صور من حياة الصحابيات,book,234,158,70,11,5,4.27,123,Paperback,,478,95,عبد الرحمن رأفت الباشا,,,,,,1164,3,40,"non-fiction,religion"
12658001,0806171847,Cry of the Thunderbird: The American Indian's Own Story,9780806171845,,,,ES,,,eng,false,5,9703243,68,48,15,1,1950/1/28,,book,2,3,7,2,1,3.20,,,,1,0,Charles Hamilton Jr.,,,,,,16,-1,-1,"anthropology,memoir,reference"
12658501,1233458833,"Da T Ng Shi: Onegai T Ch, Onegai Tsuinzu, G O Laidamu, Ren K Shen Ming G Ng, Mu Qi Hu, Lu D O Qi Ngsuk Ch Ng",9781233458837,,,,ES,2011/9/7,"Books LLC, Wiki Series",,false,1,12658501,0,0,0,0,2011/9/28,,,0,0,0,0,0,0.00,,Paperback,,0,0,Source Wikipedia,,,,,,,0,,
12660501,,An Average American Army Officer: An Autobiography,2940023974231,,,,ES,,,,true,4,12660501,0,0,0,0,,,,0,0,0,0,0,0.00,,,,0,0,Roger Bates Bryan,,,,,,,0,,
12661001,1243022647,"Female Comics Writers, Including: Rumiko Takahashi, Tove Jansson, Tamora Pierce, Patricia Highsmith, Nancy A. Collins, AI Yazawa, Alison Bechdel, Lynn Johnston, Amber Benson, Melinda Gebbie, Colleen Doran, Lynda Barry, Karen Berger, Marjane Satrapi",9781243022646,,,,ES,2011/8/29,Hephaestus Books,,false,1,12661001,14,14,3,0,2011/8/29,,,2,1,0,0,0,4.67,,Paperback,,3,0,Hephaestus Books,,,,,,15,0,,
12662001,,The forging of passion into power,2940018473688,,,,ES,,,,true,10,9227152,2,3,1,0,2005/1/1,The Forging of Passion into Power,,0,0,1,0,0,3.00,,,,0,0,Mary Everest Boole,,,,,,1,0,,
12664501,8303028359,"Cmentarze ewangelickie w Warszawie: Cmentarz Ewangelicko-Augsburski, Cmentarz Ewangelicko-Reformowany",9788303028358,,,,ES,1989/1/1,Krajowa Agencja Wydawnicza,pol,false,1,12664501,2,6,2,0,1989/1/1,"Cmentarze ewangelickie w Warszawie: Cmentarz Ewangelicko-Augsburski, Cmentarz Ewangelicko-Reformowany",book,0,0,2,0,0,3.00,268,Paperback,,2,0,Eugeniusz Szulc,,Tadeusz Rudkowski,,,,,0,,
12665001,1446075087,Hispano-Moresque Ware of the XV. Century - A Contribution to Its History and Chronology Based Upon Armorial Specimens,9781446075081,,,,ES,,,,false,1,12665001,0,0,0,0,2011/7/14,,,0,0,0,0,0,0.00,,,,0,0,Albert Van Put,,,,,,,0,,
12666501,,The truth of Christianity: being an examination of the more important arguments for and against believing in that religion,2940022015881,,,,ES,,,,true,26,27006224,1,0,0,0,2014/7/21,,book,0,0,0,0,0,0.00,,,,0,0,William Harry Turton,,,,,,1,0,,
12667501,1117878783,The Columbian Recipes,9781117878782,,,,ES,2010/3/11,BCR (Bibliographical Center for Research),,false,2,12667501,0,0,0,0,2009/11/24,,,0,0,0,0,0,0.00,,Paperback,,0,0,Main Street Methodist Episcopal Church (,,,,,,,0,,
12668001,8426362060,El Diario de La/ The Diary of La,9788426362063,,,,ES,,,,false,2,9963709,11,20,7,1,2007/3/16,,,0,2,3,1,1,2.86,,,,0,0,Roberto Piumini,,,,,,1,0,,
12669001,,Still Life (Wildside #4),2940012850119,,,,ES,,,eng,true,4,609555,223,367,95,2,2004/1/1,Still Life (Wildside Romance 4),book,32,27,30,3,3,3.86,,,,0,0,Melanie Jackson,,,,,,75,-12,1,"fiction,historical,paranormal,romance,suspense,urban-fantasy"
12670001,,The Doctrine of Election,2940011847967,,,,ES,,,,true,9,12670001,177,315,70,7,2010/12/10,,,47,15,4,4,0,4.50,,,,19,5,Arthur W. Pink,,,,,,56,1,35,"christian,christianity,faith,theology"
12671001,1931465355,Humpty Dumpty: And Other Favorites [With Toy],9781931465359,,,,ES,,,,false,3,12671000,0,0,0,0,2002/5/28,,,0,0,0,0,0,0.00,,,,0,0,,,,,,,,0,,
12671501,0812422112,The Bully of Barkham Street,9780812422115,,,,ES,1985/10/1,Perfection Learning,,false,8,998976,235,442,112,20,1963/1/1,The Bully of Barkham Street,book,37,41,26,7,1,3.95,,Hardcover,,0,0,Mary Stolz,,,,,,76,8,5,"childrens,fiction,historical,middle-grade,realistic-fiction,school,young-adult"
12672001,,A Brace of Partridges: A Farcical Comedy in Three Acts,2940023992716,,,,ES,,,,true,4,12672001,0,0,0,0,,,,0,0,0,0,0,0.00,,,,0,0,Robert Ganthony,,,,,,,0,,
12673501,1459270851,Change of Heart,9781459270855,,,,ES,2011/7/15,Harlequin Treasury-Harlequin Temptation 90s,,true,6,3619596,18,17,5,0,1997/1/1,,book,1,0,4,0,0,3.40,224,ebook,,0,0,Janice Kaiser,,,,,,10,0,,"contemporary,romance"
12674001,1459272633,One Christmas Knight,9781459272637,,,,ES,2011/7/15,Harlequin Treasury-Silhouette Intimate Moments 90s,,true,6,3075649,141,168,45,10,1997/11/1,"One Christmas Knight (The Sisters Waskowitz, #1)",book,10,17,15,2,1,3.73,256,ebook,,2,0,Kathleen Creighton,,,,,,28,7,3,"adult,christmas,contemporary,fiction,novels,romance"
12674501,1231349093,"Hovratter I Sverige: Svenska Hovrattspresidenter, Svenska Hovrattsrad, Magnus Gabriel de La Gardie, Per Brahe D.Y., Gota Hovratt",9781231349090,,,,ES,2011/8/3,"Books LLC, Wiki Series",,false,1,12674501,0,0,0,0,2011/8/3,,,0,0,0,0,0,0.00,,Paperback,,0,0,Source Wikipedia,,,,,,,0,,
12675501,0738587966,The Lockheed Plant (Images of America: Georgia),9780738587967,,,,ES,2011/9/5,Arcadia Publishing,eng,false,2,12675501,8,16,4,0,2011/9/5,The Lockheed Plant (Images of America: Georgia),book,1,2,1,0,0,4.00,128,Paperback,,4,0,Joe Kirby,,,,,,4,0,,history
12676001,,Les premiers jours du Protestantisme en France depuis sou origine jusqu'au ...,2940031374092,,,,ES,,,,true,1,12676001,0,0,0,0,,,,0,0,0,0,0,0.00,,,,0,0,Henri de Triqueti,,,,,,,0,,
12676501,1232434191,"Animenosupin'ofu Zuo P N: N Suu Itchi XI O Maichanmajikarute, Dou Ji Ng!! L Mian Nan, Seinto B Suto, Kujibikianbaransu, Canaan",9781232434191,,,,ES,2011/9/9,"Books LLC, Wiki Series",,false,1,12676501,1,0,0,0,2011/9/28,,,0,0,0,0,0,0.00,,Paperback,,0,0,Source Wikipedia,,,,,,1,0,,
12677501,0956798217,Kafka... For Our Time: The Journeys Of Discovery,9780956798213,,,,ES,,,,false,1,12677501,4,0,0,0,2011/7/1,,,0,0,0,0,0,0.00,,,,0,0,Michael Major,,,,,,4,0,,
12679001,1554734800,Mexican Hat Dance: Score & Parts,9781554734801,,,,ES,2009/12/1,Alfred Music,,false,5,12679001,0,0,0,0,2009/5/1,,,0,0,0,0,0,0.00,16,Paperback,,0,0,,,David Marlatt,,,,,0,,
12680501,1617140619,Texas Rangers,9781617140617,,,,ES,2011/1/1,Sportszone,,false,5,12680501,5,4,1,0,2011/1/1,,,0,1,0,0,0,4.00,48,Hardcover,,1,0,Ryan Basen,,,,,,2,0,,
12681001,,La Corona de Arag,2940031626344,,,,ES,,,,true,1,12681001,0,0,0,0,,,,0,0,0,0,0,0.00,,,,0,0,Andrés Giménez Soler,,,,,,,0,,
12681501,0268007969,Culture and Commitment: The Challenge of Today's University,9780268007966,,,,ES,1992/1/1,University of Notre Dame Press,,false,1,12681501,0,0,0,0,1992/12/1,,,0,0,0,0,0,0.00,149,Hardcover,,0,0,Edward A. Malloy,,,,,,,0,,
12684001,3407783647,Minona,9783407783646,,,,ES,1999/10/1,Beltz,,false,1,12684001,4,6,2,0,1999/10/1,,,0,0,2,0,0,3.00,,Paperback,,2,0,Kurt Wasserfall,,,,,,,0,,
12685001,,O Amor Natural,9788501064592,,,,ES,2009/1/1,Record,por,false,9,570148,338,823,199,12,1992/1/1,O amor natural,book,86,70,29,12,2,4.14,139,Paperback,,4,0,Carlos Drummond de Andrade,,,,,,94,2,4,poetry
12685501,1111192502,Understanding Abnormal Behavior-Package,9781111192501,,,,ES,,,,false,30,6772896,278,371,100,4,1981/1/1,Understanding Abnormal Behavior,book,23,35,33,8,1,3.71,,,,1,0,"David Sue,Derald Wing Sue,Stanley Sue",,,,,,18,3,7,"academic,college,health,non-fiction,psychology,reference,school,science"
12686501,1432775081,Good Tales,9781432775087,,,,ES,2011/8/1,Outskirts Press,,false,2,20693583,3,8,2,1,2011/8/9,,,1,0,1,0,0,4.00,168,Paperback,,0,0,Louis Winslow,,,,,,1,0,,
12687001,1455821217,We Are All Weird: The Myth of Mass and The End of Compliance,9781455821211,,,,ES,2011/9/21,Brilliance Audio,,false,4,12685968,6405,11517,3205,269,2011/1/1,,book,732,1020,986,352,115,3.59,,Audio CD,,7,2,Seth Godin,,,,,,2525,19,162,"adult,business,economics,education,leadership,non-fiction,personal-development,philosophy,psychology,science,self-help,society,sociology"
12687501,1615423095,Take Control of Textexpander,9781615423095,,,,ES,2012/7/31,Tidbits Publishing,,true,9,12221595,31,60,17,2,2011/6/6,,book,1,8,7,1,0,3.53,100,ebook,,0,0,Michael E. Cohen,,,,,,10,0,2,
12688001,184158326X,Camanachd!: The Story of Shinty,9781841583266,,,,ES,2004/11/1,Birlinn Ltd,,false,1,12688001,7,17,4,0,2004/11/1,,,2,1,1,0,0,4.25,224,Paperback,,4,0,Roger Hutchinson,,,,,,2,0,,sports
12688501,,Poesie di Ossian: antico poeta celtico,2940038798303,,,,ES,,,,true,38,9589752,323,225,66,7,1760/1/1,The Poems of Ossian,book,10,22,24,5,5,3.41,,,,0,0,James MacPherson,,,,,,202,8,19,"classics,fiction,historical,historical-fiction,history,literature,mythology,non-fiction,poetry"
12689501,,Selected Poems of Charles Hanson Towne,,,,,ES,1925/1/1,D. Appleton & Co.,eng,false,1,12689501,3,4,1,0,1925/1/1,Selected Poems of Charles Hanson Towne,book,0,1,0,0,0,4.00,139,Hardcover,,1,0,Charles Hanson Towne,,,,,,2,0,,
12690001,0439165210,Prepack:    Tales (prepack),9780439165211,,,,ES,2001/2/1,Teaching Resources,,false,1,12690001,2,0,0,0,2001/2/1,,book,0,0,0,0,0,0.00,26,Paperback,,0,0,NOT A BOOK,,,,,,,0,,
12691001,,Best Ever Greek: A Collection of Over 100 Essential Recipes,9781445432465,,,,ES,,,eng,false,1,12691001,2,4,1,0,,Best Ever Greek: A Collection of Over 100 Essential Recipes,book,0,1,0,0,0,4.00,240,Paperback,,1,0,Parragon Publishing,,,,,,,0,,cookbooks
12692001,,"Boreales, miniaturas y porcelanas",2940031419977,,,,ES,,,,true,8,12692006,4,4,2,0,2010/1/10,,,0,0,0,2,0,2.00,,,,0,0,Clorinda Matto de Turner,,,,,,1,0,1,
12692501,0521179629,"The Holstein Papers: The Memoirs, Diaries and Correspondence of Friedrich Von Holstein 1837 1909",9780521179621,,,,ES,2010/12/6,Cambridge University Press,,false,1,12692501,3,8,2,0,1961/1/2,,book,1,0,1,0,0,4.00,428,Paperback,,2,0,Friedrich von Holstein,,,"M.H. Fisher,Norman Rich",,,1,1,,
12693501,2070564657,"Cinema: Affiches, 1925 1942",9782070564651,,,,ES,1989/6/5,Gallimard,,false,1,12693501,1,0,0,0,1989/6/5,,,0,0,0,0,0,0.00,70,,,0,0,"Jean Mercier,Jean-Olivier Héron,Peter Kindersley,Pierre Marchand",,,,,,1,0,,
12694001,2226149821,Sexe Et Sentiments: Version Homme,9782226149824,,,,ES,,,,false,1,12694001,1,3,1,0,2004/1/1,,,0,0,1,0,0,3.00,,,,1,0,"Rica Etienne,Sylvain Mimoun",Philippe Savary,,,,,,0,,self-help
12695001,,Alexandra Feodorowna: Kaiserin von Russland,2940034040888,,,,ES,,,,true,1,12695001,0,0,0,0,,,,0,0,0,0,0,0.00,,,,0,0,August Theodor von Grimm,,,,,,,0,,
12695501,1157601510,"Haiti Introduction: Damballa, Baron La Croix, Agwe, Ayida-Weddo, Baron Cimetiere, Maman Brigitte, Ti Malice and Bouki, Marassa Jumeaux, Guinee",9781157601517,,,,ES,2011/6/25,"Books LLC, Wiki Series",,false,1,12695501,1,0,0,0,2011/6/28,,,0,0,0,0,0,0.00,,Paperback,,0,0,"Books LLC,Source Wikipedia",,,,,,1,0,,
12696501,9628711237,Taj Mahal,9789628711239,,,,ES,,,,false,1,12696501,0,0,0,0,,,,0,0,0,0,0,0.00,,,,0,0,Local Colour,,,,,,,0,,
12697501,160911714X,"A Call of Fate: An Adventure Through the Psychological Maze of True-To-Life, Modern Love and Romance",9781609117146,,,,ES,2010/10/14,Eloquent Books,,false,2,21294861,0,0,0,0,2010/10/14,,,0,0,0,0,0,0.00,338,Paperback,,0,0,Mojibur Rahman,,,,,,,0,,
12698001,0801817366,Work and Welfare in New York City,9780801817366,,,,ES,,,,false,2,4719589,0,0,0,0,1975/9/1,Work and Welfare in New York City (Policy Studies in Employment and Welfare; No. 21),,0,0,0,0,0,0.00,,,,0,0,"Anna B. Dutka,Eli Ginzberg,Miriam Ostow",,,,,,,0,,
12698501,1233148362,"America's Cup Regattas: 1987 America's Cup, Citizen Cup, International America's Cup Class, Louis Vuitton Regattas, Dennis Conner",9781233148363,,,,ES,2011/8/20,"Books LLC, Wiki Series",,false,1,12698501,0,0,0,0,2011/8/28,,,0,0,0,0,0,0.00,,Paperback,,0,0,Source Wikipedia,,,,,,,0,,
12700501,,A Woman Of Thirty,,B00466H6E2,,,ES,,,,true,221,267910,6429,10214,2938,170,1834/1/1,La Femme de trente ans,book,548,912,993,362,123,3.48,,,,0,0,Honoré de Balzac,,,,Ellen Marriage,,2401,15,207,"classic-literature,classics,drama,feminism,fiction,france,historical,historical-fiction,literature,novels,romance"
12701001,,"Giving Up: Truth or Dare, Book 3",2940011495236,,,,ES,,,eng,true,5,12293771,362,568,162,31,2011/8/4,Giving Up,book,33,45,59,21,4,3.51,,,,0,0,Lee Brazil,,,,,,137,21,1,"bdsm,contemporary,erotica,family,novella,romance,short-stories"
12701501,,Игрок,9788723906335,,,,ES,2009/1/1,Egmont Easy Readers,rus,false,802,12857,77661,163546,42143,2005,1866/3/10, Игрок ,book,10866,17952,11091,1901,333,3.88,184,Paperback,,1,0,Fyodor Dostoyevsky,,,,,,23397,51,2013,"classic-literature,classics,drama,fiction,historical-fiction,literary-fiction,literature,novella,novels,philosophy,psychology,romance,short-stories"
12702501,,Easy questions for beginners in English and Chinese,2940017287446,,,,ES,,,,true,5,18347646,0,0,0,0,2013/2/15,,,0,0,0,0,0,0.00,,,,0,0,Otis Gibson,,,,,,,0,,
12703001,157486100X,Family Living: Simply Delicious Party Snacks,9781574861006,,,,ES,2009/4/1,Riverwood Press,,false,1,12703001,2,0,0,0,2009/4/1,,,0,0,0,0,0,0.00,48,Paperback,,0,0,,,,,,,2,0,,
12704501,,Recueil complet des travaux pre,2940027328184,,,,ES,,,,true,4,12704496,0,0,0,0,,,,0,0,0,0,0,0.00,,,,0,0,P.A. Fenet,,,,,,,0,,
12705001,8129110342,"Durga Puja: Celebrating the Goddess, Then and Now",9788129110343,,,,ES,2006/2/2,Rupa,,false,1,12705001,5,5,1,0,2006/2/2,,,1,0,0,0,0,5.00,85,Hardcover,,1,0,"Sudeshna,Sudeshna Banerjee",,,,,,2,0,1,
12706001,0882791060,Blue Book of the John Birch Society,9780882791067,,,,ES,,,,false,1,12706001,0,0,0,0,1961/1/1,,,0,0,0,0,0,0.00,,,,0,0,Robert Welch,,,,,,,0,,
12706501,1456751166,History of Computer Graphics: Dlr Associates Series,9781456751166,,,,ES,2011/4/1,Authorhouse,,false,3,12706503,1,1,1,1,2011/4/12,,,0,0,0,0,1,1.00,389,Hardcover,,0,0,Dan  Ryan,,,,,,,0,,
12707001,0758280491,"Peach Cobbler Murder (Hannah Swensen, #7)",9780758280497,,,,ES,2011/10/1,Kensington,eng,false,27,33438,20168,48262,12316,593,2005/1/1,Peach Cobbler Murder,book,3709,4565,3450,515,77,3.92,360,Paperback,,38,6,Joanne Fluke,,,,,,3739,69,164,"adult,adult-fiction,chick-lit,contemporary,cookbooks,cooking,cozy-mystery,crime,detective,fiction,food,humor,murder-mystery,mystery,mystery-thriller,romance,suspense"
12708501,,The Curious Case of Marie Dupont,2940019947683,,,,ES,,,,true,1,12708501,0,0,0,0,,,,0,0,0,0,0,0.00,,,,0,0,Decorative Designers Adele Luehrmann,,,,,,,0,,
12710001,,"The Butterfly Forest (Sean O'Brien, #3)",,B005NIY0ZK,,,ES,2011/10/20,Kingsbridge Entertainment,en-US,true,7,23234908,4778,8203,2096,226,2011/10/1,The Butterfly Forest,book,669,785,477,122,43,3.91,448,,,1192,64,Tom  Lowe,,,,,,1549,34,683,"crime,detective,drama,fiction,murder-mystery,mystery,mystery-thriller,romance,suspense,thriller"
12710501,,The Great Detective & The Missing Footballer,,,,,ES,,,eng,false,4,12710501,5,6,3,1,,,book,0,0,1,1,1,2.00,42,,,3,1,Gurmeet Mattu,,,,,,2,0,,
12711001,,"Live Without Worries (Spirituality, Meditation & Self Help Guaranteed Solutions Series)",2940012762115,,,,ES,,,eng,true,3,12711001,45,73,15,1,2011/9/1,,book,13,2,0,0,0,4.87,,,,9,1,Paramahamsa Nithyananda,,,,,,22,0,1,
12711501,3453155904,Der Krieg Der Käuze Roman,9783453155909,,,,ES,,,ger,false,10,6491739,226,440,115,12,1989/1/1,The Ancient Solitary Reign,book,33,41,32,6,3,3.83,,Paperback,,2,0,Martin Hocke,,,,,,26,5,1,"adventure,animals,fantasy,fiction"
12712001,,Beautifully Ugly People!,2940012591791,,,,ES,,,,true,2,20742954,28,12,4,0,2009/4/1,,,0,2,1,0,1,3.00,,,,1,0,"Darell Threeths,Michael D. Beckford,Shantae Charles,Tracey Leggett",,,,,,22,0,,
12713001,,"A friendly discussion upon religious subjects: compiled from a work entitled, Mr. Durant of Salt Lake City",2940018794639,,,,ES,,,,true,3,12713001,1,2,1,0,2015/8/8,,,0,0,0,1,0,2.00,,,,1,0,Ben E. Rich,,,,,,,0,,
12713501,,Turncoats Traitors And Heroes,2940026172801,,,,ES,,,,true,8,1401299,94,100,27,4,1998/3/21,Turncoats Traitors and Heroes: Espionage in the American Revolution,book,5,10,11,1,0,3.70,,,,1,1,John Bakeless,,,,,,58,3,2,"american,american-history,fiction,historical,history,non-fiction,war"
12714501,,A Sailor's Lass,2940000872819,,,,ES,,,,true,9,7633718,15,10,3,0,1886/1/1,,book,0,1,2,0,0,3.33,,,,0,0,Emma Leslie,,,,,,8,0,,
12715001,0712625151,"The Berets (Brotherhood Of War, #5)",9780712625159,,,,ES,1992/7/10,RH Canada UK Dist,eng,false,1,1052649,6642,21770,5060,37,1985/1/1,The Berets,book,2495,1728,727,92,18,4.30,416,Hardcover,,0,0,W.E.B. Griffin,,,,,,692,17,165,"action,adventure,biography,fiction,historical,historical-fiction,history,leadership,novels,thriller,war"
12716501,,Die letzte g,2940011108402,,,,ES,,,,true,1,12716501,0,0,0,0,2010/9/17,,,0,0,0,0,0,0.00,,,,0,0,Murat Kaya,,,,,,,0,,
12717501,,Saklı Kalanlar ,,,,,ES,2009/1/1,,tur,false,70,3419808,32547,58578,15469,2472,2008/4/2,The Secret Scripture,book,3867,6298,3807,1133,364,3.79,349,,,0,0,Sebastian Barry,,,,,,13428,128,923,"adult,adult-fiction,contemporary,cultural,drama,family,fiction,historical,historical-fiction,history,literary-fiction,literature,mental-health,mental-illness,modern,mystery,novels,psychology,relationships,religion,romance,unfinished,war"
12718501,,Inferiority,2940013075351,,,,ES,,,,true,4,12718501,3,0,0,0,2011/8/31,,,0,0,0,0,0,0.00,,,,0,0,"Italo Svevo,John Penuel",,,,,,2,0,,
12719001,,Onze,9789720043207,,,,ES,2011/1/1,Porto Editora,por,false,28,8466327,9234,13242,3635,339,2010/1/1,Eleven,book,652,1475,1140,294,74,3.64,264,Paperback,,19,4,Mark Watson,,,,Alcinda Marinho,,2893,38,60,"adult,adult-fiction,british-literature,chick-lit,comedy,contemporary,drama,fiction,funny,humor,literary-fiction,literature,love,modern,novels,realistic-fiction,relationships,romance"
12719501,,De opleiding van den handwerksman,2940036023780,,,,ES,,,,true,1,12719501,0,0,0,0,2010/4/28,,,0,0,0,0,0,0.00,,,,0,0,Martin Frederik Onnen,,,,,,,0,,
12720001,1587063301,Prebiotic Evolution And Astrobiology,9781587063305,,,,ES,2009/5/1,CRC Press,,false,1,12720001,6,10,2,0,2009/2/1,,,2,0,0,0,0,5.00,158,Paperback,,2,0,J. Tze-Fei Wong,,Antonio Lazcano,,,,4,0,,
12722501,,The doctor,2940019896769,,,,ES,,,,true,1,12722501,1,0,0,0,,,,0,0,0,0,0,0.00,,,,0,0,Isabel Cameron,,,,,,1,0,,
12723001,1243791837,"Articles on People from Salem, Oregon, Including: Larry Norman, John Zerzan, Justin Kirk, Lee Eyerly, Alfred Carlton Gilbert, Donald Walters, George P. Putnam, Oswald West, Cathy McMorris Rodgers, Charles L. McNary, Randall Woodfield",9781243791832,,,,ES,2011/9/9,Hephaestus Books,,false,1,12723001,0,5,1,0,2011/9/9,,,1,0,0,0,0,5.00,,Paperback,,1,0,Hephaestus Books,,,,,,2,0,,
12725001,0759628505,I Can't Keep My Eyes Off the Clouds,9780759628502,,,,ES,2001/6/1,Authorhouse,,false,2,12725001,0,0,0,0,2001/6/1,,,0,0,0,0,0,0.00,87,Paperback,,0,0,"George Dillman,Val Waldeck",,,,,,,0,,
12725501,4004301157,中国の音楽世界,9784004301158,,,,ES,1990/3/20,Iwanami Shoten,,false,1,12725501,1,0,0,0,1990/3/20,,book,0,0,0,0,0,0.00,196,,,0,0,Son Genrei,,,,,,1,0,,
12726501,8877829419,Anonymus Rex: Romanzo,9788877829412,,,,ES,,,ita,false,15,315613,2086,3694,1036,124,1999/7/27,,book,189,374,341,98,34,3.57,,,,8,1,Eric Garcia,,,,,,747,11,37,"action,comedy,cozy-mystery,crime,detective,fantasy,fiction,funny,humor,mystery,mystery-thriller,novels,paranormal,science-fiction,speculative-fiction,urban-fantasy"
12728001,1602826749,Sara,9781602826748,,,,ES,2012/7/17,Bold Strokes Books,,false,3,12728001,62,81,21,6,2012/6/30,,book,4,11,5,1,0,3.86,264,Paperback,,20,6,Greg Herren,,,,,,31,2,,"fantasy,gay,horror,lgbt,mystery,paranormal"
12729001,0321403436,Basic College Mathematics,9780321403438,,,,ES,,,,false,49,7410920,182,88,24,1,1997/9/1,,book,8,5,8,1,2,3.67,,,,0,0,"Diana L. Hestwood,Margaret L. Lial,Stanley A. Salzman,Toby Miller",,,,,,60,0,51,"education,reference,textbooks"
12729501,0203169549,Times of the Technoculture,9780203169544,,,,ES,,,,true,10,12646786,27,32,8,2,1999/5/13,,,3,3,1,1,0,4.00,,,,0,0,"Frank Webster,Kevin Robins",,,,,,14,0,1,education
12730501,,Robur the Conqueror,,B004L9L5W8,,,ES,,,,true,32,376957,2774,4606,1317,76,1886/8/23,Robur le Conquérant,book,246,382,506,147,36,3.50,,,,0,0,Jules Verne,,,,,,1055,14,32,"adventure,classic-literature,classics,fantasy,fiction,literature,novels,science,science-fiction,science-fiction-fantasy,speculative-fiction,steampunk"
12731001,,Henkilöstöasiantuntijan käsikirja,9789522460189,,,,ES,2009/1/1,Kauppakamari,fin,false,1,12731001,7,5,2,0,2009/1/1,,book,0,0,1,1,0,2.50,316,Paperback,3. painos,2,0,Maritta Österberg,,,,,,3,0,,"business,non-fiction"
12731501,4106100908,Ima Sugu Dekiru Taishitsu Kaizen No Shinjōshiki,9784106100901,,,,ES,,,,false,1,12731501,1,0,0,0,2004/1/1,,,0,0,0,0,0,0.00,,,,0,0,"Hiroshi Osanai,高木 亜由子",,,,,,1,0,,science
12732001,1856445747,Ll,9781856445740,,,,ES,,,,false,1,12732001,0,0,0,0,2005/1/28,,,0,0,0,0,0,0.00,,,,0,0,M.I. Morgan,,,,,,,0,,
12732501,1463791720,California Test Prep Grade 5 English Language Arts Workbook: Star Reading and Writing,9781463791728,,,,ES,2011/8/1,Createspace,,false,1,12732501,1,3,1,0,2011/8/10,,,0,0,1,0,0,3.00,132,Paperback,,1,0,Test Master Press California,,,,,,,0,,
12733501,,Elphinstone's Introduction to conveyancing: with an appendix dealing with registered land,2940018563921,,,,ES,,,,true,9,37061213,0,0,0,0,2015/8/9,,,0,0,0,0,0,0.00,,,,0,0,Howard Warburton Elphinstone,,,,,,,0,,
12735001,,Bearers of Bad News,,B005P49EMG,,,ES,,,,true,2,12735001,2,8,2,1,2011/9/23,,,0,2,0,0,0,4.00,,,,2,1,Michael McDuffee,,,,,,,0,,
12736001,1232808903,"Hardrockgrupper: Scorpions, Deep Purple, Kiss, Airbourne, Acdc, Vanilla Fudge, Rainbow, Stage Dolls, the Jimi Hendrix Experience, Stryper",9781232808909,,,,ES,2011/8/5,"Books LLC, Wiki Series",,false,1,12736001,0,0,0,0,2011/8/28,,,0,0,0,0,0,0.00,,Paperback,,0,0,Source Wikipedia,,,,,,,0,,
12736501,,"Public Parts: How Sharing in the Digital Age is Revolutionizing Life, Business, and Society",,,,,ES,2011/9/27,Simon & Schuster Audio,eng,false,17,11238922,2657,4671,1244,101,2011/1/1,Public Parts: How Sharing in the Digital Age Improves the Way We Work and Live,book,338,427,345,104,30,3.75,,Audiobook,,19,5,Jeff Jarvis,,,,,,516,12,,"adult,amazon,business,cultural,non-fiction,philosophy,politics,psychology,science,social,society,sociology,technology"
12737001,293053818X,Ce qui nous lie,9782930538181,,,,ES,2011/9/25,Quadrature,fre,false,2,12737001,1,2,1,1,2011/9/25,Ce qui nous lie...,book,0,0,0,1,0,2.00,120,Paperback,,1,1,Gaëlle Pingault,,,,,,,0,,
12739001,1892374129,Red on the Go: A Counting Book of Red,9781892374127,,,,ES,,,,false,1,12739001,0,0,0,0,1999/8/28,,,0,0,0,0,0,0.00,,,,0,0,"Chris Shorten,Lynn Brunelle",,,,,,,0,,
12739501,4654051252,Kodomo No Yorokobu Kokugo Kuizu Ando Pazuru Ando Gēmu Kōgaku,9784654051250,,,,ES,,,,false,1,12739501,1,0,0,0,,,,0,0,0,0,0,0.00,,,,0,0,"Masaharu Suzuki,甘利 直義",,,,,,1,0,,
12740501,2913701590,Une Terre Nouvelle,9782913701595,,,,ES,,,,false,1,12740501,1,4,1,0,2004/1/1,,,0,1,0,0,0,4.00,,,,1,0,Guillaume Van Meerbeeck,,,,,,,0,,fantasy
12742501,2081223112,A La Découverte De La Littérature Arabe:  Du V Ie Siècle à Nos Jours,9782081223110,,,,ES,,,fre,false,3,12742501,14,19,5,0,2003/1/1,À la découverte de la littérature arabe: Du VIe siècle à nos jours,book,1,2,2,0,0,3.80,,,,0,0,"Heidi Toëlle,Katia Zakharia",,,,,,4,0,,
12743001,1232663034,"Nati Il 10 Aprile: William Hazlitt, Roberto Carlos Da Silva, Nicola Cabibbo, Steven Seagal, Matthew Perry, Silvio Amato, Caterina Caselli",9781232663034,,,,ES,2011/8/2,"Books LLC, Wiki Series",,false,1,12743001,1,1,1,0,2011/8/2,,,0,0,0,0,1,1.00,,Paperback,,1,0,Source Wikipedia,,,,,,,0,,
12744001,,"Opening chapter of American missionary history.: Life of Bartholomew de las Casas, of the Order of St. Dominic, protector-general of the Indians and first Bishop of Chiapa in Mexico.",2940019489190,,,,ES,,,,true,1,12744001,0,0,0,0,,,,0,0,0,0,0,0.00,,,,0,0,A. Touron,,,,,,,0,,
12744501,,Proceedings of the Territorial Bar Association of Utah,2940027633936,,,,ES,,,,true,1,12744501,0,0,0,0,,,,0,0,0,0,0,0.00,,,,0,0,"Meeting of the Territorial Bar Association of Utah,Territorial Bar Association of Utah",,,,,,,0,,
12745001,,The Conscience Pudding,,,,,ES,,,,false,7,5215947,48,74,21,7,1899/1/1,The Conscience Pudding,book,2,9,8,2,0,3.52,46,Hardcover,,1,0,E. Nesbit,,,,,,23,4,,"adventure,christmas,classics,family,fantasy,historical-fiction,humor,short-stories,young-adult"
12745501,5425034245,Kanikuly oborotnej (Russian Edition),9785425034243,,,,ES,,,,true,2,9967439,58,139,40,0,2000/1/1,Каникулы оборотней,book,9,13,10,4,4,3.48,,,,0,0,Андрей Белянин,,,,,,6,0,,"fantasy,humor,time-travel"
12746501,,"Address delivered by Hon. Allen G. Thurman before the literary societies, of the University of Virginia, at Charlottesville, Va., Wednesday, June 26th, 1872",2940017414613,,,,ES,,,,true,3,30996541,0,0,0,0,2015/9/27,,,0,0,0,0,0,0.00,,,,0,0,Allen Granbery Thurman,,,,,,,0,,
12748501,0594097061,"and Falling, Fly",9780594097068,,,,ES,,,,false,5,6591451,1877,1443,482,128,2010/1/11,"and Falling, Fly",book,72,111,119,102,78,2.99,,,,0,0,Skyler White,,,,,,1200,22,5,"adult,angels,demons,erotica,fantasy,fiction,horror,paranormal,romance,speculative-fiction,steampunk,supernatural,unfinished,urban-fantasy,vampires"
12749001,0758273932,A Christmas Wish,9780758273932,,,,ES,2011/9/1,Kensington Publishing Corporation,,true,8,12360287,266,509,136,33,2008/11/4,,,34,48,43,7,4,3.74,256,ebook,,0,0,Joseph Pittman,,,,,,70,7,9,"chick-lit,christmas,fiction,holiday,romance"
12749501,8466647422,Los niños de los cuidadores de elefantes,9788466647427,,,,ES,2011/10/1,Ediciones B,,false,53,13367230,5428,8381,2470,452,2010/9/6,Elefantpassernes børn,book,445,797,690,360,178,3.39,422,Paperback,,7,0,Peter Høeg,,,,,,2311,17,155,"adult-fiction,adventure,contemporary,crime,detective,drama,family,fantasy,fiction,funny,humor,literary-fiction,literature,magic,magical-realism,mystery,novels,religion,unfinished"
12750501,0860433145,Ambush At Soda Creek,9780860433149,,,,ES,,,,false,5,3739975,16,24,6,0,1967/1/1,Ambush Creek,book,2,2,2,0,0,4.00,,,Large Print,0,0,Lewis B. Patten,,,,,,9,0,,
12751001,0319290255,Map:   Roman Britain (Historical Map & Guide S),9780319290255,,,,ES,,,,false,1,12751001,1,0,0,0,,,book,0,0,0,0,0,0.00,,Map,,0,0,NOT A BOOK,,,,,,,0,,non-fiction
12752501,3498064134,Die Erbschaft,9783498064136,,,,ES,2011/9/16,Rowohlt Verlag,ger,false,17,8348558,790,1487,437,78,2010/1/19,Inheritance,book,45,161,167,53,11,3.40,448,Hardcover,2nd,2,0,Nicholas Shakespeare,,,,,,148,11,11,"action,adventure,contemporary,death,english-literature,family,fiction,historical,historical-fiction,history,mystery,science,social,thriller"
12754501,,Specimens of the Fashionable Style of Ladies Handwriting Known as the ...,2940025142904,,,,ES,,,,true,1,12754501,0,0,0,0,,,,0,0,0,0,0,0.00,,,,0,0,L. MacLaurin,,,,,,,0,,
12756001,0688061664,How to Look Things Up and Find Things Out,9780688061661,,,,ES,,,,false,2,12756001,1,0,0,0,1988/1/1,How to look things up and find things out,,0,0,0,0,0,0.00,,,,0,0,Bruce L. Felknor,,,,,,1,0,,
12756501,0231158122,Lineages of Political Society: Studies in Postcolonial Democracy,9780231158121,,,,ES,2011/11/29,Columbia University Press,,false,6,12756500,82,83,21,2,2011/1/1,,book,7,6,8,0,0,3.95,296,Hardcover,,0,0,Partha Chatterjee,,,,,,51,2,6,
12757501,,The boy foresters: a tale of the days of Robin Hood,2940017890370,,,,ES,,,,true,6,27374827,0,0,0,0,2010/1/13,,,0,0,0,0,0,0.00,,,,0,0,Anne Bowman,,,,,,,0,,
12758501,3110088983,"Der Messias: Band 4 Apparat, Vol. 4",9783110088984,,,,ES,1984/1/1,,,false,1,12758501,0,0,0,0,1984/1/1,,,0,0,0,0,0,0.00,780,Hardcover,,0,0,"Elisabeth Hopker-Herberg,Friedrich Gottlieb Klopstock,Horst Gronemeyer,Klaus Hurlebusch,Rose-Maria Hurlebusch",,,,,,,0,,
12759001,,Biographie des hochberu,2940036119957,,,,ES,,,,true,1,12759001,0,0,0,0,,,,0,0,0,0,0,0.00,,,,0,0,S. I. Kaempf,,,,,,,0,,
12760501,1456433571,Astra: The Harrowing,9781456433574,,,,ES,2011/9/6,Createspace,,false,4,12760501,59,167,41,1,2011/8/29,,,12,22,6,0,1,4.07,576,Paperback,,20,1,Lisa Eskra,,,,,,12,2,,science-fiction
12761001,0485300028,"Madhouses, Mad Doctors And Madmen: The Social History Of Psychiatry In The Victorian Era",9780485300024,,,,ES,,,,false,6,5151803,47,34,9,1,1981/8/1,"Madhouses, Mad-Doctors and Madmen",book,0,7,2,0,0,3.78,,,,1,1,Andrew Scull,,,,,,31,0,-1,"historical,mental-illness,non-fiction,psychology"
12762001,3453529162,"Schattenprinz (Reich des Vampirs, #1)",9783453529168,,,,ES,2011/12/12,Heyne,ger,false,19,8140709,15456,19302,5061,772,2010/11/1,,book,1511,1865,1119,364,202,3.81,448,Paperback,,5,2,"Clay Griffith,Susan Griffith",,,,Anita Nirschl,,9360,78,92,"action,adult,adult-fiction,adventure,dark,dystopia,fantasy,fiction,historical,historical-fiction,horror,magic,paranormal,post-apocalyptic,romance,science-fiction,steampunk,supernatural,unfinished,urban-fantasy,vampires,war,young-adult"
12762501,,Le bibliophile belge,2940028162657,,,,ES,,,,true,5,11819856,0,0,0,0,,,,0,0,0,0,0,0.00,,,,0,0,Soci?t? des bibliophiles de Belgique Xavier Theux,,,,,,,0,,
12764001,,"Hell Is Above Us: The Epic Race to the Top of Fumu, the World's Tallest Mountain",2940011421709,,,,ES,,,,true,4,12764001,16,44,10,2,2011/7/1,,book,6,2,2,0,0,4.40,,,,9,1,"Jonathan Bloom,Kenneth Tersely",,,,,,5,0,,
12765501,,"Azeth, the Egyptian [by E.L. Linton].",2940024414835,,,,ES,,,,true,1,12765501,0,0,0,0,,,,0,0,0,0,0,0.00,,,,0,0,Eliza Lynn Linton,,,,,,,0,,
12766501,1610347471,Mountain Pride,9781610347471,,,,ES,,,,true,4,12529425,114,243,63,5,2011/9/2,,book,19,22,17,4,1,3.86,,,,0,0,Helena Ray,,,,,,32,6,1,"contemporary,menage,paranormal,shapeshifters"
12768001,1157971083,"Underground Computer Groups: Artscene Groups, Demo Groups, Hacker Groups, Warez Groups, Phrozen Crew, Chaos Computer Club, the Exceptions",9781157971085,,,,ES,2011/8/31,"Books LLC, Wiki Series",,false,1,12768001,1,0,0,0,2010/6/11,,,0,0,0,0,0,0.00,,Paperback,,0,0,Source Wikipedia,,,,,,1,0,,
12769001,1936587416,Be Careful What You Wish for,9781936587414,,,,ES,2011/9/1,Brighton Publishing LLC,,false,3,11362349,18,35,10,5,2011/4/28,,book,2,2,5,1,0,3.50,236,Paperback,,1,0,R.K. Avery,,,,,,3,1,,"fiction,mystery"
12770001,0307301044,5x7 Memo Board - Car,9780307301048,,,,ES,1997/8/28,Random House Children's Books,,false,1,12770001,0,0,0,0,1997/8/28,,,0,0,0,0,0,0.00,0,Paperback,,0,0,Golden Press,,,,,,,0,,
12771001,,Bumarap,,,,,ES,1947/1/1,Arrowhead,,false,1,12771001,1,2,1,0,1947/1/1,,book,0,0,0,1,0,2.00,256,Hardcover,,1,0,Samuel Roth,,,,,,,0,,
12771501,,No Good Deed [Tarot Series],2940000081112,,,,ES,,,,true,2,21105397,4,5,1,0,2004/5/1,,,1,0,0,0,0,5.00,,,,0,0,Lydia Parks,,,,,,2,1,,
12772001,0060237910,Seven Tales by H. C. Andersen,9780060237912,,,,ES,1990/10/1,HarperCollins Publishers,,false,4,380501,116,134,34,1,1959/1/1,Seven Tales by H. C. Andersen,book,11,14,6,2,1,3.94,127,Hardcover,,1,0,Hans Christian Andersen,Maurice Sendak,,,Eva Le Gallienne,,52,5,,"classics,fairy-tales,short-stories"
12773001,,"Jubilee booklet: programs and addresses : Fiftieth anniversary of Pittsburgh synod and inauguration of Reverend Edward S. Bromer to the chair of practical theology in the Theological seminary at Lancaster, Pa. Pittsburgh, Pa., October 11-15, 1921",2940018837527,,,,ES,,,,true,1,12773001,0,0,0,0,,,,0,0,0,0,0,0.00,,,,0,0,Reformed Church in the United States. Synods. Pittsburgh,,,,,,,0,,
12774001,,The Scarlet Letter ,,B005I6HYQE,,,ES,,,,true,2271,12296,962950,2133774,629607,13168,1850/3/16,The Scarlet Letter,book,112137,186542,203714,88565,38649,3.39,,,,8,0,Nathaniel Hawthorne,,,,,,214169,2975,8387,"adult,adult-fiction,american,classic-literature,classics,college,drama,feminism,fiction,high-school,historical,historical-fiction,history,literary-fiction,literature,novels,religion,romance,school,unfinished,young-adult"
12774501,,Love-In-Idleness,2940011507106,,,,ES,,,,true,5,12396579,44,81,19,3,2011/8/3,,,9,8,1,0,1,4.26,,,,0,0,Christopher Matthew Hennessy,,,,,,16,1,,poetry
12775501,,Liber informationum et sententiarum: cili naucen,2940038272896,,,,ES,,,,true,1,12775501,0,0,0,0,,,,0,0,0,0,0,0.00,,,,0,0,Brno . Ign,,,,,,,0,,
12776501,0965987310,Birthing from Within: An Extra-Ordinary Guide to Childbirth Preparation,9780965987318,,,,ES,1998/7/1,Partera Press,,true,8,388185,7240,18916,4742,508,1998/1/1,Birthing from Within: An Extra-Ordinary Guide to Childbirth Preparation,book,1714,1689,988,275,76,3.99,331,ebook,,15,0,"Pam England,Rob Horowitz",,,,,,1527,25,252,"family,feminism,health,medical,non-fiction,parenting,psychology,reference,self-help,spirituality"
12777001,,My First NASCAR Book,,,,,ES,,"Bendon Publishing International, Inc",eng,false,1,12777001,6,7,2,0,,,book,0,1,1,0,0,3.50,12,Hardcover,,2,0,Roger Audette,,,,,,2,0,,"childrens,poetry"
12777501,054686645X,"Bar: Webster's Timeline History, 2000   2001",9780546866452,,,,ES,,,,false,1,12777501,0,0,0,0,,,,0,0,0,0,0,0.00,,,,0,0,Icon Group International,,,,,,,0,,
12778001,8847000912,Aggiornarsi in Rete: Menopausa: Attualita in Rete Sulla Menopausa Oggi: Informazioni E Risorse Di Rete. L'Attivita Multimediale del Ginecologo. CI Vediamo in Rete,9788847000919,,,,ES,2000/7/1,Springer,,false,1,12778001,0,0,0,0,2000/8/2,,,0,0,0,0,0,0.00,,Paperback,,0,0,"M. Gambacciani,M.M. Ciulla",,,,,,,0,,
12779001,0898155517,Condo Vacations-The Complete Guide,9780898155518,,,,ES,1993/9/1,Lanier Publishing International,,false,5,4417350,1,0,0,0,1989/8/1,Condo Vacations: The Complete Guide,,0,0,0,0,0,0.00,496,Paperback,,0,0,Pamela Lanier,,,,,,1,0,,
12780001,,"Life and works. As originally edited by James Currie, to which is prefixed, a review of the life of Burns, and of various criticism on his character and writings. By Alexander Peterkin",2940021239561,,,,ES,,,,true,8,12780003,2,10,2,0,2010/8/3,,,2,0,0,0,0,5.00,,,,0,0,Robert Burns,,,,,,,0,,
12780501,,Unknown Book 12780501,,,,,ES,,,,false,1,12780501,1,4,1,0,,,,0,1,0,0,0,4.00,,,,1,0,Unknown,,,,,,,0,,
12782001,030788614X,"Brain Trust: 93 Top Scientists Reveal Lab-Tested Secrets to Surfing, Dating, Dieting, Gambling, Growing Man-Eating Plants, and More!",9780307886149,,,,ES,2012/3/6,Three Rivers Press,,true,7,12143108,792,950,271,46,2012/1/1,,,44,99,87,32,9,3.51,256,ebook,,0,0,Garth Sundem,,,,,,422,12,22,"education,medical,non-fiction,personal-development,psychology,reference,research,school,science,self-help,sociology"
12783001,1232537365,"Chespirito: Chaveco, El Chavo, Carlos Villagran, Florinda Meza, Edgar Vivar, La Chicharra, Roberto Gomez Bolanos, Ramon Valdes",9781232537366,,,,ES,2011/6/26,"Books LLC, Wiki Series",,false,1,12783001,1,0,0,0,2011/6/28,,,0,0,0,0,0,0.00,,Paperback,,0,0,Source Wikipedia,,,,,,1,0,,
12784001,9004183132,Index to Fragmente Der Griechischen Historiker (3 Vols),9789004183131,,,,ES,1998/12/23,Brill,,false,1,12784001,0,0,0,0,1998/12/23,,,0,0,0,0,0,0.00,99,Hardcover,,0,0,Fredrik Hagen,,,,,,,0,,
12784501,1449082645,The Lonely Puppy,9781449082642,,,,ES,2011/3/9,Authorhouse,,false,1,12784501,1,5,1,0,2011/3/9,,,1,0,0,0,0,5.00,20,Paperback,,1,0,Carissa Marie,,,,,,,0,,
12785001,1243158360,"Articles on Dark Cabaret Musicians, Including: Nico, Marianne Faithfull, Klaus Nomi, Diamanda Gala S, Tiger Lillies, Amanda Palmer, Majandra Delfino, the World/Inferno Friendship Society, Brian Viglione, Darko Rundek",9781243158369,,,,ES,2011/8/30,Hephaestus Books,,false,1,12785001,7,0,0,0,2011/8/30,,,0,0,0,0,0,0.00,,Paperback,,0,0,Hephaestus Books,,,,,,6,0,,
12786501,,The Bible in 90 Days (New International Version),,B004Z1SUXY,,,ES,2011/5/24,Zondervan,eng,true,15,82332,981,2185,465,85,2005/9/27,The Bible in 90 Days: Cover to Cover in 12 Pages a Day (New International Version),book,372,62,20,6,5,4.70,1088,,,79,4,"Anonymous,Ted Cooper Jr.",,,,,,216,21,200,"christian,christianity,classics,faith,inspirational,non-fiction,religion,spirituality,unfinished"
12787001,0880882379,Con Amor [With Ribbon with 24k Gold-Plated Charm] = With Love,9780880882378,,,,ES,,,,false,1,12787001,0,0,0,0,1998/2/28,,,0,0,0,0,0,0.00,,,,0,0,Evelyn Beilenson,,,,,,,0,,
12787501,,A selection of papers on the subjects of arch,2940017403310,,,,ES,,,,true,2,12787501,0,0,0,0,,,book,0,0,0,0,0,0.00,,,,0,0,John   Kenrick,,,,,,,0,,
12789001,,Halimah Dicolek,,,,,ES,1957/1/1,Geliga Ltd,msa,false,1,12789001,0,0,0,0,1957/1/1,,book,0,0,0,0,0,0.00,50,Unknown Binding,,0,0,Salehati,,,,,,,0,,
12792001,0199114498,Oxford Reading Tree: Stages 3-4: E-Songbirds Phonics: CD-ROM Unlimited-User Licence,9780199114498,,,,ES,,Not Avail,,false,1,12792001,0,0,0,0,,,,0,0,0,0,0,0.00,12,Unknown Binding,,0,0,Clare Kirtley,,,,,,,0,,
12793501,9026132174,Nachtmerries zijn blauw,9789026132179,,,,ES,2006/1/1,De Fontein,nl,false,26,477338,38129,66004,17298,906,2003/11/1,Blue Is for Nightmares,book,5814,5189,4203,1477,615,3.82,256,Hardcover,,32,1,Laurie Faria Stolarz,,,,Kris Eikelenboom,,17006,76,196,"contemporary,dark,fantasy,fiction,ghosts,high-school,horror,magic,mystery,mystery-thriller,paranormal,romance,supernatural,suspense,teen,thriller,urban-fantasy,witches,young-adult"
12794001,,Hayati,,,,,ES,1958/1/1,Geliga Ltd,msa,false,1,12794001,5,0,0,0,1958/1/1,,book,0,0,0,0,0,0.00,163,Unknown Binding,,0,0,Ahmad Boestamam,,,,,,5,0,,
12794501,,Det?s?entralizat?s?ii?a? i samoupravlenie vo Frant?s?ii ...,2940035937965,,,,ES,,,,true,1,12794501,0,0,0,0,,,,0,0,0,0,0,0.00,,,,0,0,Zurab Avalov,,,,,,,0,,
12795001,,Downsized,2940011376207,,,,ES,,,,true,4,15708882,880,1479,421,30,2011/6/22,,book,136,78,115,50,42,3.51,,,,1,0,Ms. Downlow,,,,,,311,8,52,"amazon,contemporary,erotica,novella,romance,short-stories"
12796501,,Real Life Problems and Their Solution,,,,,ES,1938/1/1,Odhams Press Limited,eng,false,2,12796501,22,16,4,2,1938/1/1,,book,1,2,1,0,0,4.00,320,Hardcover,,3,1,R. Edynbry,,,,,,15,0,,"non-fiction,reference,self-help,unfinished"
12797001,,Consuelo,2940034084356,,,,ES,,,,true,62,104262,2764,4954,1218,41,1841/1/1,Consuelo,book,517,393,204,81,23,4.07,,,,0,0,George Sand,,,,,,1252,18,51,"classics,drama,fiction,france,gothic,historical,historical-fiction,literary-fiction,literature,magical-realism,music,mystery,novels,romance,unfinished"
12797501,,Skyrocket Steele,2940012947604,,,,ES,,,,true,7,3199380,37,68,19,4,1980/2/2,Skyrocket Steele,book,3,7,7,2,0,3.58,,,,0,0,Ron Goulart,,,,,,15,1,,"humor,novels,science-fiction,science-fiction-fantasy"
12798001,0613023374,Pumpkins: A Story for a Field,9780613023375,,,,ES,1996/8/15,Turtleback Books,,false,4,2108984,160,372,101,19,1992/1/1,Pumpkins: A Story for a Field,book,30,32,21,13,5,3.68,32,Hardcover,,2,0,"Barry Root,Mary Lyn Ray",,,,,,27,9,,"childrens,fiction,nature,picture-books"
12798501,0137075235,"Fundamentals of English Grammar, Volume B",9780137075232,,,,ES,2011/2/20,Pearson Education ESL,,false,3,256366,52,50,12,0,1993/1/1,Fundamentals of English Grammar: Workbook B,,5,5,1,1,0,4.17,224,Paperback,,3,0,Betty Schrampfer Azar,,,,,,33,0,,
12799501,,A Second Chance for Mickey Pye,,B005F0GDGK,,,ES,,,,true,2,12188017,4,14,3,0,2011/6/27,,,2,1,0,0,0,4.67,,,,0,0,A.J. Marzetti,,,,,,1,0,,
12801001,,The Windigo,,B0044XUXLA,,,ES,,,,true,3,12144292,2,5,1,0,2010/9/27,,,1,0,0,0,0,5.00,,,,0,0,Troy D. Smith,,,,,,1,0,,
12801501,8870183335,Sui Sogni,9788870183337,,,,ES,,,,false,1,12801501,5,0,0,0,1997/1/1,,,0,0,0,0,0,0.00,,,,0,0,Boetius of Dacia,,,,,,2,0,,
12802001,542832810X,Rimskoe pravo ( shpargalki) (Russian edition),9785428328103,,,,ES,,,,true,1,12802001,0,0,0,0,2010/1/1,,,0,0,0,0,0,0.00,,,,0,0,Pavel YUrevich Smirnov,,,,,,,0,,
12802501,1617203106,The Bobbsey Twins in and Out,9781617203107,,,,ES,2011/8/13,SMK Books,,false,5,12802501,22,34,9,0,2011/8/13,,,4,1,2,2,0,3.78,104,Paperback,,6,0,Laura Lee Hope,,,,,,7,1,2,childrens
12804501,,The Christmas Wedding - Free Preview: The First 23 Chapters,,B005LJWS4Q,,,ES,,,eng,true,3,12804501,669,1133,297,4,2011/1/1,,book,107,81,70,25,14,3.81,,,,244,2,"James Patterson,Richard DiLallo",,,,,,268,8,38,"christmas,contemporary,fiction"
12806001,1232539953,"Desenhos Da Marvel Comics: Wolverine and the X-Men, X-Men: Evolution, X-Men: Animated Series, the Avengers: Earth's Mightiest Heroes, Iron Man",9781232539957,,,,ES,2011/6/26,"Books LLC, Wiki Series",,false,1,12806001,1,0,0,0,2011/6/28,,,0,0,0,0,0,0.00,,Paperback,,0,0,Source Wikipedia,,,,,,1,0,,
12807001,,VampirErotica: Volume 1 (Six Succulent Vampire Stories),2940012784407,,,,ES,,,,true,3,19095610,12,25,7,0,2011/6/19,,,2,1,3,1,0,3.57,,,,1,0,Joan Wilder,,,,,,2,0,,paranormal
12807501,0415880262,Legitimating Television: Media Convergence and Cultural Status,9780415880268,,,,ES,2011/9/10,Routledge,,false,9,12807501,38,39,10,2,2011/9/1,,book,1,7,2,0,0,3.90,232,Paperback,,10,2,"Elana Levine,Michael Z. Newman",,,,,,14,0,4,"essays,non-fiction"
12808001,3931646734,"Schwerin auf historischen Ansichtskarten: Schelfstadt, Paulsstadt, Feldstadt: Schwerin in den Grenzen von 1884",9783931646738,,,,ES,,,,true,2,12808001,0,0,0,0,2009/6/11,,,0,0,0,0,0,0.00,,,,0,0,"Gisela Pekrul,Manfred Krieck",,,,,,,0,,
12810501,1231466979,"Islao: Charia, Maome, Mesquita, Amin Al-Husayni, Fundamentalismo Islamico, Alevitas, Tabu Alimentar, Islao E Homossexualidade, Xiismo",9781231466971,,,,ES,2011/6/27,"Books LLC, Wiki Series",,false,1,12810501,0,0,0,0,2011/6/28,,,0,0,0,0,0,0.00,106,Paperback,,0,0,Source Wikipedia,,,,,,,0,,
12811001,,Evil Harvest,2940012301802,,,,ES,,,,true,1,12811001,0,0,0,0,2011/4/11,,,0,0,0,0,0,0.00,,,,0,0,Donald Tucker,,,,,,,0,,
12811501,0984505318,Gastroesophageal Reflux Disease (GERD) PocketGuide� (2010),9780984505319,,,,ES,2010/3/30,International Guidelines Center,,false,1,12811501,0,0,0,0,2010/3/30,,book,0,0,0,0,0,0.00,6,Paperback,,0,0,Ronnie Fass,,,,,,,0,,
12812001,6074042306,Tartas y pays: más de 55 deliciosas recetas,9786074042306,,,,ES,,Degustis,spa,false,5,12630935,24,41,10,3,2010/10/30,,,5,2,2,1,0,4.10,,,,0,0,"Carla Bardi,Rachel Lane",,,,,,7,0,,cooking
12812501,0835234770,"Publishers, Distributors and Wholesalers of the United States 1994-95, 2 Vol.",9780835234771,,,,ES,1995/10/1,Reed Reference Publishing,,false,1,12812501,0,0,0,0,1995/10/1,,,0,0,0,0,0,0.00,,Hardcover,,0,0,Reed Reference Publishing,,,,,,,0,,
12813501,1124326677,Three essays on CEO replacement in turnaround situations.,9781124326672,,,,ES,,,,false,1,12813501,0,0,0,0,,,,0,0,0,0,0,0.00,,,,0,0,Guoli. Chen,,,,,,,0,,
12815001,,Goblin's Bride,,B005N49BVC,,,ES,,,,true,6,5495449,34,65,16,2,2008/1/1,Goblin's Bride,,8,3,4,0,1,4.06,,,,3,0,Anastasia Rabiyah,,,,,,14,2,,"adventure,fantasy,paranormal,romance"
12815501,1124040900,The molecular determinants of human alpha-defensins' biological functions.,9781124040905,,,,ES,,,,false,1,12815501,0,0,0,0,,,,0,0,0,0,0,0.00,,,,0,0,Mohsen. Rajabi Abhari,,,,,,,0,,
12816001,8476024959,Escrits politics del segle XVII,9788476024959,,,,ES,,,,false,1,12816001,1,2,1,0,,,book,0,0,0,1,0,2.00,,,,1,0,Gaspar Sala,,,,,,,0,,
12818001,1407560468,Chuggington Storybook Collection,9781407560465,,,,ES,2010/9/1,Parragon Books,,false,1,12818001,3,7,2,0,2010/9/1,,,0,1,1,0,0,3.50,157,Hardcover,,2,0,,,,,,,,0,,
12819001,,"Die with Me (Mark Tartaglia, #1)",,B004IPP8U0,,,ES,,Quercus,en-GB,true,32,1571978,1635,2337,650,81,2007/1/1,Die With Me,book,110,239,246,38,17,3.60,,,,15,0,Elena Forbes,,,,,,598,14,14,"amazon,crime,detective,fiction,mystery,mystery-thriller,novels,suspense,thriller"
12819501,,Izvestiia na Bulgarskoto entomologichno druzhestvo,2940038110808,,,,ES,,,,true,1,12819501,0,0,0,0,,,,0,0,0,0,0,0.00,,,,0,0,Bulgarsko entomologichno druzhestvo,,,,,,,0,,
12820501,9506442193,Yporã: Amor y guerra bajo el sol guaraní,9789506442194,,,,ES,2011/9/15,Plaza & Janés,spa,false,3,12820501,287,588,154,21,2011/9/1,,book,44,58,37,10,5,3.82,544,Paperback,Colección Narrativa femenina,126,18,Gloria V. Casañas,,,,,,71,1,16,romance
12821001,1410421708,Gift of Wonder,9781410421708,,,,ES,2009/12/1,Thorndike Press,,false,11,6767764,121,178,46,2,2009/1/1,Gift of Wonder,book,10,21,14,1,0,3.87,273,Hardcover,Large Print,1,1,Lenora Worth,,,,,,56,2,1,"christian-fiction,contemporary,harlequin,romance"
12822001,2841975282,"Le Tarot, Outil De Communication: Les Clés Du Succès",9782841975280,,,,ES,,,,false,1,12822001,1,0,0,0,2010/1/1,,,0,0,0,0,0,0.00,,,,0,0,Colette Silvestre,,,,,,,0,,
12823001,0962534455,Black Wolves of Yellow Mountain,9780962534454,,,,ES,,,,false,1,12823001,1,5,1,0,1994/1/28,,,1,0,0,0,0,5.00,,,,1,0,"Mercedes M. Reitz,Robert R. Reitz,Russell T. Reitz",,,,,,,0,,
12824001,,The Next Stop is Croy and other stories ,,B005REWV5Q,,,ES,,,,true,1,12824001,12,35,9,4,2011/9/30,,book,2,4,3,0,0,3.89,,Kindle Edition,,9,4,Andrew McCallum Crawford,,,,,,2,0,1,"contemporary,short-stories"
12824501,2723481247,All�es Et Bordures,9782723481243,,,,ES,2011/2/9,Glenat Livres,,false,1,12824501,0,0,0,0,,,,0,0,0,0,0,0.00,112,Unknown Binding,,0,0,Collectif,,,,,,,0,,
12825501,0860104966,An Introduction to Seismic Interpretation: Reflection Seismics in Petroleum Exploration,9780860104964,,,,ES,1985/2/28,Springer,,false,1,12825501,1,0,0,0,1985/2/28,,,0,0,0,0,0,0.00,287,Paperback,,0,0,"Donald F. Toomey,M. Bacon,Robert McQuillin",,,,,,1,0,,
12826001,0373731604,A Forbidden Affair / For Love or Money,9780373731602,,,,ES,2012/3/6,Harlequin,,false,4,12826001,191,305,88,20,2012/1/1,,book,18,28,24,13,5,3.47,256,Mass Market Paperback,,74,19,"Elizabeth Bevarly,Yvonne Lindsay",,,,,,70,6,1,"adult,contemporary,fiction,harlequin,love,romance"
12828001,9132159390,Jakten på WondLa,9789132159398,,,,ES,2011/8/1,B Wahlström,swe,false,34,7327327,23995,42047,10340,1516,2009/9/21,The Search for WondLa,book,4113,3662,1887,495,183,4.07,477,Hardcover,,25,3,Tony DiTerlizzi,,,,,,11385,37,384,"action,adventure,aliens,childrens,dystopia,fantasy,fiction,graphic-novels,juvenile,middle-grade,mystery,novels,post-apocalyptic,science-fiction,survival,teen,unfinished,young-adult"
12829001,,Guide Book of Long Range Shooting,,B005FN7BJ0,,,ES,,,,true,3,12829001,4,14,3,0,2007/6/10,,,2,1,0,0,0,4.67,,,,3,0,L.P. Brezny,,,,,,1,0,,
12831001,0872720470,The Race for Love,9780872720473,,,,ES,1978/12/31,Brodart Co.,,false,8,1394081,171,304,89,2,1978/10/1,The Race for Love,book,17,21,38,8,5,3.42,166,Hardcover,,0,0,Barbara Cartland,,,,,,12,2,,"fiction,historical-fiction,romance"
12831501,0769522564,Fifth International Workshop on Grid Computing,9780769522562,,,,ES,2004/1/28,,,false,1,12831501,6,15,5,0,2004/1/28,,,1,1,1,1,1,3.00,,,,5,0,Rajkumar Buyya,,,,,,1,0,,
12832501,0521854512,The Cambridge Companion to Henry Fielding,9780521854511,,,,ES,2007/3/1,Cambridge University Press,,false,5,356710,10,14,4,1,2007/3/1,The Cambridge Companion to Henry Fielding (Cambridge Companions to Literature),,1,0,3,0,0,3.50,202,Hardcover,,0,0,,,,Claude Julien Rawson,,,4,0,1,english-literature
12833501,378273968X,Der Wassermann. Rote Ausgabe. 21. Januar Bis 19. Februar,9783782739689,,,,ES,,,,false,1,12833501,1,0,0,0,,,,0,0,0,0,0,0.00,,,,0,0,Johann Mayr,,,,,,,0,,
12834001,1109664214,An investigation into the molecular determinants of nuclear migration during sexual development of the human fungal pathogen Cryptococcus neoformans.,9781109664218,,,,ES,,,,false,1,12834001,0,0,0,0,,,,0,0,0,0,0,0.00,,,,0,0,Mark William Staudt,,,,,,,0,,
12836001,1595310037,The Great Forest of the Adirondacks,9781595310033,,,,ES,,,,false,2,2366302,8,15,4,0,1994/8/1,The Great Forest of the Adirondacks,,0,3,1,0,0,3.75,,,,0,0,Barbara McMartin,,,,,,4,0,,history
12837001,8877105240,La dimora delle bambole,9788877105240,,,,ES,2002/4/1,SE,ita,false,4,9737685,136,213,55,6,1953/1/1,雛の宿 - Hina no yado,book,13,25,15,1,1,3.87,146,Paperback,Testi e Documenti #111,2,0,Yukio Mishima,,,Lydia Origlia,,,40,1,1,"fiction,literature,short-stories"
12838501,,Thinking as a Science,2940013113930,,,,ES,,,,true,35,464215,669,737,183,14,1916/1/1,Thinking As a Science,book,71,65,32,11,4,4.03,,,,2,1,Henry Hazlitt,,,,,,423,7,36,"academic,economics,education,philosophy,psychology,science"
12840001,0471907022,"Experimental Measurements: Precision, Error, and Truth",9780471907022,,,,ES,1985/1/1,John Wiley & Sons,,false,1,12840001,19,10,2,0,1985/1/1,,,2,0,0,0,0,5.00,174,Unknown Binding,,2,0,N. C. Barford,,,,,,13,0,1,reference
12841001,086163652X,A Surprise For Snatch,9780861636525,,,,ES,,,,false,1,12841001,0,0,0,0,,,,0,0,0,0,0,0.00,,,,0,0,Sue Hall,,,,,,,0,,
12841501,0199745684,Battle for the Castle: The Myth of Czechoslovakia in Europe 1914-1948,9780199745685,,,,ES,,,,true,6,6754052,44,64,18,4,2009/1/1,,,6,3,5,3,1,3.56,,,,0,0,Andrea Orzoff,,,,,,18,1,2,"history,reference"
12842001,0006739105,The Tower Room,9780006739104,,,,ES,,,,false,11,43298,878,865,266,29,1992/1/1,"The Tower Room (Egerton Hall Novel, Book 1)",book,49,61,85,50,21,3.25,,,,3,0,Adèle Geras,,,,,,515,16,2,"classics,fairy-tales,fantasy,fiction,historical,retellings,romance,teen,young-adult"
12842501,0941683265,Diet for the Atomic Age,9780941683265,,,,ES,,,,false,2,5099336,5,15,4,0,1987/5/1,Diet for the Atomic Age,book,1,1,2,0,0,3.75,,,,0,0,"Ernest J. Sternglass,Sara Shannon",,,,,,1,0,,
12844501,,WILD MAGIC (The War on Magic),,B005SJ0I0U,,,ES,,,,true,1,12844501,13,12,3,0,2011/10/3,,,1,1,1,0,0,4.00,,,,3,0,SEAN McVEIGH,,,,,,8,0,1,
12845501,0615468713,The Recruiting Game System: YOU can go to college for FREE by playing your Sport,9780615468716,,,,ES,,,,false,1,12845501,0,0,0,0,2011/4/11,,,0,0,0,0,0,0.00,,,,0,0,Leon Spencer,,,,,,,0,,
12846501,6070707869,El evangelio de Lucas Gavil,9786070707865,,,,ES,,,,true,1,12846501,1,4,1,0,2011/5/31,,,0,1,0,0,0,4.00,,,,1,0,Vicente Le,,,,,,,0,,
12847001,1459266854,Urban Cowboy,9781459266858,,,,ES,2011/7/15,Harlequin Treasury-Silhouette Special Edition 90s,,true,7,1554941,26,25,7,1,1998/7/1,,book,1,3,2,1,0,3.57,256,ebook,,0,0,Myrna Temte,,,,,,14,0,1,contemporary
12848001,3110046687,Der Deutsche Foderalismus. Die Diktatur Des Reichsprasidenten: Verhandlungen Der Tagung Der Deutschen Staatsrechtslehrer Zu Jena Am 14. Und 15. April 1924. Mit Eroffnungsansprache Und Einer Zusammenfassung Der Diskussionsreden,9783110046687,,,,ES,1965/1/1,Walter de Gruyter,,false,2,17435558,1,0,0,0,1965/1/1,,book,0,0,0,0,0,0.00,146,Hardcover,,0,0,,,"Carl Schmitt,Gerhard Anschutz,Karl Bilfinger",,,,1,0,,
12848501,4309471617,Kodai Oriento,9784309471617,,,,ES,,,,false,1,12848501,1,4,1,0,1989/1/1,,,0,1,0,0,0,4.00,,,,1,0,"Michio Kishimoto,伴 康哉,前川 和也,吉川 守,富村 伝,山本 茂",,,,,,,0,,
12850501,1243247347,"Articles on Gamebooks, Including: Gamebook, Lone Wolf (Gamebooks), Date with Destiny Adventure, Time Machine (Novel Series), Give Yourself Goosebumps, Lost Worlds (Gamebook), Ace of Aces (Picture Book Game), Grailquest, Temple of Flame",9781243247346,,,,ES,2011/8/31,Hephaestus Books,,false,1,12850501,20,11,3,0,2011/8/31,,,2,0,0,0,1,3.67,,Paperback,,3,0,Hephaestus Books,,,,,,18,0,,
12851001,,A true historical relation of the conversion of Sir Tobie Matthew to the Holy Catholic faith; with the antecedents and consequences thereof,2940017227152,,,,ES,,,,true,1,12851001,0,0,0,0,,,,0,0,0,0,0,0.00,,,,0,0,Tobie Matthew,,,,,,,0,,
12851501,,Bidden met de woestijnvaders,9789021138800,,,,ES,2007/1/1,Meinema-Pelckmans,nl,false,1,12851501,4,15,4,1,2007/1/1,,book,0,3,1,0,0,3.75,98,Paperback,,4,1,Anselm Grün,,,,Ton van der Stap,,,1,,religion
12852001,282203164,المالية والمحاسبة لغير المحاسبين,,,,,ES,2001/1/1,مكتبة جرير,eng,false,2,1002638,147,59,19,1,2000/1/15,"Streetwise Finance and Accounting: How to Keep Your Books and Manage Your Finances Without an MBA, a CPA, or a Ph.D.",book,6,1,5,3,4,3.11,328,Paperback,1st,9,1,Suzanne Caplan,,,,,,95,1,4,
12852501,,Annuaire historique du departement de l'Yonne,2940030302058,,,,ES,,,,true,1,12852501,0,0,0,0,,,,0,0,0,0,0,0.00,,,,0,0,Yonne France Yonne,,,,,,,0,,
12853001,,Essays in the art of writing,2940019182206,,,,ES,,,,true,172,332470,938,887,246,30,1905/1/1,Essays in the Art of Writing,book,58,72,83,27,6,3.61,,,,0,0,Robert Louis Stevenson,,,,,,523,8,89,"art,british-literature,classics,collections,criticism,essays,european-literature,language,literary-fiction,non-fiction,writing"
12854001,9032504762,"Lajja, schaamte ",9789032504762,,,,ES,1994/1/1,De Kern / Novib,nl,false,38,201866,10345,13288,3825,309,1993/1/1,লজ্জা,book,664,1266,1283,443,169,3.47,236,Paperback,,0,0,Taslima Nasrin,,,,,,4997,14,364,"contemporary,drama,feminism,fiction,historical,historical-fiction,history,horror,literary-fiction,literature,non-fiction,novels,politics,religion,unfinished"
12854501,1105008282,The Fairy who Could Not Fly,9781105008283,,,,ES,,,,true,1,12854501,0,0,0,0,2011/7/19,,,0,0,0,0,0,0.00,,,,0,0,"Kellie Anderson,Kim Anderson",,,,,,,0,,
12855001,4882023075,古代は生きている : 石灯籠と稲荷の謎,9784882023074,,,,ES,1994/7/1,Sairyusha,jpn,false,1,12855001,1,3,1,0,1994/7/1,,book,0,0,1,0,0,3.00,286,Unknown Binding,,1,0,"Izumo Enomoto,Masakazu Ōmi,榎本出雲,近江雅和",,,,,,,0,,
12855501,1411445678,Alps and Sanctuaries of Piedmont and the Canton Ticino (Digital Library),9781411445673,,,,ES,2011/3/1,Barnes & Noble,eng,true,42,14992766,13,12,4,0,1913/1/1,Alps and Sanctuaries of Piedmont and the Canton Ticino,book,0,0,4,0,0,3.00,452,ebook,,0,0,Samuel Butler,,,,,,8,0,,"history,travel"
12856001,8807103257,Utopie Sanitarie: Umanità E Disumanità Della Medicina,9788807103254,,,,ES,,,,false,1,12856001,2,0,0,0,2002/1/1,,,0,0,0,0,0,0.00,,,,0,0,R. Brauman,,,,,,,0,,
12856501,,At the Corner of Wall and Sesame,2940013261150,,,,ES,,,,true,4,12856501,197,127,34,6,2011/8/6,,book,11,8,10,5,0,3.74,,,,32,5,Wendy Levitt,,,,,,149,1,,"chick-lit,fiction"
12857001,981436665X,Atlas of Gastrointestinal Endomicroscopy,9789814366656,,,,ES,2012/5/31,World Scientific Publishing Company,,false,1,12857001,0,0,0,0,2011/12/28,,,0,0,0,0,0,0.00,238,Hardcover,,0,0,"Khek-Yu Ho,Xiu-Li Zuo,Yan-Qing Li",,,,,,,0,,
12858501,3832500030,Vereinbarte Mitbestimmung ALS Frage Der (Teil-) Rechtsfahigkeit Des Betriebsrats,9783832500030,,,,ES,2002/8/30,Logos Verlag Berlin,,false,1,12858501,0,0,0,0,2002/8/30,,,0,0,0,0,0,0.00,,Paperback,,0,0,Julia Scherer,,,,,,,0,,
12859001,,A Brief Extract of a New English Prosody Based Upon the Laws of English Rhythm,2940023875620,,,,ES,,,,true,10,7838073,1,0,0,0,2009/9/24,,,0,0,0,0,0,0.00,,,,0,0,Mark Harvey Liddell,,,,,,1,0,,
12859501,1244340936,"Articles on Feminist Fiction, Including: The Book of the City of Ladies, the Handmaid's Tale, Fanny Hill, Ann Veronica, the Edible Woman, the Female Man, Efuru, Surfacing (Novel), the Well of Loneliness, the Gate to Women's Country",9781244340930,,,,ES,2011/9/28,Hephaestus Books,,false,1,12859501,25,9,3,0,2011/9/28,,,1,0,1,0,1,3.00,,Paperback,,3,0,Hephaestus Books,,,,,,25,0,1,
12861501,,Human Resource Development,,B004OR1MVG,,,ES,,,,true,1,12861501,0,0,0,0,2011/2/20,,,0,0,0,0,0,0.00,,,,0,0,"Kate  Andrew,Simon John",,,,,,,0,,
12862501,019162375X,Exorbitant Privilege: The Rise and Fall of the Dollar,9780191623752,,,,ES,,,,true,14,9625784,1529,1806,472,31,2010/12/13,Exorbitant Privilege: The Rise and Fall of the Dollar and the Future of the International Monetary System,book,122,196,109,40,5,3.83,,,,0,0,Barry Eichengreen,,,,,,913,13,31,"american-history,business,economics,history,non-fiction,politics"
12864501,,eBook about 10 Ways To Fight Off Cancer - This might be the single-most crucial and easy to comprehend info you'll read about ...,2940013387713,,,,ES,,,,true,1,12864501,1,0,0,0,2011/9/17,,,0,0,0,0,0,0.00,,,,0,0,Healthy Tips,,,,,,1,0,,
12865501,0870446991,Wild Animals of North America,9780870446993,,,,ES,1987/1/1,,,false,1,12865501,6,6,2,0,1995/3/15,,book,0,0,2,0,0,3.00,,Hardcover,,2,0,National Geographic Society,,,,,,2,2,,
12868001,1109428774,"Under pressure to perform: Academic achievement, masculinity, and presentation of self among urban African American male high school students.",9781109428773,,,,ES,,,,false,1,12868001,1,0,0,0,,,,0,0,0,0,0,0.00,,,,0,0,Raymond Gunn,,,,,,1,0,,
12869001,9707180021,Cuentos clasicos,9789707180024,,,,ES,2002/12/26,Silver Dolphin en Español,,false,2,985444,200,350,86,11,2001/9/1,Walt Disney's Classic Storybook (Disney Storybook Collections),book,38,27,13,5,3,4.07,336,Hardcover,,2,0,Walt Disney Company,,,,,,61,13,4,"childrens,classics,fantasy,fiction,humor,picture-books,short-stories"
12869501,,Winning Wines: The Complete List,2940011527531,,,,ES,,,,true,1,12869501,0,0,0,0,2011/9/20,,,0,0,0,0,0,0.00,,,,0,0,Mara and Ford Smith,,,,,,,0,,
12870001,,"Margret Howth, a Story of To-day",2940012714510,,,,ES,,,eng,true,40,1614628,61,72,20,2,1862/1/1,Margret Howth: A Story of Today,book,4,8,4,4,0,3.60,,,,0,0,Rebecca Harding Davis,,,,,,27,3,3,"classics,feminism,fiction,historical,literature"
12870501,,القادم وقصص أخرى,,,,,ES,2010/7/24,المؤسسة العربية الحديثة للطبع والنشر والتوزيع,ara,false,1,12870501,154,298,86,3,2010/7/24,القادم وقصص أخرى,book,19,21,32,9,5,3.47,463,Paperback,,86,3,نبيل فاروق,,,,,,38,1,,
12872501,,King Solomon's Golden Ophir: A Research Into the Most Ancient Gold Production in History,2940025811848,,,,ES,,,,true,3,12872501,0,0,0,0,,,,0,0,0,0,0,0.00,,,,0,0,Carl Peters,,,,,,,0,,
12873501,,Erotic Deception,,B005V8ORS2,,,ES,,,,true,3,12946120,1600,914,244,42,2011/10/12,,book,73,79,61,19,12,3.75,,,,24,5,Karen Cote',,,,,,1251,11,3,"adult-fiction,contemporary,erotica,mystery,romance,suspense"
12874001,8432290734,La resistencia,9788432290732,,,,ES,,,,true,29,1665698,2914,6486,1680,122,2000/1/1,La resistencia,book,548,564,395,132,41,3.86,,,,2,0,Ernesto Sabato,,,,,,856,11,55,"adult,art,classics,essays,literature,non-fiction,novels,philosophy"
12877001,,The Earl (A Hammer for Princes),2940013337121,,,,ES,,,,true,11,1445449,348,639,163,19,1971/1/1,The Earl,book,49,71,31,5,7,3.92,,,,0,0,Cecelia Holland,,,,,,123,4,15,"fiction,historical,historical-fiction,medieval"
12877501,,Characterization of protein secretions by the porcine uterus and their relationship to reproductive physiology,2940018197812,,,,ES,,,,true,1,12877501,0,0,0,0,2011/8/11,,,0,0,0,0,0,0.00,,,,0,0,Finnie Ardrey Murray,,,,,,,0,,
12878501,1243882700,"Articles on Time Quartet, Including: A Wrinkle in Time, Many Waters, a Wind in the Door, a Swiftly Tilting Planet, an Acceptable Time, Charles Wallace Murry, Meg Murry, Calvin O'Keefe, Polly O'Keefe, Sandy and Dennys Murry",9781243882707,,,,ES,2011/9/9,Hephaestus Books,,false,1,12878501,161,402,91,6,2011/9/9,,,53,26,10,1,1,4.42,,Paperback,,91,6,Hephaestus Books,,,,,,51,4,3,young-adult
12880501,0330517120,Overheard on a Saltmarsh: Poets' Favourite Poems,9780330517126,,,,ES,2009/9/1,Pan Macmillan,,false,3,507875,15,18,5,0,2003/4/4,Overheard on a Saltmarsh,book,0,3,2,0,0,3.60,128,Paperback,,0,0,,,,Carol Ann Duffy,,,6,0,,poetry
12881001,0549477101,"Dispersal and mating system of European corn borer, Ostrinia nubilalis, (Hubner) [Lepidoptera: Crambidae], in relation to Bt resistance management.",9780549477105,,,,ES,,,,false,1,12881001,0,0,0,0,,,,0,0,0,0,0,0.00,,,,0,0,Yang Hu,,,,,,,0,,
12883501,,Uncensored Truth From Men to Women: Next Best Thing to Reading a Man's Mind,2940011406409,,,,ES,,,,true,1,12883501,0,0,0,0,2011/7/20,,,0,0,0,0,0,0.00,,,,0,0,Amanda Diep,,,,,,,0,,
12884001,,"Ignite (Midnight Fire, #1)",,,,,ES,2013/12/16,,eng,true,6,43820305,18271,29407,7602,497,2011/10/9,,book,2704,2275,1798,568,257,3.87,395,Kindle Edition,,7312,460,Kaitlyn Davis,,,,,,4894,63,904,"amazon,fantasy,fiction,high-school,love,magic,paranormal,romance,supernatural,teen,urban-fantasy,vampires,young-adult"
12884501,0971148228,The Inflation Deception: Six Ways Government Tricks Us...and Seven Ways to Stop It!,9780971148222,,,,ES,2011/6/21,Idea Factory Press,,false,5,12884501,23,24,6,2,2011/1/1,,,3,0,3,0,0,4.00,272,Paperback,,4,1,"Craig R. Smith,Lowell Ponte",,,,,,10,2,,"american-history,economics,history,non-fiction,politics,survival"
12885001,,A Treatise on the Motion of Vortex Rings: An Essay to which the Adams Prize ...,2940024214138,,,,ES,,,,true,8,29050776,0,0,0,0,1968/1/1,,,0,0,0,0,0,0.00,,,,0,0,J.J. Thomson,,,,,,,0,,
12886001,0974653209,Fat Crack Country: Rock Climbing in Vedauwoo,9780974653204,,,,ES,,,,false,1,12886001,0,0,0,0,2003/10/28,,,0,0,0,0,0,0.00,,,,0,0,Zach Orenczak,,,,,,,0,,
12887001,1612890040,Notes from the Talking Drum: Exploring Black Communication and Critical Memory in Intercultural Communication Contexts,9781612890043,,,,ES,,,,false,2,12887000,2,2,1,0,2011/1/28,Notes from the Talking Drum: Exploring Black Communication and Critical Memory in Intercultural Communication Contexts,book,0,0,0,1,0,2.00,,,,0,0,Mark C. Hopson,,,,,,1,0,,
12888001,093291490X,"The Matrix Reformed: Science Fiction, Technology, and Christian Philosophy",9780932914903,,,,ES,2011/7/5,Dordt College Press,,false,1,12888001,20,11,3,1,2011/7/5,,,1,1,0,1,0,3.67,158,Paperback,,3,1,"Bart Cusveller,Maarten Verkerk,Marc de Vries",,,,,,14,0,1,
12888501,07482558,"Shakespeare Bulletin (Vol. 21, Number 4, Winter 2003)",,,,,ES,2003/1/1,University of West Georgia,,false,1,12888501,1,3,1,1,2003/1/1,,book,0,0,1,0,0,3.00,128,Paperback,,1,1,,,,,,,,0,,
12889001,9789513135,Punavankileirit 1918: Suomalainen murhenäytelmä,,,,,ES,2007/1/1,Tammi,fin,false,1,12889001,14,3,1,0,2007/1/1,,book,0,0,1,0,0,3.00,415,Hardcover,,1,0,"Seppo Rustanius,Tuulikki Pekkalainen",,,,,,7,0,2,
12890001,9025734138,Koe en Mus 1 Tsjoeken  ziek,9789025734138,,,,ES,2002/1/1,Gottmer,nl,false,1,12890001,1,0,0,0,2002/1/1,,book,0,0,0,0,0,0.00,14,Hardcover,,0,0,"Fransje Smit,Marjolijn Hof",,,,,,,1,,
12890501,1242749225,"Muslim Theologians, Including: Wasil Ibn Ata, Abu Mansur Maturidi, Syed Muhammad Naquib Al-Attas, Ibn Hazm, Abdallah Ibn Yasin, Ibn Al-Nafis, Lady Amin, List of Muslim Theologians, Abdul-Qadir Gilani, Ibn Aqil, Amr Ibn Ubayd, Ahmed Hulusi, Taftazani",9781242749223,,,,ES,2011/8/24,Hephaestus Books,,false,1,12890501,6,1,1,0,2011/8/24,,,0,0,0,0,1,1.00,,Paperback,,1,0,Hephaestus Books,,,,,,8,0,,
12891001,,"Oh, Well, You Know How Women Are AND Isn't That Just Like a Man!",,,,,ES,2008/1/12,Project Gutenberg,eng,true,6,811740,50,93,29,5,1920/1/1,Oh! Well! You Know How Women Are! And Isn't That Just Like A Man!,,2,7,16,3,1,3.21,,ebook,,1,0,"Irvin S. Cobb,Mary Roberts Rinehart",,,,,,15,0,1,"americana,comedy,english-literature,humor,non-fiction"
12892001,0966873459,Lures Of The North: Of Fishing And Relaxing,9780966873450,,,,ES,,,,false,1,12892001,1,5,1,0,2008/1/1,,,1,0,0,0,0,5.00,,,,1,0,Shirley Ensrud,,,,,,,0,,
12894501,1843221373,The Solar System,9781843221371,,,,ES,2002/1/1,Strathearn Books Limited,eng,false,4,12894501,47,41,9,1,2001/1/1,,book,5,4,0,0,0,4.56,128,Hardcover,,5,0,Alexander Gordon Smith,,,,,,22,0,,"non-fiction,reference,school,science"
12895001,0613633334,Pony in a Package,9780613633338,,,,ES,2003/2/1,Turtleback Books,,false,6,1902867,1066,1866,498,17,2003/1/1,Pony in a Package,book,155,130,154,50,9,3.75,141,Hardcover,,0,0,Ben M. Baglio,,,,,,58,17,1,"animals,chapter-books,childrens,christmas,contemporary,family,fiction,juvenile,middle-grade,novels,realistic-fiction"
12895501,1434897982,Enter My Mind: A Collection of Poetry From: 13/10/04 - 12/06/07,9781434897985,,,,ES,2008/8/19,Createspace Independent Publishing Platform,,false,1,12895501,1,0,0,0,2008/8/19,,,0,0,0,0,0,0.00,186,Paperback,,0,0,Mathew Ossja,,,,,,1,0,,
12896001,4000011227,Seiyō Chūsei Shakaishi Kenkyū,9784000011228,,,,ES,,,,false,1,12896001,1,0,0,0,1974/1/1,,,0,0,0,0,0,0.00,,,,0,0,Shirō Masuda,,,,,,1,0,,
12896501,3406575560,Die Tyrannei der Tugend: Calvin und Die Reformation in Genf,9783406575563,,,,ES,,C. H. Beck,ger,false,2,12896501,7,13,3,0,,,book,1,2,0,0,0,4.33,,Hardback,,3,0,Volker Reinhardt,,,,,,3,0,,"history,non-fiction"
12897501,0595206085,Fatal Flaws,9780595206087,,,,ES,2001/11/1,Writers Club Press,,false,3,12897501,0,0,0,0,2001/11/1,,,0,0,0,0,0,0.00,188,Paperback,,0,0,David Ronquillo,,,,,,,0,,
12898001,0736079823,Active Living Every Day W/Online Resource-2nd Edition,9780736079822,,,,ES,2010/11/19,Human Kinetics Publishers,,false,1,12898001,3,5,1,0,2010/11/19,,,1,0,0,0,0,5.00,,Paperback,,1,0,Human Kinetics,,,,,,1,0,,textbooks
12899501,8760400498,Jubeljomfru,,,,,ES,1994/1/1,Bogklubben 12 bøger,dan,false,1,12899501,2,2,1,0,1994/1/1,,book,0,0,0,1,0,2.00,194,Hardcover,,1,0,Jette Drewsen,,,,,,1,0,,
12900001,9048148448,"The Cambridge Platonists in Philosophical Context: Politics, Metaphysics and Religion",9789048148448,,,,ES,2010/12/8,Springer,,false,2,4848373,0,0,0,0,1997/7/31,"The Cambridge Platonists in Philosophical Context: Politics, Metaphysics and Religion (International Archives of the History of Ideas / Archives internationales d'histoire des idées)",,0,0,0,0,0,0.00,258,Paperback,,0,0,,,,"G.A.J. Rogers,J.-M. Vienne,Y.C. Zarka",,,,0,,
12904001,,Star-gazer's hand-book; a brief guide for amateur students of astronomy,2940024658154,,,,ES,,,,true,8,12904002,2,0,0,0,2010/10/14,,book,0,0,0,0,0,0.00,,,,0,0,Henry W. Elson,,,,,,2,0,,
12904501,,Ape and Essence,,,,,ES,1990/1/1,Triad Grafton,eng,false,67,30561,9406,15643,4155,267,1948/1/1,Ape and Essence,book,986,1638,1163,304,64,3.76,144,Paperback,,10,1,Aldous Huxley,,,,,,4273,20,105,"british-literature,classic-literature,classics,dystopia,english-literature,fantasy,fiction,literary-fiction,literature,non-fiction,novels,philosophy,post-apocalyptic,science,science-fiction,speculative-fiction,unfinished"
12907501,,Deadly Reunion,,B0044440ZY,,,ES,,,,true,4,9152363,50,77,22,3,2010/9/1,,,3,9,7,2,1,3.50,,,,0,0,Ron Handberg,,,,,,21,1,,mystery
12908001,145635289X,"Lesbians Have to Eat, Too!",9781456352899,,,,ES,,,,false,1,12908001,1,0,0,0,2011/5/20,,,0,0,0,0,0,0.00,,,,0,0,Jenice Armstead,,,,,,1,0,,
12908501,9736758273,"Înfruntarea (Casa Nopții, #4)",9789736758270,,,,ES,2010/9/20,Litera,rum,false,73,2866718,280269,807927,204465,3468,2008/9/23,Untamed: A House of Night Novel,book,80924,58822,44489,14322,5908,3.95,336,Hardcover,First edition,74,4,"Kristin Cast,P.C. Cast",,,,Mariana Piroteală,,40110,443,1037,"angels,chick-lit,contemporary,fantasy,fiction,high-school,horror,love,magic,mystery,mythology,novels,paranormal,romance,supernatural,teen,urban-fantasy,vampires,young-adult"
12909001,3898357171,Ritter Rost Lesefutter - Rösti und Bö,9783898357173,,,,ES,,,ger,false,1,12909001,14,35,9,2,2005/9/28,,book,3,4,1,0,1,3.89,160,,,9,2,Jörg Hilbert,,,,,,,0,,
12910501,,"Doklady i prigovory, sostoi?avshi",2940036045560,,,,ES,,,,true,1,12910501,0,0,0,0,,,,0,0,0,0,0,0.00,,,,0,0,Russia. Pravitel'stvui?ushchi,,,,,,,0,,
12911001,0307779378,Dangerous Dating: Helping Young Women Say No to Abusive Relationships,9780307779373,,,,ES,2011/10/5,Shaw Books,,true,4,2505837,11,8,2,0,2000/3/7,Dangerous Dating : Helping Young Women Say No to Abusive Relationships,,1,0,1,0,0,4.00,128,ebook,,1,0,Patricia Riddle Gaddis,,,,,,4,0,,
12911501,,Frostriket (Skjalg og Trym #3),9788280873019,,,,ES,2011/9/1,Bazar Forlag,nor,false,1,12911501,7,8,2,0,2011/9/1,Frostriket,book,1,0,1,0,0,4.00,400,Hardcover,1st edition,2,0,Anette Riise-Hansen,,,,,,5,0,,
12912001,0520269055,Casualties of Care: Immigration and the Politics of Humanitarianism in France,9780520269057,,,,ES,2011/8/29,University of California Press,,false,5,13019085,156,316,74,2,2011/1/1,,,30,34,10,0,0,4.27,312,Paperback,,7,0,Miriam I. Ticktin,,,,,,57,5,4,"academic,anthropology,cultural,feminism,france,health,non-fiction,politics,research,school"
12915001,,Onze man in Damascus,,,,,ES,1967/1/1,Kosmos,,false,1,12915001,2,0,0,0,1967/1/1,,book,0,0,0,0,0,0.00,126,,,0,0,Hans Werner,,,,,,2,0,,travel
12915501,9789868522,Holy Bible: The New Testament,,,,,ES,2010/1/1,D&H Brorthers Industries Co. LTD,,false,3,3679790,15,14,4,1,2002/1/1,,book,1,1,1,1,0,3.50,401,Hardcover,,2,1,Anonymous,,,,,,5,1,1,religion
12916001,1850581126,East Cheshire Walks: From Peak To Plain,9781850581123,,,,ES,,,,false,2,12916001,2,4,1,0,2010/10/1,,,0,1,0,0,0,4.00,,,,0,0,Graham Beech,,,,,,,0,,travel
12916501,,One hundred short sermons: being a plain and familiar exposition of the Apostles' Creed; the Lord's prayer; the angelical salutation; the commandments of God; the precepts of the church; the seven sacraments; and the seven deadly sins,2940020209749,,,,ES,,,,true,1,12916501,0,0,0,0,,,,0,0,0,0,0,0.00,,,,0,0,H.J. Thomas,,,,,,,0,,
12917001,,"The case of Archibald Douglas, Esq. and his guardians, appellants. Against His Grace the Duke of Hamilton, Lord Douglas Hamilton, Sir Hew Dalrymple, and others, respondents. To be heard at the Bar of the House of Lords, on Monday, the 16th day of January,",2940017827444,,,,ES,,,,true,3,27368463,0,0,0,0,2011/8/10,,,0,0,0,0,0,0.00,,,,0,0,James William Montgomery,,,,,,,0,,
12917501,1461016215,The A-Z of 13 Habits: Inspired by Warren Buffett,9781461016212,,,,ES,2011/10/7,Createspace Independent Publishing Platform,,false,1,12917501,61,36,8,3,2011/10/7,,,4,4,0,0,0,4.50,70,Paperback,,8,3,Lucas Remmerswaal,Annette Lodge,,,,,50,0,,
12918501,383481220X,Mathematik F�r Physiker: Band 1: Grundkurs,9783834812209,,,,ES,2010/12/9,Vieweg+teubner Verlag,,false,1,12918501,2,0,0,0,2010/12/9,,,0,0,0,0,0,0.00,586,Paperback,,0,0,"Helmut Fischer,Helmut Kaul",,,,,,1,0,,science
12919001,1875659072,At the Far Reach of Their Capacities: Case Studies of Dependent Authorship,9781875659074,,,,ES,,,,false,1,12919001,0,0,0,0,1999/1/28,,,0,0,0,0,0,0.00,,,,0,0,Peter Adams,,,,,,,0,,
12920001,0897297091,Grietas en el Crisol,9780897297097,,,,ES,,,,false,1,12920001,0,0,0,0,2001/1/28,,,0,0,0,0,0,0.00,,,,0,0,"Enrique V. Iglesias,Gustavo Darquea",,,,,,,0,,
12921001,,Hope and Undead Elvis,,B005NUOM9M,,,ES,2011/9/17,Local Hero Press,,true,5,12722436,61,83,22,7,,,,5,8,8,1,0,3.77,233,,,4,1,Ian Thomas Healy,,,,,,28,8,,"action,adventure,fantasy,fiction,science,supernatural,zombies"
12921501,1242814035,"Articles on Works by Jonathan Swift, Including: A Modest Proposal, Gulliver's Travels, a Tale of a Tub, the Battle of the Books, Drapier's Letters, Sermons of Jonathan Swift, an Argument Against Abolishing Christianity",9781242814037,,,,ES,2011/8/26,Hephaestus Books,,false,1,12921501,6,0,0,0,2011/8/26,,,0,0,0,0,0,0.00,,Paperback,,0,0,Hephaestus Books,,,,,,7,0,,
12922501,364223013X,"E Commerce And Web Technologies: 12th International Conference, Ec Web 2011, Toulouse, France, August 30   September 1, 2011, Proceedings (Lecture Notes In Business Information Processing)",9783642230134,,,,ES,2011/8/19,Springer,,false,1,12922501,1,0,0,0,2011/8/19,,,0,0,0,0,0,0.00,310,Paperback,,0,0,,,,"Christian Huemer,Thomas Setzer",,,,0,,
12923001,1616634723,The New Blue Zoo,9781616634728,,,,ES,2010/8/10,Tate Publishing & Enterprises,,false,1,12923001,0,0,0,0,2010/8/10,,,0,0,0,0,0,0.00,32,Paperback,,0,0,William F. Powers,,,,,,,0,,
12923501,0804776725,Bazaar Politics: Power and Pottery in an Afghan Market Town,9780804776721,,,,ES,2011/9/28,Stanford University Press,eng,false,4,12923499,63,67,17,5,2011/9/20,,book,4,9,3,1,0,3.94,272,Paperback,,6,1,Noah Coburn,,,,,,37,2,,"anthropology,international,non-fiction,politics"
12924001,0983408785,Paint the Wind,9780983408789,,,,ES,2011/11/3,Wild Harp & Company Inc.,,false,15,30321234,1179,2359,550,56,1989/1/1,Paint the Wind,book,288,162,79,13,8,4.29,742,Paperback,,4,1,Cathy Cash Spellman,,,,,,508,14,15,"action,adventure,drama,epic,fiction,historical,historical-fiction,magic,magical-realism,romance,tragedy"
12925001,,"A general collection of treatys, declarations of war, manifestos, and other publick papers relating to peace and war: in four volumes",2940017930861,,,,ES,,,,true,4,12924998,0,0,0,0,,,,0,0,0,0,0,0.00,,,,0,0,Stephen Whatley,,,,,,,0,,
12926501,1617881422,Talking Dirty,9781617881428,,,,ES,2011/10/4,Beautiful Trouble Publishing,eng,true,3,12926501,68,135,36,2,2011/10/3,Talking Dirty,book,12,10,10,1,3,3.75,52,ebook,,36,2,"Drea Riley,Nikki Winter",,,,,,28,3,,romance
12927001,0827336691,Air Fares and Ticketing,9780827336698,,,,ES,,,,false,1,12927001,3,0,0,0,1990/2/1,,,0,0,0,0,0,0.00,,,,0,0,"Jeanne Semer-Purzycki,Semerpurzycki",,,,,,,0,1,
12929501,1439196729,Commander in Chic: Every Woman's Guide to Managing Her Style Like a First Lady,9781439196724,,,,ES,2011/11/29,Atria Books,,false,1,12929501,80,132,35,8,2011/11/29,,,9,12,12,1,1,3.77,192,Hardcover,,35,8,Mikki Taylor,,,,,,35,3,4,non-fiction
12930001,0495605107,Engineering Ethics,9780495605102,,,,ES,2010/8/1,Wadsworth Publishing Company,,false,1,12930001,1,0,0,0,2010/8/1,,book,0,0,0,0,0,0.00,313,Paperback,,0,0,"Charles E. Pritchard,Michael J. Harris,Michael S. Rabins",,,,,,1,0,,
12931501,8874242697,Finalmente Mi Bacia Davvero,9788874242696,,,,ES,,,,false,1,12931501,2,3,1,0,2008/1/1,,,0,0,1,0,0,3.00,,,,1,0,Claudia Sapegno,,,,,,,0,,love
12932001,1438082932,Barron's AP Physics B,9781438082936,,,,ES,2011/2/1,,,true,4,10433890,17,21,7,0,2011/2/1,,,1,1,3,1,1,3.00,,ebook,,0,0,Jonathan Wolf,,,,,,7,0,1,
12932501,,"The Rise of the Modern Canadian Penitentiary, 1835-1900",,,,,ES,2011/1/1,Trent University,eng,false,1,12932501,1,4,1,1,2011/1/1,,book,0,1,0,0,0,4.00,386,Spiral-bound,,1,1,Ted  McCoy,,,,,,,0,,
12933501,1611297702,The Wooden Man,9781611297706,,,,ES,2011/9/10,Del Rey,eng,false,1,12933501,415,857,197,4,2011/9/10,The Wooden Man,book,95,82,16,2,2,4.35,752,Hardcover,Science Fiction Book Club Omnibus Edition,197,4,Harry Connolly,,,,,,178,7,1,"fantasy,fiction,horror,urban-fantasy"
12934001,,The Intermediate Sex: A Study of Some Transitional Types of Men and Women! A Classic By Edward Carpenter!,2940013173088,,,,ES,,,,true,42,635410,145,107,31,2,1908/7/16,,book,5,11,9,5,1,3.45,,,,0,0,Edward Carpenter,,,,,,97,1,5,"leadership,lgbt,love,marriage,music,non-fiction,poetry,politics,queer,religion,romance,school,social-issues,spirituality,war"
12935501,0263222543,Swept Off Her Stilettos,9780263222548,,,,ES,2011/12/1,Mills & Boon Riva,,false,19,11179749,144,223,64,15,2011/1/1,Swept Off Her Stilettos,book,11,24,17,9,3,3.48,285,Hardcover,Mills &amp; Boon Riva #31 Large Print,1,2,Fiona Harper,,,,,,57,7,1,"contemporary,harlequin,romance"
12936001,,"Songs and verses ; Bones and I: or, The skeleton at home",2940024549193,,,,ES,,,,true,5,30864917,0,0,0,0,2008/6/1,,,0,0,0,0,0,0.00,,,,0,0,George John Whyte-Melville,,,,,,,0,,
12936501,,Nurses Three: Olympic Duty,,,,,ES,1969/1/1,Golden Press - Golden Girffon Publishing,eng,false,1,12936501,8,15,4,0,1965/1/1,Olympic Duty,book,0,3,1,0,0,3.75,220,Paperback,,4,0,Jean Kirby,,,,,,3,0,,"medical,romance"
12937001,3811858637,Die Schönsten Märchen,9783811858633,,,,ES,,,,false,1,12937001,2,0,0,0,1995/1/1,,,0,0,0,0,0,0.00,,,,0,0,Charles Dickens,,,,,,2,0,,
12937501,,Maximum Impact Social Media Tactics,2940012306364,,,,ES,,,,true,1,12937501,1,0,0,0,2011/4/14,,,0,0,0,0,0,0.00,,,,0,0,Anonymous,,,,,,1,0,,
12938001,,Full Figure Monologues,2940011524905,,,,ES,,,,true,5,12798733,37,1,1,1,2011/9/18,,book,0,0,0,0,1,1.00,,,,0,0,Catina Sinches,,,,,,36,1,,
12938501,,Something from the Heart,2940013393059,,,,ES,,,eng,true,5,12938501,148,250,69,3,2011/10/25,,book,23,13,18,14,1,3.62,128,,,59,3,Amanda Browning,Kazuko Fujita,,,,,61,5,1,"graphic-novels,harlequin,manga,romance"
12939001,1430232234,Pro Android 3,9781430232230,,,,ES,2011/1/1,Apress,,true,4,9070205,113,155,42,4,2010/12/15,,book,10,13,15,4,0,3.69,1186,ebook,,0,0,"Dave MacLean,Satya Komatineni",,,,,,33,2,3,"reference,textbooks"
12939501,,"The Works of Samuel Johnson, LL. D.: Together with His Life, and Notes on His Lives of the Poets",2940024491744,,,,ES,,,,true,9,12939496,0,0,0,0,,,,0,0,0,0,0,0.00,,,,0,0,John   Hawkins,,,,,,,0,,
12940001,0930126157,Mass at Dawn: A Poem Set to Music,9780930126155,,,,ES,,,,false,1,12940001,3,5,1,0,1984/9/28,,,1,0,0,0,0,5.00,,,,1,0,"Christopher Connolly,Roy Campbell",,,,,,3,0,,
12941001,,"Albumblatt (Albumleaf), Op.28, No. 4",2940000573396,,,,ES,,,,true,1,12941001,0,0,0,0,,,,0,0,0,0,0,0.00,,,,0,0,Edvard Grieg,,,,,,,0,,
12942001,3838690850,Die Bedeutung Des Pfandbriefs Auf Dem Internationalen Finanzmarkt,9783838690858,,,,ES,2005/11/8,Diplom.de,,false,1,12942001,0,0,0,0,,,,0,0,0,0,0,0.00,132,Paperback,,0,0,Nicole Vulliemin,,,,,,,0,,
12942501,,Griots: A Sword and Soul Anthology,,,,,ES,,,,true,3,12394951,597,406,97,16,2011/8/7,,book,41,37,16,2,1,4.19,,,,1,0,Milton J. Davis,,,,,,460,10,22,"action,adventure,anthologies,cultural,fantasy,high-fantasy,historical,science-fiction,short-stories,speculative-fiction"
12943001,1166466906,"Cruchley s Picture Of London Or Visitor s Assistant: Comprising The History, Rise, And Progress Of The Metropolis To The Present Period (1832)",9781166466909,,,,ES,,,,false,3,12943000,0,0,0,0,2010/9/10,,,0,0,0,0,0,0.00,,,,0,0,George Frederick Cruchley,,,,,,,0,,
12943501,5901635159,Дневник московского пАдонка,,,,,ES,,Кислород,rus,true,1,12943501,12,33,8,1,2003/1/1,,book,3,3,2,0,0,4.12,,ebook,,8,1,(Дым) LightSmoke,,,,,,4,0,,
12944001,0880010614,Without Stopping: An Autobiography,9780880010610,,,,ES,1985/1/1,Ecco Press,,false,15,438053,516,874,232,23,1972/1/1,Without Stopping: An Autobiography,book,59,82,72,16,3,3.77,377,Paperback,,3,0,Paul Bowles,,,,,,198,8,11,"adventure,autobiography,biography,biography-memoir,cultural,fiction,gay,historical,literature,memoir,music,non-fiction,travel,writing"
12945501,,Abide in Christ: Thoughts on the Blessed Life of Fellowship with the Son of God (microform),2940028646362,,,,ES,,,,true,136,273335,5259,9832,2202,103,1970/1/1,Abide in Christ,book,1354,586,209,38,15,4.47,,,,0,0,Andrew Murray,,,,,,2369,19,403,"christian,christianity,classics,faith,non-fiction,religion,spirituality,theology"
12946001,,Strapped,,B005XQBF9G,,,ES,,,en-GB,true,2,12946001,3,8,2,0,2011/10/19,,book,1,0,1,0,0,4.00,,,,2,0,J.J. Lancer,,,,,,,0,,
12946501,1461122171,Common Sense;: Addressed to the Inhabitants of America,9781461122173,,,,ES,2011/5/1,Createspace Independent Publishing Platform,,false,2,12946501,1,0,0,0,2011/5/1,,,0,0,0,0,0,0.00,72,Paperback,,0,0,John Lollar,,,,,,1,0,,
12947001,,LOWER PORTION UPPER MISSISSIPPI RIVER BASIN SERIES NO. 71,2940025388821,,,,ES,,,,true,1,12947001,0,0,0,0,,,,0,0,0,0,0,0.00,,,,0,0,A. SCHEELE,,,,,,,0,,
12947501,146108265X,The Glendale Witch,9781461082651,,,,ES,2011/10/6,Createspace Independent Publishing Platform,,false,3,12947501,15,34,7,1,2011/9/21,,,6,1,0,0,0,4.86,274,Paperback,,7,1,Deborah Winter-Blood,,,,,,7,0,1,
12949001,,La guerra al malón,,,,,ES,1965/1/1,Editorial Universitaria de Buenos Aires,spa,false,2,12949001,8,25,6,1,1907/1/1,La guerra al malón,book,2,3,1,0,0,4.17,80,Paperback,,5,1,Comandante Manuel Prado,,,,,,2,0,,
12949501,1456744984,One Bullet More: For Ruth,9781456744984,,,,ES,2011/3/30,Authorhouse,,true,2,14358408,0,0,0,0,2011/3/29,,,0,0,0,0,0,0.00,,ebook,,0,0,James Richard Langston,,,,,,,0,,
12950001,0615473113,Mikazuki Jujitsu Manual: Learn Jujitsu,9780615473116,,,,ES,2011/5/5,Mikazuki Publishing House,eng,false,6,12950001,78,103,21,0,2011/5/5,,book,20,0,1,0,0,4.90,136,Paperback,,12,0,Kambiz Mostofizadeh,Hoornaz Mostofizadeh,,,,,49,1,1,sports
12955001,,Divine Summons (The Windrider Saga #1),,B005YTYET0,,,ES,,,eng,true,7,12955001,82,174,42,17,2011/1/1,,book,13,24,3,2,0,4.14,,ebook,,28,12,Rebecca P. Minor,,,,,,12,3,3,"christian,epic-fantasy,fantasy"
12956501,2746715163,Clarence Flûte et le secret de Sybille,9782746715165,,,,ES,2011/10/5,Autrement jeunesse,,false,1,12956501,2,9,2,1,2011/10/5,,,1,1,0,0,0,4.50,61,Paperback,,2,1,Sandrine Bonini,,,,,,,0,,
12957001,,Easy Step By Step Guide To Budgeting for Your Business,,B004INHAYE,,,ES,,,,true,6,12957001,3,0,0,0,2000/10/9,,,0,0,0,0,0,0.00,,ebook,,0,0,Brian B. Brown,,,,,,3,0,,
12958001,,"My Life, Deleted: A Memoir",,B005C6VR1S,,,ES,,,en-US,true,4,11724773,1879,2707,775,111,2011/10/4,,,162,227,250,103,33,3.49,,,,188,10,"Caitlin Rother,Joan Bolzan,Scott Bolzan",,,,,,892,17,59,"biography,biography-memoir,history,medical,memoir,mental-health,non-fiction,psychology,tragedy"
12958501,3935188587,Gott Allein Genügt!: Jesaja 40,9783935188586,,,,ES,,,,false,3,2624406,108,156,36,2,2005/8/30,The All-Sufficient God,,16,16,4,0,0,4.33,,,,0,0,D. Martyn Lloyd-Jones,,,,,,60,1,2,"christian,christianity,non-fiction"
12959001,9792080724,"Piglet Memanjat Pohon (Buku Cerita Seri Menjelajah Bersama Pooh, #8)",,,,,ES,,PT Elex Media Komputindo,ind,false,1,12959001,2,3,1,1,,,book,0,0,1,0,0,3.00,32,Paperback,,1,1,Jean-Pierre Bernier,,,,,,1,0,,
12959501,1232721719,"Gravadors: Rembrandt Van Rijn, Henri Matisse, Albrecht Durer, Andrea Mantegna, Giambattista Bodoni, Zuzana Licko, Hermann Zapf, Salvator Rosa",9781232721710,,,,ES,2011/8/4,"Books LLC, Wiki Series",,false,1,12959501,1,0,0,0,2011/8/4,,,0,0,0,0,0,0.00,,Paperback,,0,0,Source Wikipedia,,,,,,1,0,,
12960001,,Thick Blood,,,,,ES,,,,true,2,12960001,9,23,6,4,2011/10/21,,book,2,3,0,0,1,3.83,,,,4,4,Cotton Carpenter,,,,,,2,0,1,
12962001,,Силви и Бруно,9789546900050,,,,ES,2009/1/1,Делакорт,bul,false,184,612810,2403,3375,973,72,1889/1/1,Sylvie and Bruno,book,200,288,300,138,47,3.47,247,Paperback,,5,1,"Lewis Carroll,Луис Карол",,,,Роза Григорова,,1064,11,77,"british-literature,childrens,classic-literature,classics,english-literature,fantasy,fiction,humor,juvenile,literature,magic,novels,philosophy,poetry,victorian,young-adult"
12963501,1574881000,The World Factbook,9781574881004,,,,ES,1997/10/1,Potomac Books,,false,13,4597455,13,12,3,0,,,book,1,1,1,0,0,4.00,572,Hardcover,,0,0,Central Intelligence Agency,,,,,,5,0,,reference
12965001,,Jynxed,,B005PZMUA8,,,ES,2011/9/26,Resplendence Publishing,eng,true,1,12965001,17,18,7,2,2011/9/26,,book,0,0,5,1,1,2.57,,,,7,2,Melinda Barron,,,,,,9,1,1,"paranormal,romance"
12965501,8466794123,La Bahía del Miedo,9788466794121,,,,ES,2011/9/1,,spa,false,1,12965501,3,8,2,0,2011/1/1,,book,1,0,1,0,0,4.00,176,Paperback,,2,0,Nick Shadow,,,,,,,0,,
12966001,,أوديب ملكا.. أنتيجونا.. ألكترا,,,,,ES,2004/1/1,مكتبة الأسرة ,,false,25,1549,20250,53185,13503,219,-429/1/1,Ἀντιγόνη / Οἰδίπους / Ἠλέκτρα,book,4542,4824,3156,730,251,3.94,167,,,64,7,"Sophocles,سوفوكليس",,,,,,4492,67,121,"academic,adult,adult-fiction,classic-literature,classics,college,drama,european-literature,fantasy,fiction,high-school,historical,historical-fiction,history,literature,mythology,philosophy,plays,poetry,psychology,school,theatre,tragedy"
12967501,978229005X,Les Fleurs du Mal,9789782290052,,,,ES,2012/1/1,Librio,fre,false,854,203220,89882,176434,41424,1142,1857/6/25,Les Fleurs du mal,book,20636,13255,5716,1269,548,4.26,157,Paperback,,119,2,Charles Baudelaire,,,,,,37707,157,2554,"art,classic-literature,classics,college,fiction,france,gothic,high-school,horror,literature,non-fiction,philosophy,poetry,school,unfinished"
12968001,,Belgarath the Sorcerer,,B003E74B06,,,ES,,,en-US,true,27,189802,83329,268729,65813,423,1995/1/1,Belgarath the Sorcerer,book,27690,21100,12846,3164,1013,4.08,,Kindle Edition,,280,2,"David Eddings,Leigh Eddings",,,,,,11562,72,194,"adult,adventure,classics,epic,epic-fantasy,fantasy,fiction,high-fantasy,magic,novels,science-fiction,science-fiction-fantasy,speculative-fiction,young-adult"
12970001,0340674830,Woman's Work,9780340674833,,,,ES,,,,false,1,12970001,6,6,3,1,1997/1/1,,,0,0,1,1,1,2.00,,,,3,1,Sylvia Mulholland,,,,,,,1,,"contemporary,fiction"
12970501,,The Woodlands Orchids Described and Illus. with Stories of Orchid Collecting,,B004UJGLVY,,,ES,,,,true,2,12970501,3,7,2,0,2010/5/18,,,0,1,1,0,0,3.50,,,,2,0,Frederick Boyle,J.L. Macfarlane,,,,,,0,1,
12971001,,Eden,,B005ZS3C5C,,,ES,2011/9/22,iUniverse,en-US,true,7,12376605,2987,1595,411,96,2011/9/1,,book,144,148,70,24,25,3.88,,,,22,20,Janelle Stalder,,,,,,2467,23,6,"action,adventure,dystopia,fantasy,fiction,high-fantasy,magic,paranormal,romance,science-fiction,supernatural,witches,young-adult"
12971501,1463438958,Generations: 1891 -1940 Living on the Islands of Boston Harbor,9781463438951,,,,ES,2011/8/1,Authorhouse,,false,1,12971501,5,10,2,0,2011/8/22,,,2,0,0,0,0,5.00,248,Paperback,,2,0,Laura Thibodeau Jones,,,,,,2,0,,
12972001,0886771587,The Year's Best Horror 08,9780886771584,,,,ES,1980/7/1,DAW,,false,1,12972001,2,4,1,0,1980/7/1,,,0,1,0,0,0,4.00,1,Paperback,,1,0,,,,Karl Wagner,,,1,0,,
12972501,9759990075,Algernon'a Çiçekler ,,,,,ES,2005/1/1,Beyaz Balina Yayınları,tur,false,199,36576608,657743,1675364,408221,14474,1966/3/1,Flowers for Algernon,book,165687,146342,74193,16983,5016,4.10,272,Paperback,,226,21,Daniel Keyes,,,,Aslı Mercan,,185300,1575,6061,"adult,adult-fiction,american,animals,classic-literature,classics,contemporary,drama,fantasy,fiction,high-school,literary-fiction,literature,mental-health,mental-illness,modern-classics,novels,philosophy,psychology,realistic-fiction,romance,school,science,science-fiction,science-fiction-fantasy,short-stories,speculative-fiction,young-adult"
12973501,,Von der Freundschaft: Ein Lesebuch,9783596902279,,,,ES,,Fischer Taschenbuch,ger,false,1,12973501,3,0,0,0,2009/1/1,,book,0,0,0,0,0,0.00,,Paperback,Fischer Klassik,0,0,"Juliane Beckmann,Silvia Bovenschen",,,,,,1,0,,
12974501,1449965601,Tales from the Vault: A Celebration of 100 Boxing Closet Classics,9781449965600,,,,ES,2010/5/5,Createspace Independent Publishing Platform,,false,1,12974501,5,10,2,1,2010/5/5,,,2,0,0,0,0,5.00,738,Paperback,,2,1,Lee Groves,,,,,,3,0,,
12975501,0708918603,An Island Affair,9780708918609,,,,ES,1988/9/1,Ulverscroft,,false,1,12975501,5,11,3,1,1988/9/1,,,1,1,0,1,0,3.67,352,Hardcover,Large Print,3,1,Eleanor Alliston,,,,,,2,0,,
12976501,113535474X,The Italian Novella,9781135354749,,,,ES,2014/1/21,Routledge,,true,6,12976501,0,0,0,0,2002/11/8,,,0,0,0,0,0,0.00,256,ebook,,0,0,,,,Gloria Allaire,,,,0,,
12978501,,"Mystery Women: An Encyclopedia of Leading Women Characters in Mystery Fiction, Volume 1: 1860-1979",,B005LYHHOW,,,ES,,,,true,8,1628831,28,33,9,0,1981/12/12,Mystery Women: An Encyclopedia of Leading Women Characters in Mystery Fiction : 1860-1979,book,3,2,3,0,1,3.67,,,,4,0,Colleen Barnett,,,,,,12,3,3,reference
12981501,0954317963,101 Questions Students Ask about Cooking,9780954317966,,,,ES,2010/1/1,Intrade,,false,2,12981501,12,19,5,0,2010/1/1,101 Questions Students Ask About Cooking,book,1,2,2,0,0,3.80,192,Paperback,,4,0,Joy May,,,,,,5,0,1,non-fiction
12982001,1846945402,The 'i Am' Principle: The Christ Within,9781846945403,,,,ES,2011/5/16,Obooks,,false,2,12982001,7,14,3,0,2011/5/16,,,2,1,0,0,0,4.67,151,Paperback,,2,0,Charles Ogada,,,,,,4,0,,
12982501,3540899391,Dynamics Of Machinery: Theory And Applications,9783540899396,,,,ES,,,,false,4,12982501,4,4,1,0,1989/11/16,,,0,1,0,0,0,4.00,,,,1,0,"Franz Holzweißig,Hans Dresig",,,,,,2,0,,
12983501,3499120065,"Theaterstücke - Was geschah, nachdem Nora ihren Mann verlassen hatte oder Stützen der Gesellschaft / Clara S. musikalische Tragödie / Burgtheater / Krankheit oder Moderne Frauen",,,,,ES,2004/1/1,Rowohlt,ger,false,2,998080,86,122,40,1,1992/8/1,,book,3,12,13,8,4,3.05,285,Paperback,,13,0,Elfriede Jelinek,,,,,,19,2,1,"drama,fiction,literature,plays,theatre"
12984501,8871641264,Siamo tutti nati poliglotti,9788871641263,,,,ES,2003/4/1,,ita,false,2,4253201,16,18,5,0,1991/1/1,Nous sommes tous nes polyglottes: Essai,,3,0,0,1,1,3.60,200,Paperback,,2,0,Alfred A. Tomatis,,,Concetto Campo,Laura Merletti,,3,0,1,
12985001,8843044850,L'italiano: Suoni e forme,9788843044856,,,,ES,2008/3/1,,ita,false,1,12985001,1,0,0,0,2008/1/1,,book,0,0,0,0,0,0.00,,Paperback,Le bussole,0,0,Silvia Calamai,,,,,,,0,,
12986001,958992980X,Cuatro almas,9789589929803,,,,ES,,Random House Mondadori,spa,false,23,6070065,10043,16015,4722,402,2009/1/1,"Jonas (Beautiful Dead, #1)",book,1044,1197,1412,702,367,3.39,269,Paperback,,1,0,Eden Maguire,,,,,,130,68,101,"angels,contemporary,death,fantasy,fiction,ghosts,horror,magic,mystery,paranormal,romance,supernatural,teen,urban-fantasy,young-adult,zombies"
12986501,1438437978,"Colonizing Southampton: The Transformation Of A Long Island Community, 1870 1900 (Excelsior Editions)",9781438437972,,,,ES,2011/9/1,Excelsior Editions/State University of New York Press,,false,1,12986501,0,0,0,0,2011/9/1,,,0,0,0,0,0,0.00,386,Hardcover,,0,0,David Goddard,,,,,,,0,,
12987001,1448204208,A Kind of War,9781448204205,,,,ES,2011/12/1,Bloomsbury Reader,,false,7,12987001,5,2,1,0,1989/9/1,Kind of War,book,0,0,0,1,0,2.00,240,Paperback,,0,0,Pamela Haines,,,,,,1,0,,
12987501,1608612325,When The White House Comes To Zion,9781608612321,,,,ES,,,,false,1,12987501,22,30,9,5,,,book,1,2,5,1,0,3.33,,,,9,5,"Michael K. Winder,Mike Winder,Ronald L. Fox",,,,,,10,1,1,"history,reference,religion"
12988501,,Viagens na Minha Terra,,,,,ES,1988/1/1,Publicações Europa-América,por,false,79,697341,3537,6697,2151,47,1846/1/1,Viagens na Minha Terra,book,255,523,783,391,199,3.11,227,Paperback,,17,2,Almeida Garrett,,,,,,789,7,58,"classics,fiction,literature,novels,romance,school,travel"
12989001,061553029X,Famous Men of the Second World War,9780615530291,,,,ES,2011/9/11,Alacrity Press,,false,2,12989001,1,4,1,0,2011/9/1,,,0,1,0,0,0,4.00,228,Paperback,,1,0,Clark Highsmith,,,,,,,0,,
12990001,,Windshifter,,B0061SNM9G,,,ES,2011/10/31,,eng,true,3,12989994,46,96,22,3,2011/10/31,,book,13,6,1,2,0,4.36,,Kindle Edition,,7,0,S.M. Johnson,,,,,,20,0,3,"fantasy,fiction,steampunk,young-adult"
12991501,,"Her Shadow (Four Winds, #3)",,B0056HCDAC,,,ES,,,,true,6,824813,62,77,19,2,1998/2/1,"Her Shadow (Four Winds) (Harlequin Intrigue, No 457)",book,8,7,2,1,1,4.05,,,,2,1,Aimée Thurlo,,,,,,30,3,,"fiction,paranormal,romance"
12992001,0307879550,The False Princess,9780307879554,,,,ES,,,eng,false,19,6760761,29393,53243,14027,1674,2011/1/25,The False Princess,book,3380,5632,3969,862,184,3.80,,,,30,2,Eilis O'Neal,,,,,Mandy Williams,4655,181,167,"adventure,chick-lit,fairy-tales,family,fantasy,fiction,high-fantasy,high-school,historical,historical-fiction,magic,medieval,middle-grade,mystery,novels,paranormal,romance,teen,witches,young-adult"
12992501,,The Movement,,B005R2W9L4,,,ES,2011/9/25,,,true,2,12992501,30,40,12,4,2011/9/25,,book,5,1,1,3,2,3.33,130,,,10,3,Dave Burns,,,,,,7,2,,
12993001,,"Maricá, Marilá e Maricolá",,,,,ES,2003/1/1,Editora Ática,por,false,1,12993001,4,12,3,0,2003/1/1,,book,2,0,0,1,0,4.00,126,,,3,0,Maria Heloísa Penteado,,,,,,1,0,,
12993501,,"Buried (Serenity, #2)",,B006YRTV3U,,,ES,2012/1/15,Warwick House Press ,eng,true,5,12993501,786,1559,375,33,2011/10/19,Buried,book,175,116,60,16,8,4.16,221,,,368,32,Marissa Farrar,,,,,,337,15,13,"contemporary,fiction,mystery,paranormal,romance,supernatural,suspense,vampires"
12995001,3858813052,Earth Extremes: Nine Projects Made of Space and Time,9783858813053,,,,ES,2010/9/15,Scheidegger and Spiess,,false,1,12995001,0,0,0,0,2010/9/15,,,0,0,0,0,0,0.00,495,Hardcover,,0,0,,Christian Waldvogel,,Jonas Voegeli,,,,0,,
12996001,1409403106,Ethnic Diversity and Federalism: Constitution Making in South Africa and Ethiopia,9781409403104,,,,ES,2011/1/28,Routledge,,false,5,17323280,3,0,0,0,2010/12/1,,,0,0,0,0,0,0.00,310,Hardcover,,0,0,Yonatan Tesfaye Fessha,,,,,,3,0,,politics
12997001,3613500582,"Schiffe, Boote, Flösse Unter Riemen Und Segelhistor. Schiffs  U. Bootsfunde ; Berühmte Segelschiffe",9783613500587,,,,ES,,,,false,1,12997001,2,4,1,0,1987/1/1,,,0,1,0,0,0,4.00,,,,1,0,"Alfred Dudszus,Ernest Henriot,Friedrich Krumrey",,,,,,1,0,,
12998001,0230203590,Globalization and Utopia: Critical Essays,9780230203594,,,,ES,2009/4/15,Palgrave Macmillan,,false,1,12998001,8,3,1,0,2009/4/15,,,0,0,1,0,0,3.00,288,Hardcover,,1,0,,,,"Chamsy el-Ojeili,Patrick Hayden",,,6,0,,
12998501,,"Watch on the Rhine (Posleen War: Sidestories, #1)",,B002V59TVS,,,ES,2009/4/23,Audible Frontiers,,false,5,524866,3187,9305,2369,67,2005/1/1,"Watch on the Rhine (Posleen War: Sidestories, #1)",book,820,801,552,149,47,3.93,,Audiobook,Unabridged,3,0,"John Ringo,Tom Kratman",,,,,Marc Vietor,372,12,15,"action,adventure,aliens,amazon,fantasy,fiction,science-fiction,science-fiction-fantasy,war"
12999001,,Perfect Together,,B003Z4K9AO,,,ES,,,,true,6,682559,309,469,128,4,2003/6/1,Perfect Together,,27,44,45,11,1,3.66,,,,3,0,Lisa Plumley,,,,,,116,15,,"adult,chick-lit,contemporary,fiction,funny,romance"
12999501,286967211X,"Le pacte (Gorn, #2)",9782869672116,,,,ES,1993/9/1,Vents d'Ouest,fre,false,3,12117867,25,36,10,0,1993/9/1,"Le pacte (Gorn, #2)",book,1,5,3,1,0,3.60,46,Hardcover,,1,0,Tiburce Oger,,,,,,4,0,,"comics,demons,family,fantasy"
13000501,,The Most Coveted Prize ,,0373130236,,,ES,2011/10/18,Mills & Boon Modern,eng,true,24,12511729,747,1001,328,47,2011/1/1,The Most Coveted Prize,book,47,61,117,68,35,3.05,192,Kindle Edition,UK Edition,1,0,Penny Jordan,,,,,,301,2,16,"chick-lit,contemporary,fiction,harlequin,romance"
13001501,807176581,Stříbrný vítr,,,,,ES,1997/10/1,Knižní klub,cze,false,5,6699744,193,386,118,5,1910/1/1,Stříbrný vítr,book,13,38,43,16,8,3.27,288,Hardcover,,6,1,Fráňa Šrámek,,,,,,38,2,5,"classics,school"
13002001,,You Can't Say That: Memoirs,,B005OI77MC,,,ES,,,en-GB,true,4,13002000,191,333,89,11,2011/10/24,,book,16,41,27,3,2,3.74,,Kindle Edition,,15,0,Ken Livingstone,,,,,,66,4,3,"autobiography,biography,history,non-fiction,politics"
13003501,,PKNA n. 5: Ritratto dell'eroe da giovane,,,,,ES,1997/5/1,The Walt Disney Company Italia,ita,false,1,13003501,50,135,31,2,1997/5/1,PKNA n. 5: Ritratto dell'eroe da giovane,periodical,16,10,5,0,0,4.35,80,Paperback,First,31,2,"Alessandro Sisti,Walt Disney Company","Alessandro Barbucci,Massimo Sardi",,,,,12,1,,"comics,graphic-novels"
13004001,0545346371,NFL: AFC/NFC Flip Book 2011,9780545346375,,,,ES,2011/9/1,Scholastic Inc.,,false,1,13004001,18,35,8,2,2011/9/1,,,5,2,0,1,0,4.38,32,Paperback,,8,2,Jim Gigliotti,,,,,,4,0,1,sports
13005001,1141740788,"Tables Shewing the Cost of Tea, with All Charges [&c.].",9781141740789,,,,ES,2010/1/1,Nabu Press,,false,1,13005001,0,0,0,0,2010/1/1,,,0,0,0,0,0,0.00,50,Paperback,,0,0,Edward Townend,,,,,,,0,,
13006001,1456764594,American Jihad Rising,9781456764593,,,,ES,2011/6/6,Authorhouse,,false,4,14360288,0,0,0,0,2011/6/6,,,0,0,0,0,0,0.00,172,Paperback,,0,0,Michael A. Elliott,,,,,,,0,,
13007501,0531204510,Ocean Life,9780531204511,,,,ES,2008/3/1,Children's Press(CT),,false,5,12314834,10,23,6,1,2008/3/1,,,2,1,3,0,0,3.83,32,Hardcover,,1,1,Carolyn Franklin,,,,,,-1,4,,"non-fiction,picture-books,science"
13008501,0613974247,Gold Digger's Club,9780613974240,,,,ES,2003/1/1,Turtleback Books,,false,2,3253959,9,6,2,0,2003/3/1,The Gold Diggers Club,book,0,1,0,1,0,3.00,,Hardcover,,0,0,Karen Rivers,,,,,,6,0,,
13009501,,Jim Wins,,,,,ES,1986/1/1,"Modern Curriculum Press, Pearson Learning",eng,false,1,13009501,18,14,3,0,1974/1/1,,book,2,1,0,0,0,4.67,8,,,3,0,Janis Asad Raabe,Jeff Gundlach,,,,,10,1,,
13010001,1234764857,"Forgotten Realms - Inhabitants by Race: Aberrations, Animates, Beasts, Constructs, Elemental Creatures, Fey, Humanoids, Immortals, Magical Beasts, Mon",9781234764852,,,,ES,2012/10/13,"Books LLC, Wiki Series",,false,1,13010001,0,0,0,0,2011/11/4,,,0,0,0,0,0,0.00,,Paperback,,0,0,Source Wikipedia,,,,,,,0,,
13010501,,Prison At Obregon,,,,,ES,1976/1/1,Popular Library,eng,false,1,13010501,1,0,0,0,1976/1/1,,book,0,0,0,0,0,0.00,,Mass Market Paperback,,0,0,Bill Adkins,,,,,,1,0,,
13011001,,"WE'RE NOT LEAVING, 9/11 Responders Tell Their Stories of Courage, Sacrifice and Renewal",,B005MSOIJ4,,,ES,,,en-US,true,2,12254721,188,321,73,6,2011/9/6,,,42,22,5,4,0,4.40,,,,27,0,Benjamin J. Luft,,,,,,99,5,2,"action,biography,biography-memoir,drama,family,historical,history,non-fiction,short-stories,survival,true-crime,war"
13012001,0717513114,"European and World History, 1815-1919",9780717513116,,,,ES,,,,false,1,13012001,0,0,0,0,,,,0,0,0,0,0,0.00,,,,0,0,Philip Sauvain,,,,,,,0,,
13012501,1611229774,Logarithmically Periodic Solids,9781611229776,,,,ES,2011/6/14,Nova Science Publishers,,false,1,13012501,0,0,0,0,2011/4/1,,,0,0,0,0,0,0.00,62,Paperback,,0,0,Antony J. Bourdillon,,,,,,,0,,
13013001,2298064962,Au-delà de la vérité,,,,,ES,2013/1/1,France Loisirs,fre,false,35,15801667,11825,19862,5076,699,2012/10/8,Swimming at Night,book,1438,2142,1174,260,62,3.91,440,Hardcover,,9,1,Lucy Clarke,,,,,,5853,98,119,"adult,adult-fiction,adventure,chick-lit,contemporary,crime,drama,family,fiction,mystery,mystery-thriller,novels,relationships,romance,suspense,thriller,travel"
13013501,1602556512,Guía de estudio Principios de Vida,9781602556515,,,,ES,2011/10/31,Grupo Nelson,,false,6,6050450,597,739,164,22,2008/6/3,30 Life Principles (Life Principles Study),,109,36,13,5,1,4.51,160,Paperback,,1,0,Charles F. Stanley,,,,,,181,10,133,"christian,christianity,faith,non-fiction,religion,theology"
13014001,,Poetry; A Critical And Historical Introduction,,,,,ES,1962/1/1,"Glenview, Ill., Scott, Foresman",eng,false,1,13014001,2,3,1,0,1962/1/1,,book,0,0,1,0,0,3.00,521,Paperback,,1,0,"Harry Morris,Irving Ribner",,,,,,,1,,
13014501,193565442X,"Chi's Sweet Home, Volume 9",9781935654421,,,,ES,2012/8/28,Vertical,eng,false,14,13014501,1222,3218,726,44,2012/4/23,チーズスイートホーム 9,book,415,223,75,13,0,4.43,150,Paperback,,637,38,Kanata Konami,,,,,,322,18,8,"animals,childrens,comics,fiction,funny,graphic-novels,graphic-novels-comics,humor,juvenile,manga,middle-grade,realistic-fiction"
13015001,1463719264,Accidental Antichrist,9781463719265,,,,ES,2011/7/25,Createspace Independent Publishing Platform,,false,1,13015001,0,0,0,0,2011/7/25,,,0,0,0,0,0,0.00,284,Paperback,,0,0,Michael Johnson,,,,,,,0,,
13015501,,New Year's Day (The Seventies),,,,,ES,1924/1/1,D. Appleton,eng,false,7,13015501,126,174,44,11,1924/1/1,,book,12,19,12,1,0,3.95,160,Hardcover,,41,9,Edith Wharton,,,,,,70,7,3,"american,classics,fiction,novella"
13016001,8448037650,Sendas de tinieblas,9788448037659,,,,ES,,,spa,false,5,62482,4902,14803,3383,46,2004/1/1,"Paths of Darkness Collector's Edition (Forgotten Realms: Paths of Darkness, #1-4)",book,1876,998,426,70,13,4.38,,Hardcover,Edición para coleccionistas,22,0,R.A. Salvatore,,,,"Gemma Gallart,Joana Claverol Poza,Miquel Alonso Huguet",,757,9,32,"adult,adventure,contemporary,epic-fantasy,fantasy,fiction,high-fantasy,literature,science-fiction-fantasy,young-adult"
13016501,3522165101,"Der Tempel des Schreckens (FantasyAbenteuerSpielbücher, #12)",9783522165105,,,,ES,,,ger,false,12,1129519,510,1036,288,14,1985/4/1,Temple of Terror,book,66,85,98,33,6,3.60,119,Paperback,,0,0,Ian Livingstone,,,,"Dirk Schulter,Frank Schulter",,112,8,2,"adventure,fantasy,fiction,juvenile"
13018001,1452533164,Returning Home to Another War: Veterans and Ptsd,9781452533162,,,,ES,2011/5/18,Balboa Press,,false,1,13018001,0,0,0,0,2011/5/18,,,0,0,0,0,0,0.00,108,Paperback,,0,0,Kalawai'a Goo,,,,,,,0,,
13018501,,World Wide Illustrated Encyclopedia (in 15 Volumes),,,,,ES,1937/1/1,"Books, Inc.",,false,1,13018501,1,0,0,0,1937/1/1,,book,0,0,0,0,0,0.00,,Hardcover,,0,0,,,,C. Ralph Taylor,,,,1,,
13021001,0140549846,Little Horse Bus,9780140549843,,,,ES,1994/11/14,Puffin Books,eng,false,6,2055733,80,80,22,5,1952/1/1,The Little Horse Bus,book,4,8,8,2,0,3.64,48,Paperback,,0,0,"Eaun Wallace,Graham Greene",Edward Ardizzone,,,,,52,8,1,"adventure,animals,art,classics,fiction,picture-books"
13021501,2731606231,"Les Gorilles Et Le Roi Dollar (Sammy, #8)",9782731606232,,,,ES,1977/1/1,Dupuis,fre,false,3,13021501,9,17,5,0,1977/1/1,,book,1,0,4,0,0,3.40,,Paperback,,4,0,,,,,,,,0,,
13022001,1444409417,The Pilgrim's Progress from This World to That Which is to Come Delivered Under the Similitude of a Dream,9781444409413,,,,ES,2011/2/14,Aeterna ,eng,false,1269,29797,165480,364757,91472,2711,1678/1/1,The Pilgrim's Progress,book,39469,24762,17254,6615,3372,3.99,134,Paperback,,1,0,John Bunyan,,,,,,58305,600,5382,"adult,adult-fiction,adventure,british-literature,christian,christian-fiction,christianity,classic-literature,classics,english-literature,faith,fantasy,fiction,historical-fiction,history,inspirational,literature,non-fiction,novels,philosophy,poetry,religion,school,spirituality,theology,unfinished,young-adult"
13023001,,Bible Babel,,B0035D9UTG,,,ES,,,,true,1,13023001,57,88,22,2,2010/1/21,,book,8,7,6,1,0,4.00,,,,22,2,Kristin Swenson,,,,,,18,1,11,non-fiction
13023501,952563728X,Huono karma,9789525637281,,,,ES,2011/10/4,Bazar,fin,false,67,3287351,15514,39887,11099,992,2007/1/1,Mieses Karma,book,2436,3816,3223,1150,474,3.59,280,Hardcover,,117,14,David Safier,,,,Tiina Hakala,,2409,83,177,"adult,chick-lit,comedy,contemporary,death,fantasy,fiction,funny,humor,modern,novels,romance"
13024001,,A Wolf Age,9781446149232,,,,ES,2010/11/8,Lulu,,false,1,13024001,0,0,0,0,2010/11/8,,,0,0,0,0,0,0.00,380,Paperback,First Edition,0,0,Delaney Carpenter,,,,,,,0,,
13024501,0713468467,English Heritage Book of Stone Age Britain: Explore 500 Thousand Years of Human Existence,9780713468465,,,,ES,2003/6/30,B.T. Batsford/English Heritage,,false,1,13024501,3,6,2,0,1997/11/5,,,0,0,2,0,0,3.00,128,Paperback,,2,0,Nicholas Barton,,,,,,,0,1,
13025001,1608195880,Indigo: In Search of the Color That Seduced the World,9781608195886,,,,ES,2012/6/12,Bloomsbury USA,,false,11,9970627,1505,1110,390,113,2011/1/1,,book,38,67,134,99,52,2.85,256,Paperback,,6,1,Catherine E. McKinley,,,,,,174,20,31,"adult,american-history,art,biography-memoir,historical,historical-fiction,history,memoir,non-fiction,poetry,research,travel,unfinished"
13026501,,Mardi Gras Murders,,B00394F3QA,,,ES,,,en-GB,true,2,7669860,11,15,5,1,2009/1/1,,book,0,3,0,1,1,3.00,,,,2,1,"Nicole Daines,Robert Daines",,,,,,4,0,1,
13027501,2702436145,Un Cadavre Dans La Biblioth�que (Nouvelle Traduction R�vis�e),9782702436141,,,,ES,2011/6/15,Le Masque,,false,1,13027501,4,0,0,0,,,,0,0,0,0,0,0.00,192,Unknown Binding,,0,0,Unknown,,,,,,,0,,
13028501,1846590922,Shape-Shifter,9781846590924,,,,ES,2011/9/1,Telegram,eng,false,8,1914143,217,215,57,9,1990/1/1,Shape Shifter,book,14,22,17,2,2,3.77,166,Paperback,,4,2,Pauline Melville,,,,,,131,5,3,"british-literature,collections,cultural,fiction,historical-fiction,literature,magical-realism,modern,poetry,queer,short-stories,social-issues"
13029001,4344011996,"Nihongo No Shinjitsu: Tamirugo De Ki Ki, Manʼyōshū O Yomitoku",9784344011991,,,,ES,,,,false,1,13029001,1,0,0,0,2006/1/1,,,0,0,0,0,0,0.00,,,,0,0,Takaaki Tanaka,,,,,,,0,1,language
13029501,9781466050,As Confissões de Dulce,,,,,ES,2011/1/1,,por,true,3,13024415,4,9,2,0,2011/1/1,,book,1,1,0,0,0,4.50,,ebook,Smashwords Edition,1,0,Victor Domingos,,,,,,2,0,,
13031001,8475270077,Corto Maltés : siempre un poco más lejos,9788475270074,,,,ES,1981/11/1,"Nueva Frontera, S.A.",spa,false,20,1458054,555,1508,354,17,1971/1/1,Corto Matlese : Corto toujours un peu plus loin,book,161,136,45,12,0,4.26,124,,,3,0,Hugo Pratt,,,,,,109,4,3,"adventure,comics,fantasy,fiction,graphic-novels,graphic-novels-comics,historical,historical-fiction,short-stories"
13032501,0198282664,Seventeenth Century Economic Documents,9780198282662,,,,ES,,,,false,1,13032501,0,0,0,0,,,,0,0,0,0,0,0.00,,,,0,0,Joan Thirsk,,,J.P. Cooper,,,,0,,
13033001,1451016409,The Great Violinists and Pianists (Classic Reprint),9781451016406,,,,ES,2018/11/30,Forgotten Books,,false,19,19254256,3,5,1,0,2007/1/1,,,1,0,0,0,0,5.00,340,Paperback,,0,0,George Titus Ferris,,,,,,2,0,,"biography,classics,collections,essays,history,music"
13034501,9029548541,Het fotopaleis,9789029548540,,,,ES,1980/1/1,De Arbeiderspers,nl,false,14,131098,577,878,247,21,1978/1/1,Picture Palace,book,44,84,90,23,6,3.55,362,Paperback,Grote ABC #384,0,0,Paul Theroux,,,,Tineke Donkers,,249,14,4,"american,art,contemporary,death,fiction,literary-fiction,literature,novels"
13035001,1441559310,Brazilian Soul In Verses: In The Land Of Uncle Sam,9781441559319,,,,ES,,,,false,1,13035001,1,0,0,0,2009/1/1,,,0,0,0,0,0,0.00,,,,0,0,Kelen Daves,,,,,,,0,,
13036001,,Nothing to do with Justice: The Di Fingleton Story,,B005PSUO58,,,ES,,,,false,3,13036001,39,82,20,3,2010/1/1,,book,9,5,5,1,0,4.10,,Paperback,,19,3,Diane Fingleton,,,,,,16,1,1,"biography,memoir,politics,psychology"
13037501,,The Wedding Spell (Wyrrd Witches),,B005WZZKI0,,,ES,,,,true,2,1819777,350,434,121,6,1999/4/1,Wedding Spell ,book,28,37,41,8,7,3.59,,,,25,1,Donna Fletcher,,,,,,89,7,17,"fantasy,fiction,historical,love-story,magic,paranormal,romance,witches"
13038001,1444725181,Return Man,9781444725186,,,,ES,2012/3/29,Hodder & Stoughton,eng,false,14,13172164,3168,5452,1418,211,2012/1/1,,book,386,576,337,88,31,3.84,417,Paperback,,30,5,V.M. Zito,,,,,,987,21,36,"adult,adventure,dystopia,fantasy,fiction,horror,post-apocalyptic,science-fiction,thriller,zombies"
13038501,,Sydamen tulikoe,9789519247922,,,,ES,1984/1/1,Viihdeviikarit,fin,false,1,13038501,1,2,1,1,1984/1/1,,book,0,0,0,1,0,2.00,124,,,1,1,Lynn Kingston,,,,Marja Hildén,,,0,,
13039501,1420502247,Bias in the Media,9781420502244,,,,ES,2010/4/1,Lucent Books,,false,2,13039501,6,5,1,0,2010/6/14,,book,1,0,0,0,0,5.00,112,Hardcover,,1,0,Hal Marcovitz,,,,,,3,1,,non-fiction
13042001,111324626X,An Historical Sketch Of The Provincial Dialects Of England: Illustrated By Numerous Examples,9781113246264,,,,ES,,,,false,10,30712071,0,0,0,0,2013/1/28,,,0,0,0,0,0,0.00,,,,0,0,J.O. Halliwell-Phillipps,,,,,,,0,,
13042501,,The 5th Division: Jason's Story (A Novelette),,B005HQKQJ2,,,ES,,,eng,true,1,13042501,2,0,0,0,2011/8/16,,book,0,0,0,0,0,0.00,46,,,0,0,Rami Najib,,,,,,2,1,,
13043001,,"Superstitions - Origins, Explanations and Examples",2940032809340,,,,ES,,,eng,true,3,13043001,12,18,6,1,2011/10/2,,book,0,2,2,2,0,3.00,,,,4,0,Carole Somerville,,,,,,6,0,,non-fiction
13043501,,"Angelique (Orchidea: Love on the Bayou, #1)",,,,,ES,2011/1/1,Siren Publishing,eng,true,3,13043501,1184,2848,719,23,2011/9/1,Angelique,book,274,236,138,49,22,3.96,,ebook,,644,21,Dixie Lynn Dwyer,,,,,,337,14,7,"abuse,action,adult,bdsm,contemporary,erotica,family,fiction,menage,romance"
13045501,,Six Little Deaths,,B005EXCGKA,,,ES,,,,true,1,13045501,41,65,16,4,2011/7/27,,,8,3,4,0,1,4.06,,Kindle Edition,,16,4,Marion Husband,,,,,,25,1,,"amazon,fiction,historical,historical-fiction,literary-fiction,short-stories,war"
13048501,,The Spy Who Was Never Caught,,,,,ES,1967/1/1,"Hawthorn Books, Inc.",eng,false,2,13048501,7,1,1,0,1966/1/1,The Spy Who Wasn't Caught,book,0,0,0,0,1,1.00,240,Hardcover,1st American ed.,1,0,Ronald Seth,,,,,,5,1,,
13049001,0807752770,"The African American Struggle for Secondary Schooling, 1940-1980:: Closing the Graduation Gap",9780807752777,,,,ES,2011/11/11,Teachers College Press,,false,3,13049001,8,4,1,0,2011/10/28,,,0,1,0,0,0,4.00,264,Paperback,,1,0,"John L. Rury,Shirley A. Hill",,,,,,6,0,,academic
13050501,3899052021,ADAC Länderlexikon - Die Welt 2005,9783899052022,,,,ES,2004/9/30,Adac Verlag ,,false,1,13050501,1,0,0,0,,,,0,0,0,0,0,0.00,,Paperback,,0,0,Richard Aczel,,,,,,,0,,
13051001,3791540319,Abenteuer Mit Doktor Dolittlee,9783791540313,,,,ES,,,ger,false,15,325418,765,1300,324,14,1925/1/1,Doctor Dolittle's Puddleby Adventures,book,105,141,60,13,5,4.01,,,,2,0,Hugh Lofting,,,,,,288,17,7,"adventure,animals,childrens,classics,fantasy,fiction,middle-grade,speculative-fiction,young-adult"
13051501,055317391X,Destiny.,9780553173918,,,,ES,1987/1/1,Bantam Books,eng,false,28,690329,2107,3790,959,92,1987/3/1,Destiny,book,347,316,218,59,19,3.95,959,,,14,2,Sally Beauman,,,,,,821,21,42,"chick-lit,classics,fiction,historical,historical-fiction,love,romance,young-adult"
13052501,,The Saint Sees It Through,,,,,ES,1954/11/1,"Avon Publications, Inc.",eng,false,14,390251,259,485,128,5,1946/1/1,The Saint Sees It Through,book,28,51,43,6,0,3.79,156,Mass Market Paperback,619,1,0,Leslie Charteris,,,,,,94,10,2,"adventure,crime,fiction,literature,mystery,suspense,thriller"
13057501,3612651390,So Grün War Mein Tal,9783612651396,,,,ES,1958/1/1,Gesamtherstellung Mohn & Co,ger,false,85,40496,35039,55426,13309,1219,1939/1/1,How Green Was My Valley,book,5828,4659,2173,482,167,4.16,447,Hardcover,,3,1,Richard Llewellyn,,,,,,19469,52,455,"adult,adult-fiction,british-literature,classic-literature,classics,drama,english-literature,family,fiction,film,historical,historical-fiction,history,literary-fiction,literature,love,memoir,modern-classics,non-fiction,novels,religion,romance,unfinished,young-adult"
13059001,,Salome,,B005R412D8,,,ES,,,,true,371,67762,18428,37605,10185,516,1891/1/1,Salome,book,2472,3483,3077,929,224,3.69,,,,6,0,Oscar Wilde,,,,,,5638,87,117,"adult,adult-fiction,art,british-literature,classic-literature,classics,college,drama,english-literature,european-literature,fiction,gothic,historical,historical-fiction,horror,literature,mythology,plays,poetry,queer,religion,school,short-stories,theatre,tragedy,victorian"
13059501,1857130081,Book Production,9781857130089,,,,ES,1995/6/1,Chapman & Hall,,false,2,13059501,3,0,0,0,,,,0,0,0,0,0,0.00,,Hardcover,,0,0,John Peacock,,,,,,,1,,non-fiction
13060501,1593332076,A Turkish Woman's European Impressions,9781593332075,,,,ES,2005/3/11,Gorgias Press,,false,11,32306128,137,137,33,7,2005/3/1,Bir Türk Kadınının Avrupa İzlenimleri,book,15,9,8,1,0,4.15,304,Hardcover,,0,0,Zeynep Hanım,,,,,,85,5,3,"non-fiction,politics,travel"
13061501,1445858622,"Breaking Silence (Kate Burkholder, #3)",9781445858623,,,,ES,2011/12/1,Windsor,,false,34,9954597,20495,49996,12259,1158,2011/1/1,Breaking Silence,book,4082,5462,2367,289,59,4.08,460,Hardcover,,1,0,Linda Castillo,,,,,,5136,121,406,"adult,adult-fiction,contemporary,crime,detective,drama,fiction,murder-mystery,mystery,mystery-thriller,religion,romance,suspense,thriller"
13062501,1234680262,"Brickipedia - Harry Potter Minifigures: Alicia Spinnet, Amos Diggory, Angelina Johnson, Anthony Goldstein, Aragog, Argus Filch, Arthur Weasley, Barty Crouch Junior, Barty Crouch Senior, Basilisk, Bassist, Bathilda Bagshot, Beauxbatons Student, Bellatri...",9781234680268,,,,ES,2011/10/27,"Books LLC, Wiki Series",,false,1,13062501,0,0,0,0,2011/10/27,,,0,0,0,0,0,0.00,,Paperback,,0,0,Source Wikipedia,,,,,,,0,,
13063001,0778742830,Hanukkah,9780778742838,,,,ES,2008/10/1,Crabtree Publishing Company,,false,3,13191727,6,4,2,1,2008/10/1,,,0,0,1,0,1,2.00,32,Hardcover,,0,0,Molly Aloian,,,,,,1,0,,holiday
13064001,,Hässja,,,,,ES,,,swe,false,1,13064001,4,11,3,0,,,book,0,2,1,0,0,3.67,,,,3,0,Åke Smedberg,,,,,,,0,,
13064501,9781611293,The Castings Trilogy,,,,,ES,2010/1/1,Orbit,eng,false,9,8862170,1908,2665,657,66,2010/1/1,Castings,book,256,231,132,27,11,4.06,1258,Hardcover,Omnibus Edition,3,0,Pamela Freeman,,,,,,760,17,54,"adult,adult-fiction,adventure,dark,epic-fantasy,fantasy,fiction,ghosts,high-fantasy,magic,paranormal,romance,young-adult"
13066501,9710208055,Someday My Prince,9789710208055,,,,ES,2002/1/1,Precious Pages Corp.,tgl,false,1,13066501,1399,928,217,6,2002/1/1,Someday My Prince,book,133,35,32,10,7,4.28,256,Mass Market Paperback,First Printing,217,6,Martha Cecilia,,,,,,1095,0,24,romance
13068501,1162734345,Modern Customs and Ancient Laws of Russia 1891,9781162734347,,,,ES,,,,false,1,13068501,2,0,0,0,2007/7/1,Modern Customs and Ancient Laws of Russia 1891,,0,0,0,0,0,0.00,,,,0,0,Maxime Kovalevsky,,,,,,2,0,,"anthropology,history"
13069001,8324016813,Historie miłosne,9788324016815,,,,ES,2010/11/8,Społeczny Instytut Wydawniczy Znak,pol,false,58,6261676,10570,19828,5272,454,2006/1/17,Odette Toulemonde et autres histoires,book,1413,1891,1381,469,118,3.76,320,Paperback,,7,0,Éric-Emmanuel Schmitt,,,,"Barbara Grzegorzewska,Wawrzyniec Brzozowski",,3889,37,107,"adult,anthologies,contemporary,drama,fiction,france,literary-fiction,literature,love,novella,novels,romance,short-stories"
13069501,1849181160,Running Scared (Spirou and Fantasio #3),9781849181167,,,,ES,2012/6/16,,,false,15,13043259,173,408,106,3,1988/1/1,"Spirou et Fantasio, tome 40 : La Frousse aux trousses",book,35,30,32,8,1,3.85,50,,,18,0,Tome,Janry,,,,,22,3,,"adventure,comics"
13070501,,Jane Eyre,,B005ECTYLA,,,ES,,,,true,3561,10210,2147678,5848630,1422211,35857,1847/10/16,Jane Eyre,book,642987,441582,230210,69305,38127,4.11,,,,0,0,Charlotte Brontë,,,Amanda Lee,,,548070,4131,42246,"adult,adult-fiction,british-literature,chick-lit,classic-literature,classics,drama,english-literature,feminism,fiction,gothic,high-school,historical,historical-fiction,literary-fiction,literature,love,mystery,novels,romance,school,victorian,young-adult"
13072501,,تحليل وتصميم نظم المعلومات,,,,,ES,,خوارزم للنشر والتوزيع,ara,false,1,13072501,32,0,0,0,,,book,0,0,0,0,0,0.00,511,Paperback,,0,0,جراهام كورتيس,,,,,,24,0,1,
13073001,,Aventuras da Memória,,,,,ES,2008/1/1,Demu/Iphan,por,false,1,13073001,5,6,2,0,2008/1/1,Aventuras da Memória,book,0,1,0,1,0,3.00,17,,,2,0,Patricia Engel Secco,,,,,,2,0,,
13074501,1608449246,The Dog Ate My Homework,9781608449248,,,,ES,2011/1/6,Dog Ear Publishing,,false,2,13074501,5,9,2,2,2011/1/6,,,1,1,0,0,0,4.50,204,Paperback,,2,2,Joseph Dwyer,,,,,,2,0,,
13075001,1232795429,"Personer Fra Manchester: Brian Kidd, Roy Harper, Nicky Butt, Ross Brawn, Jon Macken, Wes Brown, Stephen Bywater, Dominic Monaghan, Phil Lynott",9781232795421,,,,ES,2011/8/5,"Books LLC, Wiki Series",,false,1,13075001,0,0,0,0,2011/8/5,,,0,0,0,0,0,0.00,,Paperback,,0,0,Source Wikipedia,,,,,,,0,,
13075501,3890073131,The Organ Yearbook 1994,9783890073132,,,,ES,1995/1/1,Laaber-Verlag,eng,false,1,13075501,3,0,0,0,1995/1/1,,book,0,0,0,0,0,0.00,170,Paperback,,0,0,,,,"Martin Renshaw,Peter  Williams",,,2,0,,
13076001,,"London's Curse:  Murder, Black Magic & Tutankhamun",,B0060GR41Q,,,ES,2011/10/31,The History Press,,true,3,12001379,40,33,18,7,2011/10/31,,,0,1,4,4,9,1.83,,,,2,0,Mark Beynon,,,,,,8,-1,,"crime,historical,history"
13076501,1609493125,A Haunted History of Denver's Croke-Patterson Mansion,9781609493127,,,,ES,2011/1/9,The History Press,,false,3,13076501,38,60,20,7,2011/9/8,,,1,5,8,5,1,3.00,144,Paperback,,17,6,"Ann Alexander Leggett,Jordan Alexander Leggett",,,,,,15,1,1,"history,non-fiction"
13077001,,A Princess of Mars,,,,,ES,1963/1/1,London: Oxford University Press,eng,false,792,40395,84627,177885,46776,3285,1912/2/7,A Princess of Mars,book,12685,17090,13021,3057,923,3.80,120,Paperback,,0,0,Edgar Rice Burroughs,,,,,,29256,101,3139,"action,adult,adult-fiction,adventure,aliens,american,classic-literature,classics,fantasy,fiction,literature,novels,romance,science,science-fiction,science-fiction-fantasy,speculative-fiction,unfinished,young-adult"
13078501,,"Blackhand Strawman, A History of Organized Crime in Kansas City",,,,,ES,,,,false,1,13078501,34,31,8,3,,,book,2,3,3,0,0,3.88,,,,8,3,Terence O'Malley,,,,,,25,0,,non-fiction
13079001,,God or a Can of Worms,9780557986040,,,,ES,2011/3/3,Lulu,,false,1,13079001,0,0,0,0,2011/3/3,,,0,0,0,0,0,0.00,144,Paperback,,0,0,Bumps Arnold,,,,,,,0,,
13080501,8806160869,La morte come tema culturale: Immagini e riti mortuari nell'antico Egitto,9788806160869,,,,ES,2002/5/1,,ita,false,2,13080501,21,21,5,0,2000/1/1,Der Tod als Thema der Kulturtheorie: Todesbilder und Todesriten im Alten Ägypten,book,1,4,0,0,0,4.20,,Paperback,1st edition Piccola Biblioteca Einaudi. Nuova serie: Scienze religiose e antropologiche [195],4,0,Jan Assmann,,Thomas Macho,,Umberto Gandini,,6,0,,"essays,non-fiction"
13081001,,Crimson Dreams,,B001OWEDUG,,,ES,,,,true,5,4009260,40,28,9,0,,Crimson Dreams,book,1,2,3,3,0,3.11,,,,0,0,Margaret L. Carter,,,,,,20,5,,"contemporary,vampires"
13081501,1846865786,The Greatest Gift: The Story of the Other Wise Man,9781846865787,,,,ES,2011/11/4,Barefoot Books,,false,4,13081501,58,115,27,5,1997/9/30,,,12,11,3,1,0,4.26,32,Hardcover,,20,3,,Jackie Morris,,,,,17,3,1,"childrens,christian-fiction,christmas,holiday,picture-books"
13082001,9630059290,Budapest (Visible Cities),9789630059299,,,,ES,,,,false,5,1715630,6,8,2,1,1999/5/1,Visible Cities Budapest: A City Guide (Visible Cities Guidebook series),,0,2,0,0,0,4.00,,,,0,0,"Annabel Barber,Emma Roper-Evans",,,,,,2,0,,
13083001,1463745036,Ladybug and Her Colorful Friends: Bugs and Blooms,9781463745035,,,,ES,2011/9/21,Createspace Independent Publishing Platform,,false,1,13083001,0,0,0,0,2011/9/21,,,0,0,0,0,0,0.00,26,Paperback,,0,0,Lisa Ann Britz,,,Cynthia Ann Stevens,,,,0,,
13084501,,Kogga z czarnego słońca,,,,,ES,1978/1/1,ISKRY,pol,false,1,13084501,9,20,6,0,1978/1/1,,book,1,1,3,1,0,3.33,,Paperback,,6,0,Bohdan Petecki,,,,,,3,0,,
13085001,,Echoes of the Dead: A Supernatural Thriller,,B0065J2SLO,,,ES,2011/11/9,Skull Salad Press,,true,5,13449017,47,50,13,2,2011/11/9,,book,4,3,6,0,0,3.85,,,,2,0,Aaron Polson,,,,,,29,2,,"amazon,ghosts,horror"
13085501,8492841249,Helen Levitt: Lírica Urbana,9788492841240,,,,ES,,,,false,1,13085501,4,7,2,0,2010/1/1,,,0,1,1,0,0,3.50,,,,2,0,Jorge Ribalta,,,,,,1,0,,
13087501,3899368363,Management in the Armed Forces,9783899368369,,,,ES,,,,false,1,13087501,0,0,0,0,2009/8/17,,,0,0,0,0,0,0.00,,,,0,0,Herbert Strunz,,,,,,,0,,
13090501,0199781745,The Moral Foundation of Economic Behavior,9780199781744,,,,ES,2011/11/25,"Oxford University Press, USA",,false,5,13090501,44,40,10,0,2011/10/28,,,3,4,3,0,0,4.00,269,Hardcover,,9,0,David C. Rose,,,,,,26,1,4,economics
13091501,0791018326,Christmas Songs (Traditional Black Music),9780791018323,,,,ES,1993/12/1,Chelsea House Publications,,false,2,14904405,0,0,0,0,,,book,0,0,0,0,0,0.00,,Hardcover,,0,0,Jerry Silverman,,,,,,,0,,
13092501,0762772611,"Outlaw Tales of New Mexico, 2nd: True Stories of the Land of Enchantment's Most Infamous Crooks, Culprits , and Cutthroats",9780762772612,,,,ES,2012/3/6,TwoDot,,false,5,1895271,34,42,14,2,2007/9/1,"Outlaw Tales of New Mexico: True Stories of New Mexico's Most Famous Robbers, Rustlers, and Bandits (Outlaw Tales)",,2,2,5,4,1,3.00,176,Paperback,,2,0,Barbara Marriott,,,,,,11,1,1,"biography,history,mystery,non-fiction"
13093001,0399157689,"Stolen Prey (Lucas Davenport, #22)",9780399157684,,,,ES,2012/5/15,G.P. Putnam's Sons,eng,false,29,13093001,28634,79624,18999,1094,2012/5/15,Stolen Prey,book,7644,7928,2954,357,116,4.19,402,Hardcover,,14758,968,John Sandford,,,,,,4596,57,604,"action,adult,crime,detective,fiction,murder-mystery,mystery,mystery-thriller,novels,suspense,thriller"
13093501,8478133070,"Descripcion del Egipto Otomano: Segun Las Cronicas de Viajeros Espanoles, Hispanomericanos y Otros Textos (1806-1924)",9788478133079,,,,ES,,,,false,1,13093501,0,0,0,0,,,,0,0,0,0,0,0.00,,,,0,0,Pablo Martín Asuero,,,,,,,0,,
13094001,9004191305,Medieval Hebrew Poetry In Muslim Egypt: The Secular Poetry Of The Karaite Poet Moses Ben Abraham Dar'i: Karaite Texts And Studies Vol 3 (Etudes Sur Le Judaisme Medieval),9789004191303,,,,ES,2010/11/19,Brill,,false,1,13094001,1,0,0,0,2010/11/1,,,0,0,0,0,0,0.00,364,Hardcover,,0,0,,,,Joachim J. M. S. Yeshaya,,,1,0,,
13095001,,History Of The Studebaker Corporation,9780557052790,,,,ES,2009/3/29,Lulu,,false,6,7540753,4,8,2,1,1924/1/1,,,0,2,0,0,0,4.00,98,Paperback,,0,0,Albert Russel Erskine,,,,,,2,0,,
13096001,8804102322,Tutti i romanzi,9788804102328,,,,ES,,,ita,false,2,8569626,97,68,16,1,1973/1/1,,book,7,7,1,1,0,4.25,1134,Hardcover,,1,1,Luigi Pirandello,,,,,,19,1,,unfinished
13096501,,Decisive Moments,9781612520896,,,,ES,,,,true,3,13096501,5,20,5,3,2011/10/13,,book,1,3,1,0,0,4.00,,,,5,3,Toni Noel,,,,,,,0,,contemporary
13097501,,POMES @ ex-ex-lit,,,,,ES,2011/8/30,white sky books,eng,false,1,13097501,3,5,1,1,2011/8/30,,book,1,0,0,0,0,5.00,130,Paperback,,1,1,Billy Bob Beamer,,,,,,1,0,,poetry
13098001,,The Way of Akbar Lightning,9781257791835,,,,ES,2011/6/14,Lulu,,false,2,13098001,2,8,2,0,2011/6/14,,,1,0,1,0,0,4.00,69,Paperback,,2,0,Ken Vallario,,,,,,,0,,
13098501,,تطور علم أصول الفقه وتجدده,,,,,ES,2009/1/1,دار ابن حزم,,false,1,13098501,59,21,6,2,2009/1/1,,book,1,2,2,1,0,3.50,370,,,6,2,عبد السلام بلاجي,,,,,,39,1,7,
13099501,,Erotic Capital: The Power of Attraction in the Boardroom and the Bedroom,,B005I58WAW,,,ES,,,,true,17,12216867,638,679,212,41,2011/4/1,,book,31,55,72,34,20,3.20,,,,10,1,Catherine Hakim,,,,,,147,7,20,"feminism,love,non-fiction,philosophy,politics,psychology,relationships"
13100501,2830707532,L'apéritif: 200 Recettes À Boire Et À Grignoter,9782830707533,,,,ES,,,,false,1,13100501,1,0,0,0,2004/1/1,,,0,0,0,0,0,0.00,,,,0,0,"Benoît Molin,Pascale Parmentier",,,,,,,0,,
13101501,0952533219,The Diary Of A Dolls House: Made And Shown For The Red Cross To Raise Funds For Prisoners Of War During World War Two,9780952533214,,,,ES,,,,false,1,13101501,0,0,0,0,,,,0,0,0,0,0,0.00,,,,0,0,Michael McGinnes,,,,,,,0,,
13102501,,Les poésies de Sapho de Lesbos,,B004TXLCXS,,,ES,1852/1/1,,fre,true,58,209835,1735,2945,710,40,-600/1/1,,book,307,244,121,33,5,4.15,48,,,10,4,Sappho,,,,Jules-Henry Rédarez Saint-Remy,,772,9,10,"classic-literature,classics,fiction,history,lgbt,literature,philosophy,poetry,queer"
13103001,0788447874,"National Intelligencer Newspaper Abstracts, Jan 1, 1869 Thru Jan 8, 1870",9780788447877,,,,ES,,,,false,1,13103001,0,0,0,0,2009/5/1,,,0,0,0,0,0,0.00,,,,0,0,Joan M. Dixon,,,,,,,0,,
13104001,1617830674,Navy Seals,9781617830679,,,,ES,2011/8/1,ABDO & Daughters,,false,3,13104001,39,62,15,3,2011/1/1,,book,7,4,3,1,0,4.13,32,Hardcover,,15,3,John Hamilton,,,,,,21,1,,non-fiction
13104501,8376489771,Bar dla potępionych,9788376489773,,,,ES,,Prószyński i S-ka,pol,false,10,1414448,605,765,202,52,2007/1/1,Currency of Souls,book,62,65,50,20,5,3.79,320,Paperback,,10,1,Kealan Patrick Burke,,,,Grzegorz Komerski,,360,18,11,"fantasy,fiction,ghosts,horror,paranormal,science-fiction,supernatural,unfinished"
13105501,,The Song of the Sleeping Grass,,B004I1L5JM,,,ES,,,,true,3,13105501,36,34,8,2,2010/12/21,,,4,2,2,0,0,4.25,,,,3,1,Cyndia Rios-Myers,,,,,,24,3,1,"chick-lit,contemporary,romance"
13110001,,A Haunting (The Anointed #3),,B006D0GWIK,,,ES,2011/11/23,Red Rover Books,en-GB,false,1,13110001,13,25,6,1,2011/11/23,,book,3,1,2,0,0,4.17,,"Kindle Edition, Nook",,6,1,Clover Autrey,,,,,,7,0,,fantasy
13110501,9027203830,Romance Languages and Linguistic Theory 2009: Selected Papers from 'going Romance' Nice 2009,9789027203830,,,,ES,2011/11/30,John Benjamins Publishing Company,,false,1,13110501,1,0,0,0,2011/12/1,,,0,0,0,0,0,0.00,402,Hardcover,,0,0,,,,"Haike Jacobs,Neth Going Romance,Tobias Scheer",,,1,0,,
13111001,0910386102,Faberge and His Contemporarie,9780910386104,,,,ES,,,,false,1,13111001,0,0,0,0,1967/1/1,,,0,0,0,0,0,0.00,,,,0,0,Henry Hawley,,,,,,,0,,
13112001,9783920269,Fractures of the Mandibular Condyle - Approaches and Osteosynthesis,,,,,ES,2010/1/1,Eberl Medien GmbH & Co. KG,eng,false,1,13112001,4,0,0,0,2010/1/1,,book,0,0,0,0,0,0.00,108,Hardcover,,0,0,U. Eckelt / R.A. Loukota,,,,,,3,0,,
13112501,3821861339,Vierundzwanzig Türen,9783821861333,,,,ES,2010/4/1,,ger,false,6,5869941,29,49,15,2,2000/1/1,Vierundzwanzig Türen.,book,2,4,6,2,1,3.27,,Hardcover,,1,0,Klaus Modick,Jub Mönster,,,,,7,1,,novels
13114501,,Unknown Book 13114501,,,,,ES,,,,false,1,13114501,1,0,0,0,,,,0,0,0,0,0,0.00,,,,0,0,Unknown,,,,,,,0,,
13116001,1934903280,Explosive Muay Thai,9781934903285,,,,ES,2011/11/21,"Turtle Press, U.S.",,false,2,13116001,9,5,1,0,2011/11/21,,,1,0,0,0,0,5.00,168,Paperback,,0,0,"Amorndet Ranjanthuek,Jerry Heines",,,,,,8,0,,
13117501,9490243221,De eretribune van het leven: Vlaamse journalisten over het vak,9789490243227,,,,ES,2010/1/1,Bola,nl,false,1,13117501,1,3,1,0,2010/1/1,De eretribune van het leven: Vlaamse journalisten over het vak,book,0,0,1,0,0,3.00,195,Paperback,,1,0,Manu Adriaens,,,,,,,0,,
13118001,,Hangman's Holiday ,,B003LPUXG2,,,ES,,,en-US,true,43,351563,11196,32571,7853,170,1933/1/1,Hangman's Holiday: A Collection of Short Mysteries,book,3356,2668,1527,236,66,4.15,,,,86,2,Dorothy L. Sayers,,,,,,2281,21,282,"christmas,classics,cozy-mystery,crime,detective,fiction,historical,historical-fiction,international,murder-mystery,mystery,mystery-thriller,novels,short-stories"
13118501,8804574402,Bianco Americano,9788804574408,,,,ES,2007/1/1,Arnoldo Mondadori,ita,false,2,253792,3975,8574,2444,394,2007/1/1,New England White,book,355,917,847,265,60,3.51,,Hardcover,,9,0,Stephen L. Carter,,,,,,232,20,72,"adult,adult-fiction,american,crime,fiction,historical-fiction,literature,mystery,mystery-thriller,novels,suspense,thriller"
13119001,,Marketing For Authors,,B005JZTJ7G,,,ES,,,,true,1,13119001,1,5,1,1,2011/8/29,,book,1,0,0,0,0,5.00,,,,1,1,Anita Revel,,,,,,,0,,
13119501,,Thanksgiving In Sanctuary (Welcome to Sanctuary #5),9781619260139,,,,ES,2011/11/1,"Siren-Bookstrand, Inc.",eng,true,3,13119501,224,380,97,4,2011/11/1,Thanksgiving In Sanctuary,book,36,30,19,11,1,3.92,76,ebook,,77,3,Cooper McKenzie,,,,,,87,11,3,"contemporary,erotica,fiction,menage,modern,paranormal,shapeshifters"
13121001,8851300054,"Costruire Con La Terra: Tecniche Costruttive, Campi Di Utilizzo E Prestazioni",9788851300050,,,,ES,,,,false,1,13121001,2,0,0,0,2001/1/1,,,0,0,0,0,0,0.00,,,,0,0,"Barbara Narici,Cinzia Talamo,Gianni Scudo",,,,,,,0,,
13121501,1471100480,The Perks of Being a Wallflower,9781471100482,,,,ES,2012/9/1,Simon & Schuster Ltd,eng,false,148,22628,1710924,4583157,1090137,51778,1999/2/1,The Perks of Being a Wallflower,book,525029,340579,163450,44267,16812,4.20,231,Paperback,"UK/Australian Edition, Film Tie-In",3237,470,Stephen Chbosky,,,,,,491493,4885,16676,"abuse,american,classics,contemporary,drama,fiction,high-school,lgbt,literature,love,mental-health,mental-illness,movies,novels,queer,realistic-fiction,romance,school,teen,young-adult"
13122001,1463762682,El Nuevo Juicio de Amparo: Las Reformas Constitucionales de Junio de 2011,9781463762681,,,,ES,2011/8/11,Createspace Independent Publishing Platform,,false,1,13122001,2,0,0,0,2011/8/11,,,0,0,0,0,0,0.00,290,Paperback,,0,0,Germán Eduardo Baltazar Robles,,,,,,2,0,,
13122501,,Some Kind Of Wonderful,9781936668922,,,,ES,2011/6/21,Dahlia Rose Unscripted,eng,true,3,11869886,269,598,156,7,2011/6/21,,book,47,48,49,12,0,3.83,62,ebook,,2,0,Dahlia Rose,,,,,,100,2,3,"erotica,historical,romance"
13124001,0983845891,The Fertile Secret: Guide to Living a Fertile Life,9780983845898,,,,ES,2011/10/19,Goat House Books,,false,2,13124000,10,22,5,0,2011/7/24,,book,4,0,0,1,0,4.40,80,Paperback,,1,0,Robert Kiltz,,,,,,,1,3,
13125001,8388935259,Cmentarze: ewolucja przepisów w kościelnym ustawodawstwie kodeksowym XX wieku,,,,,ES,2001/1/1,Bernardinum,pol,false,1,13125001,1,0,0,0,2001/1/1,,book,0,0,0,0,0,0.00,135,Paperback,,0,0,Arkadiusz Kalinowski,,,,,,1,0,,
13125501,3775116850,Archäologisches Bibellexikon,9783775116855,,,,ES,,,,false,1,13125501,2,0,0,0,1991/1/1,,,0,0,0,0,0,0.00,,,,0,0,Avrāhām Negev,,,,,,,0,,
13126001,,Saving Hannah,,B005MGEPNK,,,ES,2011/9/10,World Castle Publishing,,true,4,11733784,15,30,6,1,2011/9/1,,book,6,0,0,0,0,5.00,,,,1,0,Jasmine Denton,,,,,,8,0,,
13127001,,"Forsaking Eternity (Eternity, #2)",,B004RP8WJK,,,ES,,,en-US,true,2,10598427,209,122,34,6,2011/2/25,,book,7,11,12,3,1,3.59,,,1st Edition,0,0,Voirey Linger,,,,,,139,8,2,"angels,demons,erotica,paranormal,research,romance"
13127501,,The Wars Between England And America,,B004TRFMA8,,,ES,,,,true,21,13127501,37,74,18,0,1914/1/1,The wars between England and America,,5,10,3,0,0,4.11,,,,17,0,Theodore Clarke Smith,,,,,,12,1,3,"american-history,history"
13129501,117536004X,Alicia Markova Her Life and Art,9781175360045,,,,ES,2011/8/15,Nabu Press,,false,8,13129501,10,18,5,1,2011/8/15,,,0,3,2,0,0,3.60,348,Paperback,,4,1,Anton Dolin,,,,,,4,1,,
13130001,1858497515,Lee Evans,9781858497518,,,,ES,1998/11/1,Argo,,false,3,1808665,23,57,12,1,1998/11/1,Lee Evans,,10,1,1,0,0,4.75,,Audio Cassette,,0,0,Lee Evans,,,,,,11,0,,
13130501,,Marti en Loek gaan een dagje uit,,,,,ES,,,nl,false,1,13130501,0,0,0,0,,Marti en Loek gaan een dagje uit,book,0,0,0,0,0,0.00,,,,0,0,To Sterrenburg,,,,,,,0,,
13131001,,"Careful With Revenge (Jimmy's Erotic Adventures, #2)",,B006DLHDZU,,,ES,2011/11/23,,eng,true,1,13131001,3,3,1,1,2011/11/23,,book,0,0,1,0,0,3.00,,,,1,1,Desiree Cummings,,,,,,1,0,,erotica
13133001,1453797521,"How to Save Our Children from Crime, Drugs and Violence: The Solution to America's Juvenile Crime Problem",9781453797525,,,,ES,2010/8/27,Createspace Independent Publishing Platform,,false,1,13133001,0,0,0,0,2010/8/27,,,0,0,0,0,0,0.00,222,Paperback,,0,0,Cedric Dean,,,,,,,0,,
13133501,0739338447,Naughty Nautical Neighbors (SpongeBob SquarePants),9780739338445,,,,ES,2006/7/11,Listening Library (Audio),,false,10,1305888,190,442,103,9,2000/9/1,Naughty Nautical Neighbors (SpongeBob SquarePants),book,63,14,19,7,0,4.29,,Audio,,0,0,"Annie Auerbach,Terry Collins",,,,,,43,10,2,"childrens,fiction"
13134001,0553752669,After the Fire,9780553752663,,,,ES,2000/4/18,Random House Audio,,false,32,16745,2616,5294,1402,79,2000/1/1,,book,411,441,411,103,36,3.78,,Audio,,0,0,Belva Plain,,,,,,476,16,145,"adult-fiction,amazon,contemporary,drama,fiction,marriage,mystery,novels,romance"
13134501,140008508X,"Junie B., First Grader: Shipwrecked; Junie B., First Grader: Boo...and I MEAN it: Junie B. Jones #23 and #24",9781400085088,,,,ES,2004/8/24,"Random House, Inc.",eng,false,2,343264,246,602,142,1,2004/8/24,"Junie B., First Grader: Shipwrecked & Junie B., First Grader: BOO...and I MEAN it (Junie B. Jones, #23-24)",book,83,29,15,11,4,4.24,,audio,,0,0,Barbara Park,,,,,,81,2,3,"chapter-books,childrens"
13135001,073931985X,My Life So Far,9780739319857,,,,ES,2005/4/5,Random House Audio,,false,28,148355,7891,17291,4410,389,2005/1/1,My Life So Far,book,1463,1577,1031,236,103,3.92,,Audio,,7,2,Jane Fonda,,,,,,2759,16,249,"autobiography,biography,biography-memoir,feminism,film,memoir,movies,non-fiction,politics"
13135501,0739304550,There Must Be a Pony In Here Somewhere: The AOL Time Warner Debacle and the Quest For the Digital Future,9780739304556,,,,ES,2003/10/14,Random House Audio,,false,10,203609,160,188,53,4,2003/1/1,There Must Be a Pony in Here Somewhere: The AOL Time Warner Debacle and the Quest for the Digital Future,,7,21,20,4,1,3.55,,Audio,,0,0,"Kara Swisher,Lisa Dickey",,,,,,90,1,3,"business,non-fiction,technology"
13136001,0747811008,Beswick Pottery,9780747811008,,,,ES,2012/3/20,Shire Publications,,false,3,13136001,0,0,0,0,2012/1/1,,,0,0,0,0,0,0.00,64,Paperback,,0,0,Val Baynton,,,,,,,0,,
13136501,1743190204,Last Seen Leaving,9781743190203,,,,ES,2012/4/23,Bolinda Audio,,false,2,351623,1324,1908,590,83,2006/1/1,Last Seen Leaving,book,66,165,222,115,22,3.23,,Audio CD,,0,0,Kelly Braffet,,,,,,587,23,11,"adult-fiction,contemporary,fiction,horror,mystery,mystery-thriller,suspense,thriller"
13137001,4198300364,銀河英雄伝説 (6) ,9784198300364,,,,ES,,,,false,1,13137001,1,5,1,0,1994/11/1,,,1,0,0,0,0,5.00,,,,1,0,"田中 芳樹, 道原 かつみ",,,,,,,0,,
13137501,3867415862,Einheimische Fische,9783867415866,,,,ES,2010/11/16,Europaischer Hochschulverlag Gmbh & Co. Kg,,false,8,19316410,2,2,1,0,2010/11/16,,,0,0,0,1,0,2.00,110,Paperback,,0,0,Kurt Floericke,,,,,,,0,,
13138001,,Tales of the Pointless People,,,,,ES,2010/1/1,,,false,1,13138001,15,16,4,2,2010/1/1,,book,1,2,1,0,0,4.00,28,,,4,2,Daniel Erlander,,,,,,10,0,,"christianity,non-fiction,relationships,religion,spirituality"
13138501,1743041438,The Cloud Computing Providers Handbook - Everything You Need to Know about Cloud Computing Providers,9781743041437,,,,ES,2011/4/21,Tebbo,,false,2,13138501,1,0,0,0,2011/4/21,,,0,0,0,0,0,0.00,342,Paperback,,0,0,Todd Arias,,,,,,1,0,,
13139001,580260073X,Mnimye Velichiny,9785802600733,,,,ES,,,,false,2,13139001,9,23,6,1,2000/1/1,,book,2,2,1,1,0,3.83,,,,4,1,"Nikolai Narokov,Николай Нароков",,,,,,3,0,,
13139501,,Lucid,,B0064VPTOG,,,ES,2012/10/2,Razorbill,en-GB,true,14,12926807,10280,9342,2528,524,2012/10/2,Lucid,book,714,812,626,270,106,3.70,350,,,24,6,"Adrienne Stoltz,Ron Bass",,,,,,454,51,142,"contemporary,family,fantasy,fiction,high-school,mental-health,mental-illness,mystery,novels,paranormal,realistic-fiction,romance,science-fiction,speculative-fiction,supernatural,teen,thriller,urban-fantasy,young-adult"
13140001,,Dancing Brumby (Silver Brumby S.),,,,,ES,,,,false,6,294436,339,561,149,6,1995/11/30,Dancing Brumby (Silver Brumby S.),book,41,47,49,9,3,3.77,156,,,12,1,Elyne Mitchell,,,,,,149,3,2,"adventure,animals,childrens,classics,fiction,young-adult"
13142001,,Bird of Prey,,B006FYJ24U,,,ES,,Damnation Books,en-GB,true,3,13142001,4,12,3,0,2011/11/28,,book,1,1,1,0,0,4.00,,,,2,0,David Murphy,,,,,,1,0,,fiction
13142501,,420 Characters,,B005LVQZWU,,,ES,,,eng,true,6,10874682,2496,2551,723,180,2011/1/1,420 Characters,book,150,236,218,84,35,3.53,,Kindle Edition,,26,5,Lou Beach,,,,,,1584,29,44,"adult,adult-fiction,amazon,art,contemporary,fantasy,fiction,graphic-novels,humor,literary-fiction,non-fiction,poetry,short-stories,unfinished"
13143001,9460410391,"Zoenoffer (Van In, #8)",9789460410390,,,,ES,2009/1/1,Manteau,nl,true,6,3552602,539,890,266,3,2001/1/1,Zoenoffer,book,30,83,108,39,6,3.35,,ebook,,0,0,Pieter Aspe,,,,,,100,7,3,"crime,detective,fiction,literature,mystery,thriller"
13144501,,Away from Here,,,,,ES,,,eng,false,1,13144501,8,5,1,0,,,book,1,0,0,0,0,5.00,,,,1,0,Lisa Goldstein,,,,,,6,0,,fantasy
13148001,1903765161,The Political Context Of Education After Devolution,9781903765166,,,,ES,2003/10/16,Dunedin Academic Press,,false,1,13148001,0,0,0,0,2003/10/1,,,0,0,0,0,0,0.00,87,Paperback,,0,0,"John Dobie,Willis Pickard",,,,,,,0,,
13148501,9724140954,"Mort Cinder, Tomo 1: Os Olhos de Chumbo",9789724140957,,,,ES,2005/6/1,ASA,por,false,3,13148501,41,78,18,0,1962/1/1,Mort Cinder,book,10,6,1,0,1,4.33,95,Hardcover,,18,0,Héctor Germán Oesterheld,Alberto Breccia,,,Catherine Labey,,18,0,1,comics
13149001,8820044676,Il vangelo di Satana,9788820044671,,,,ES,2008/4/1,Sperling & Kupfer,ita,false,2,13149001,26,17,6,0,2007/1/1,El inquisidor,book,1,0,3,1,1,2.83,,Hardcover,,5,0,Patricio Sturlese,,,,,,11,0,,
13149501,0333654439,"Confronting State, Capital And Patriarchy: Women Organizing In The Process Of Industrialization",9780333654439,,,,ES,,,,false,1,13149501,1,0,0,0,,,book,0,0,0,0,0,0.00,,Paperback,,0,0,,,,"Amrita Chhachhi,Renee Ilene Pittin",,,,0,,
13150501,0739383019,Vegas Confessions 6:Kid In a Candy Shop,9780739383018,,,,ES,2008/7/15,Random House Audio,,false,1,13150501,1,0,0,0,2008/7/15,,,0,0,0,0,0,0.00,,Audio,,0,0,Editors of Sounds Publishing,,,,,,1,0,,
13151001,0006496482,Scottish Short Stories 1995,,,,,ES,,Flamingo,,false,1,13151001,2,4,1,0,,,book,0,1,0,0,0,4.00,224,,,1,0,Tom Adair,,,,,,1,0,,
13152501,9548240092,Клиентът,,,,,ES,1995/1/1,Обсидиан,bul,false,151,5359,448005,1423436,356524,2195,1993/3/1,The Client,book,115860,140868,83845,13178,2773,3.99,432,Paperback,,67,1,"John Grisham,Джон Гришэм",,,,,,56244,83,1112,"action,adult,adult-fiction,adventure,american,contemporary,crime,detective,drama,fiction,movies,murder-mystery,mystery,mystery-thriller,novels,suspense,thriller"
13153001,0307717763,"Out of Character: Surprising Truths About the Liar, Cheat, Sinner (and Saint) Lurking in All of Us",9780307717764,,,,ES,2013/5/14,Harmony,,false,5,10929824,2932,1462,400,48,2011/1/1,,book,93,132,130,34,11,3.65,272,Paperback,,17,6,"David DeSteno,Piercarlo Valdesolo",,,,,,2398,8,34,"anthropology,christianity,leadership,mental-health,non-fiction,personal-development,philosophy,psychology,science,self-help,social,social-issues,sociology"
13153501,0091945143,Aga Weekend Cookbook,9780091945145,,,,ES,2011/9/29,Ebury Press,,false,1,13153501,4,9,3,0,2011/10/19,,book,1,0,0,2,0,3.00,144,Hardcover,,3,0,Amy Willcock,,,,,,,0,,cooking
13154501,1849392293,The Three Sillies,9781849392297,,,,ES,2011/11/3,Andersen,,false,4,12724532,32,45,15,4,2010/9/1,,,1,3,7,3,1,3.00,32,Paperback,,3,1,Tony Ross,,,,,,8,2,,"childrens,fiction,picture-books"
13155001,0007331495,Collins Easy Learning French Dictionary,9780007331499,,,,ES,2009/12/1,HarperCollins Publishers,,false,6,13155001,42,60,14,2,2004/1/1,,,9,3,0,1,1,4.29,680,Paperback,,6,0,Collins,,,,,,8,1,1,"family,non-fiction,reference"
13155501,030797586X,The Little Blue Box of Bright and Early Board Books by Dr. Seuss,9780307975867,,,,ES,2012/8/7,Random House Books for Young Readers,,false,1,13155501,440,1027,232,2,2012/8/7,,,141,58,26,5,2,4.43,24,Board Book,,232,2,Dr. Seuss,,,,,,126,7,6,"childrens,fantasy,poetry,short-stories"
13157501,,Crypto,,B005SZ5430,,,ES,2010/10/7,Arnoldo Mondadori,ita,true,204,11125,680452,1841225,506629,8499,1998/2/1,Digital Fortress,book,122179,164330,150760,51370,17990,3.63,427,Kindle Edition,,5,1,Dan Brown,,,,,,113531,36,3639,"action,adult,adult-fiction,adventure,american,contemporary,crime,drama,fantasy,fiction,literature,modern,mystery,mystery-thriller,novels,romance,science,science-fiction,suspense,technology,thriller"
13159001,,Good For You Chicki Chipmunk,,B006IAYHF0,,,ES,,,eng,true,2,13159001,1,0,0,1,2011/9/23,,book,0,0,0,0,0,0.00,,,,0,1,Barry Eysman,,,,,,,0,,
13162001,4652078455,Kimi Ga Eranda Shikei No Suitchi,9784652078457,,,,ES,,,,false,1,13162001,1,0,0,0,2009/1/1,,,0,0,0,0,0,0.00,,,,0,0,Tatsuya Mori,,,,,,,0,,
13163001,9002127707,Judith,9789002127700,,,,ES,1974/1/1,Standaard ,nl,false,1,13163001,6,3,1,0,1974/1/1,Judith,book,0,0,1,0,0,3.00,132,Hardcover,Zegelvikings ; 26,1,0,Johan Ballegeer,Stef van Stiphout,,,,,3,0,,
13164001,8809770900,Le tredici,9788809770904,,,,ES,2011/10/1,Giunti,ita,false,13,12596990,1601,2090,686,171,2011/1/1,The Thirteen,book,56,176,252,148,54,3.05,384,Hardcover,A ,44,7,Susie Moloney,,,,Antonello Guerrera,,165,24,15,"adult,dark,fantasy,fiction,horror,mystery,mystery-thriller,novels,paranormal,supernatural,thriller,urban-fantasy,witches"
13165001,8484314332,Conceptions,9788484314332,,,,ES,,,,false,3,598802,151,391,96,4,2002/1/1,Conceptions I,,39,32,18,7,0,4.07,,,,1,0,Luis Royo,,,,,,25,3,3,"adult,art,erotica,fantasy,fiction,non-fiction,reference"
13165501,0230114997,"The Establishment Responds: Power, Politics, and Protest since 1945",9780230114999,,,,ES,2011/12/15,Palgrave Macmillan,,false,5,19868310,2,3,1,0,2011/11/8,,book,0,0,1,0,0,3.00,262,Paperback,,0,0,,,,"Joachim Scharloth,Kathrin Fahlenbrach,Laura Wong,Martin Klimke",,,1,0,,"history,non-fiction,politics,research,school"
13166501,1466803126,Taking the Hill: From Philly to Baghdad to the United States Congress,9781466803121,,,,ES,2008/2/19,Henry Holt and Co.,,true,3,2653146,27,48,12,2,2008/2/19,Taking the Hill: From Philly to Baghdad to the United States Congress,,3,6,3,0,0,4.00,288,ebook,,0,0,Patrick J. Murphy,,,,,,8,0,1,"biography,politics"
13167001,1609611012,Keep It Up,9781609611019,,,,ES,2013/10/8,Rodale Books,,false,1,13167001,9,10,2,0,2012/3/27,,book,2,0,0,0,0,5.00,336,Hardcover,,2,0,Florence Comite,,,,,,8,0,,
13167501,1464113882,The Human Mosaic [with GeoPortal Access Code],9781464113888,,,,ES,2011/11/18,W. H. Freeman,,false,75,251807,143,215,63,6,1976/1/1,The Human Mosaic,book,13,13,26,9,2,3.41,,Unbound,,0,0,"Mona Domosh,Patricia L. Price,Roderick P. Neumann,Terry G. Jordan-Bychkov",,,,,,38,3,,"academic,anthropology,history,non-fiction,reference,school,science,textbooks"
13168001,0312673647,Writer's Reference 6e with Writing about Literature with 2009 MLA and 2010 APA Updates & Working With Sources,9780312673642,,,,ES,2010/5/24,MPSMPS,,false,1,13168001,0,0,0,0,2010/5/24,,,0,0,0,0,0,0.00,,Hardcover,,0,0,Diana Hacker,,,,,,,0,,
13168501,0312567278,Subject and Strategy 11e & Rules for Writers 6e,9780312567279,,,,ES,2008/7/29,MPSMPS,,false,1,13168501,0,0,0,0,2008/7/29,,,0,0,0,0,0,0.00,,Hardcover,,0,0,"Alfred Rosa,Diana Hacker,Paul Eschholz",,,,,,,0,,
13169001,142929258X,Core Economics [with CourseTutor & iClicker],9781429292580,,,,ES,2011/3/1,Worth Publishers,,false,43,6769423,26,30,8,0,2007/12/27,,,3,2,2,0,1,3.75,,Unknown Binding,,0,0,Gerald W. Stone,,,,,,14,0,1,non-fiction
13169501,184885630X,The Cinema of Tarkovsky: Labyrinths of Space and Time,9781848856301,,,,ES,2012/2/15,I. B. Tauris,,false,4,10746344,96,90,23,3,2011/12/18,,,7,8,7,1,0,3.91,288,Paperback,,3,0,Nariman Skakov,,,,,,63,2,4,"film,mythology,non-fiction,philosophy,politics,psychology,religion"
13170501,,Riđobradi: Blago Riđobradog (Barbe-Rouge #11),9789532762273,,,,ES,2010/8/10,"Libellus, Zagreb",scr,false,2,1997855,12,41,10,0,1971/1/1,"Barbe-Rouge, tome 11: Le Trésor de Barbe-Rouge",book,3,5,2,0,0,4.10,48,Hardcover,,2,0,Jean-Michel Charlier,Victor Hubinon,,,Sergej Karov,,1,0,,"comics,fiction,graphic-novels,historical-fiction"
13171501,,A Nation Like No Other: Why American Exceptionalism Matters,,B0053VLV6S,,,ES,,,,true,10,11405725,222,385,105,18,2011/6/13,,book,32,30,26,10,7,3.67,,,,12,0,Newt Gingrich,,,,,,94,5,7,"american-history,faith,fiction,history,non-fiction,politics"
13172501,1466294981,MBA Admission for Smarties: The No-Nonsense Guide to Acceptance at Top Business Schools,9781466294981,,,,ES,2011/11/14,CreateSpace,en-US,false,2,13172501,53,59,14,6,2011/11/1,,book,5,7,2,0,0,4.21,180,Paperback,,10,6,"Judy Gruen,Linda Abraham",,,,,,25,7,4,business
13173501,1234833018,"Star Wars Fanon - Dark Side: Dark Jedi, Dark Side Artifacts, Dark Side Organizations, Psychopaths, Sith, 9000th Legion, Aaron Ruge, Adi Gallia, Akate Antilles, Alek Matayo, Alora, Alora, Alucard, Alysun Celz, Amessa Darys, Arrael Bulcco, Arula Dru, Asajj",9781234833015,,,,ES,2011/11/4,"Books LLC, Wiki Series",,false,1,13173501,1,0,0,0,2011/11/4,,,0,0,0,0,0,0.00,,Paperback,,0,0,Source Wikipedia,,,,,,1,0,,
13174001,,A Christmas Smile,,B0053RL7GQ,,,ES,,,,true,2,7620835,9,14,4,2,2008/1/1,,,1,0,3,0,0,3.50,,,,0,0,Kathy Otten,,,,,,4,2,,"family,historical"
13174501,,Sel ve Kum (Tüm Öyküler - 1),9786054494002,,,,ES,2011/4/1,Okur Kitaplığı,tur,false,1,13174501,3,3,1,1,2011/4/1,,book,0,0,1,0,0,3.00,298,Paperback,,1,1,Cemal Şakar,,,,,,1,0,,
13175001,,"The Sixth Book of Lost Swords: Mindsword's Story (Lost Swords, #6)",,,,,ES,,,,true,7,16477,1902,4815,1264,9,1990/12/1,The Sixth Book of Lost Swords: Mindsword's Story,book,320,458,417,63,6,3.81,,Kindle Edition,,9,0,Fred Saberhagen,,,,,,332,17,2,"epic-fantasy,fantasy,fiction,high-fantasy,novels,science,science-fiction,science-fiction-fantasy"
13175501,1232678341,"Bu Garscy Trenerzy: Bu Garscy Trenerzy Pi Karscy, Christo Stoiczkow, Stanimir Stoi Ow, Ljubos Aw Penew, Dimityr Penew, Christo Bonew",9781232678342,,,,ES,2011/8/2,"Books LLC, Wiki Series",,false,1,13175501,0,0,0,0,2011/8/2,,,0,0,0,0,0,0.00,,Paperback,,0,0,Source Wikipedia,,,,,,,0,,
13176001,9048187052,Sustainable Use of Genetic Diversity in Forage and Turf Breeding,9789048187058,,,,ES,2010/6/17,Springer,,false,3,13176001,0,0,0,0,2010/1/1,,,0,0,0,0,0,0.00,572,Hardcover,,0,0,,,,Christian Huyghe,,,,0,,
13176501,,The Historic Treasure Chest of the Madonna of the Trail Monuments,,,,,ES,1984/1/1,J. McEnaney Print,eng,false,1,13176501,5,3,1,1,1984/1/1,,book,0,0,1,0,0,3.00,124,Paperback,,1,1,Fern Ioula Bauer,,,,,,2,0,,
13177001,8804519169,"Napoleone. Il flagello d'Italia. Le invasioni, i saccheggi, gli inganni",9788804519164,,,,ES,2003/10/1,Mondadori,ita,false,3,9646800,21,26,6,1,2003/10/1,,book,3,2,1,0,0,4.33,374,Hardcover,I edizione,1,1,Antonio Spinosa,,,,,,6,0,,
13177501,,في سبيل التاج,,,,,ES,1997/1/1,مكتبة المعارف - بيروت,ara,false,26,6307907,5093,8755,2260,317,1895/1/1,Pour La Couronne,book,678,843,550,154,35,3.87,111,Paperback,,7,2,François Coppée,,,,,,1952,5,91,"classics,fiction,literature,novels,romance"
13178501,0956517064,Showstoppers (Emily Castles Mysteries #2),9780956517067,,,,ES,2014/1/28,Tyger Books,eng,false,3,13178501,1085,569,160,48,2011/1/1,,book,31,58,48,15,8,3.56,102,Paperback,,92,40,Helen  Smith,,,,,,822,19,50,"adult,animals,cozy-mystery,crime,detective,fiction,historical-fiction,humor,murder-mystery,mystery,novella"
13179501,1466379782,How to Do Online Dating for Women - Your Step-By-Step Guide to Online Dating for Women,9781466379787,,,,ES,2011/10/2,Createspace Independent Publishing Platform,,false,1,13179501,0,0,0,0,,,,0,0,0,0,0,0.00,72,Paperback,,0,0,HowExpert Press,,,,,,,0,,
13180501,1895170141,Rainbow 'round my shoulders,9781895170146,,,,ES,1990/1/1,Sexual Assault Recovery Anonymous Society,,false,1,13180501,1,5,1,0,1990/1/1,,,1,0,0,0,0,5.00,175,,,1,0,"Jan and Moorehouse, Eliza Grey",,,,,,,0,,non-fiction
13181001,,The Liberation of Max McTrue,9781618428325,,,,ES,2012/2/1,BookBaby E-Books,eng,true,2,13181001,506,217,55,13,2012/1/3,,book,22,17,11,1,4,3.95,187,ebook,,52,13,Kim Culbertson,,,,,,434,9,2,"adventure,contemporary,fiction,teen,young-adult"
13181501,3531164902,Frieden Und Konflikt,9783531164908,,,,ES,2011/11/11,Vs Verlag Fur Sozialwissenschaften,,false,1,13181501,3,8,2,0,2011/11/11,,,1,0,1,0,0,4.00,146,Paperback,,2,0,Egbert Jahn,,,,,,,0,1,
13182001,,Dragonlace,2940032905608,,,,ES,,,eng,true,3,13182001,79,57,14,7,2011/12/2,,book,6,4,3,1,0,4.07,,,,10,5,Robin Lythgoe,,,,,,61,0,1,"fantasy,short-stories"
13183001,,"Faith, Hope and Love poems from the heart ",,B003ZDO47O,,,ES,,,,true,1,13183001,5,0,0,0,2010/8/2,,,0,0,0,0,0,0.00,,Kindle Edition,,0,0,James Miller,,,,,,2,0,,
13183501,142154136X,"Bakuman, Vol. 12: Artist and Manga Artist (Bakuman, #12)",9781421541365,,,,ES,2012/7/3,VIZ Media LLC,eng,false,13,13183501,1966,5396,1256,44,2011/3/4,バクマン。 12,book,577,494,166,18,1,4.30,197,Paperback,,1063,33,Tsugumi Ohba,Takeshi Obata,,,,,311,30,4,"art,comedy,comics,drama,fiction,graphic-novels,humor,manga,realistic-fiction,romance,teen,young-adult"
13184501,1605370894,Funny Feet,9781605370897,,,,ES,2011/7/1,Clavis,,false,2,13184501,13,27,8,2,2011/7/1,,,1,1,6,0,0,3.38,16,Board Book,,7,1,"Liesbet Slegers,Liesbet Slegers",,,,,,1,1,,
13185001,1847533973,Hero in the Labyrinth,9781847533975,,,,ES,2007/5/17,Lulu Press,,false,1,13185001,0,0,0,0,2007/5/1,,,0,0,0,0,0,0.00,212,Paperback,,0,0,William Bishop,,,,,,,0,,
13187001,0319007693,"Cycle Tour: Gloucestershire, Hereford and Worcester",9780319007693,,,,ES,1994/12/31,Ordnance Survey,,false,1,13187001,0,0,0,0,1994/12/31,,book,0,0,0,0,0,0.00,144,Spiral-bound,,0,0,Nick Cotton,,,,,,,0,,
13187501,1609763270,Teruf: Wisdom of Light: Book II in Teruf's Progression in Succession Series,9781609763275,,,,ES,2011/3/30,Eloquent Books,,false,1,13187501,0,0,0,0,2011/3/30,,,0,0,0,0,0,0.00,390,Paperback,,0,0,Mark James Foster,,,,,,,0,,
13188001,,Sin of Hong Kong ,,,,,ES,1960/1/1,Angus & Robertso,eng,false,2,13188001,1,0,0,0,1960/1/1,Sin of Hong Kong,book,0,0,0,0,0,0.00,,Hardcover,,0,0,Mark Corrigan,,,,,,1,0,,
13188501,0345255259,"The Complete Directory To Prime Time Network Tv Shows, 1946 Present",9780345255259,,,,ES,,,,false,17,1780981,326,626,144,13,1979/1/1,The Complete Directory to Prime Time Network and Cable TV Shows: 1946-Present,book,74,49,19,1,1,4.35,,,,1,0,"Earle Marsh,Tim Brooks",,,,,,49,3,9,"history,movies,non-fiction,reference"
13190001,,Frida Kahlo - Uma Vida,9789725645468,,,,ES,1992/1/1,Livros Quetzal,por,false,22,807513,2003,4066,984,64,1985/1/1,Frida Kahlo. Autoportrait d'une femme,book,361,421,175,25,2,4.13,368,,,3,1,Rauda Jamis,,,,,,567,9,75,"art,biography,feminism,historical-fiction,non-fiction,unfinished"
13192501,0887100961,"Speak Cantonese, Book Two",9780887100963,,,,ES,1985/3/11,Yale University Press,,false,1,13192501,0,0,0,0,1985/3/11,,,0,0,0,0,0,0.00,478,Paperback,,0,0,Parker Po-Fei Huang,,,,,,,0,,
13193001,0803233213,"Before Lewis and Clark, Volume 2: Documents Illustrating the History of the Missouri, 1785-1804",9780803233218,,,,ES,1990/4/1,University of Nebraska Press,,false,2,2062183,7,18,4,0,1990/4/1,"Before Lewis and Clark: Documents Illustrating the History of the Missouri, 1785-1804, Vol. 2",book,2,2,0,0,0,4.50,853,Hardcover,,0,0,,,,A.P. Nasatir,,,4,0,,
13193501,0472070665,A Poet's Ear: A Handbook of Meter and Form,9780472070664,,,,ES,2013/5/28,University of Michigan Press,,false,2,13193502,26,17,4,2,2011/6/28,,book,3,0,0,1,0,4.25,440,Hardcover,,4,2,Annie Finch,,,,,,15,2,,"classic-literature,poetry"
13194001,2300028077,"Windows 7, Les Secrets Des Pros (French Edition)",9782300028076,,,,ES,,,,false,1,13194001,1,0,0,0,,,,0,0,0,0,0,0.00,,,,0,0,Jean-Georges Saury,,,,,,,0,,
13195001,1402796269,Did It All Start with a Snowball Fight?: And Other Questions About...The American Revolution,9781402796265,,,,ES,2012/8/7,Sterling Children's Books,,false,2,13195046,35,48,13,6,,,,4,3,4,2,0,3.69,40,Hardcover,,1,1,Mary Kay Carson,,,,,,13,3,,"american-history,childrens,history,picture-books"
13195501,0545387590,"Home Court (STAT: Standing Tall and Talented, #1)",9780545387590,,,,ES,2012/8/1,Scholastic Press,,false,5,13195501,678,1134,279,66,2012/8/1,,book,114,92,55,13,5,4.06,144,Paperback,,246,61,Amar'e Stoudemire,,,,,,86,11,19,"biography,chapter-books,family,fiction,juvenile,middle-grade,realistic-fiction,sports"
13196001,094653716X,The Great Western Railway,9780946537167,,,,ES,1985/2/1,Trafalgar Square Publishing,,false,2,4707353,2,4,1,1,1985/2/1,,,0,1,0,0,0,4.00,206,Hardcover,,1,1,Frank Booker,,,,,,,0,,
13196501,0857331221,Jaguar E-Type: The Definitive History,9780857331229,,,,ES,2011/8/15,Haynes Publishing UK,,false,3,203225,7,15,3,0,1997/8/10,,,3,0,0,0,0,5.00,688,Hardcover,,2,0,Philip Porter,,,,,,2,0,,
13197001,0781774993,Biophysical Aging,9780781774994,,,,ES,,Lippincott Williams & Wilkins,,false,1,13197001,1,3,1,0,,,,0,0,1,0,0,3.00,560,Hardcover,,1,0,"Robert Coker,Stanley Brown",,,,,,,0,,
13197501,0007324901,Collins Mini English Dictionary,9780007324903,,,,ES,2010/7/1,HarperCollins UK,,false,1,13197501,4,17,4,1,2010/7/1,,,2,1,1,0,0,4.25,704,Paperback,,4,1,,,,,,,,0,,
13198001,0752455699,Bournemouth Past and Present,9780752455693,,,,ES,2010/11/1,The History Press,,false,1,13198001,0,0,0,0,2010/11/1,,,0,0,0,0,0,0.00,96,Paperback,,0,0,John Needham,,,,,,,0,,
13198501,0983065713,Everything Butt Art on the Farm: What Can You Draw with a Butt?,9780983065715,,,,ES,2011/9/1,"Madbrook Publishing, LLC",,false,4,13198501,0,0,0,0,2011/1/1,,,0,0,0,0,0,0.00,48,Paperback,,0,0,Brian Snyder,,,,,,,0,,
13199001,1857076680,"Little Mouse Visits Grandma: Mouse on Ribbon, Flaps, Acetates",9781857076684,,,,ES,2006/1/1,Tango Books,,false,1,13199001,2,8,2,0,2006/1/1,,,1,0,1,0,0,4.00,16,Hardcover,,2,0,Simon Abbott,,,,,,,0,,
13199501,8841297026,Nuovo corso di dizione. Con Cd Audio,9788841297025,,,,ES,,,,false,1,13199501,5,5,2,0,,,,0,0,1,1,0,2.50,,,,2,0,Nicoletta Ramorino,,,,,,,1,,non-fiction
13200001,1861260539,Build Your Own Canoe,9781861260536,,,,ES,1997/3/1,Crowood Press,,false,2,16447341,0,0,0,0,1997/3/1,,,0,0,0,0,0,0.00,160,Hardcover,,0,0,Dennis Davis,,,,,,,0,,
13200501,1577861744,2009 Lancaster/Berks County Court Rules,9781577861744,,,,ES,2011/1/1,"ALM Media, LLC",,false,1,13200501,0,0,0,0,2011/1/1,,,0,0,0,0,0,0.00,410,Paperback,,0,0,,,,Amanda Shotsberger,,,,0,,
13201001,1862543666,Flight at Lower Levels: Safety Through Awareness,9781862543669,,,,ES,1995/6/28,Wakefield Press,,false,1,13201001,0,0,0,0,1995/6/28,,,0,0,0,0,0,0.00,110,Paperback,,0,0,John Freeman,,,,,,,0,,
13201501,074594888X,The Whizzy Bizzy Christmas Fun Book,9780745948881,,,,ES,2004/9/1,Lion Hudson,,false,2,5121796,1,3,1,0,1999/9/1,The Whizzy Bizzy Christmas Fun Book,,0,0,1,0,0,3.00,32,Paperback,,0,0,,,,,,,,0,,
13202001,0152054529,Untitled Frederick Douglass Biography,9780152054526,,,,ES,2011/10/1,Harcourt Children's Books,,false,1,13202001,9,5,1,0,2011/10/1,,,1,0,0,0,0,5.00,,Hardcover,,1,0,Andrea Davis Pinkney,,,,,,7,0,,
13202501,0830761268,How to Get Your Parents to Let You do Whatever You Want: What Teens Need to Know,9780830761265,,,,ES,2012/3/5,Regal,,false,1,13202501,2,1,1,0,2012/3/5,,,0,0,0,0,1,1.00,208,Paperback,,1,0,Ron Luce,,,,,,1,0,1,
13203001,0762778482,Igniting the Flame: America's First Olympic Team,9780762778485,,,,ES,2012/6/5,Lyons Press,,false,5,13203001,44,58,16,5,2012/6/5,,,1,9,5,1,0,3.62,296,Hardcover,,16,5,Jim Reisler,,,,,,22,2,1,"non-fiction,sports"
13203501,0160738830,"Code of Federal Regulations, Title 26, Internal Revenue, Pt. 1 (Sections 1.0-1.60), Revised as of April 1, 2005",9780160738838,,,,ES,2005/8/10,National Archives and Records Administra,,false,1,13203501,0,0,0,0,2005/8/10,,,0,0,0,0,0,0.00,620,Paperback,,0,0,,,,,,,,0,,
13205001,0160822319,"Code of Federal Regulations, Title 5, Administrative Personnel, Pt. 700-1199, Revised as of January 1, 2009",9780160822315,,,,ES,2009/3/25,Office of the Federal Register,,false,1,13205001,0,0,0,0,2009/3/25,,,0,0,0,0,0,0.00,683,Paperback,,0,0,,,,,,,,0,,
13205501,016087937X,Call Sign - Dust Off: A History of U.S. Army Aeromedical Evacuation From Conception to Hurricane Katrina: A History of United States Army Aeromedical Evacuation From Conception to Hurricane Katrina,9780160879371,,,,ES,2011/5/3,Department of the Army,,false,1,13205501,4,0,0,0,2011/5/3,,,0,0,0,0,0,0.00,491,Hardcover,,0,0,Darrel D. Whitcomb,,,"Borden Institute, Walter Reed Army Medical Center",,,2,0,,
13206001,0822349701,Strange Affinities: The Gender and Sexual Politics of Comparative Racialization,9780822349709,,,,ES,2011/8/24,Duke University Press Books,,false,4,12641316,189,137,31,3,2011/7/1,,book,19,8,3,0,1,4.42,384,Hardcover,,0,0,,,,"Grace Kyungwon Hong,Roderick A. Ferguson",,,148,6,4,"grad-school,non-fiction,politics,queer,research"
13206501,0486248321,Teddy Bear Punch-Out Stencils,9780486248325,,,,ES,1985/5/1,Dover Publications,,false,1,13206501,1,0,0,0,1985/5/1,,book,0,0,0,0,0,0.00,16,Paperback,,0,0,Theodore Menten,,,,,,,0,,
13207001,0486480437,Tuscan Architecture: The Renaissance Masterpieces,9780486480435,,,,ES,2013/6/19,Dover Publications,,false,1,13207001,0,0,0,0,2012/2/16,,,0,0,0,0,0,0.00,128,Paperback,,0,0,"A. Famin,Auguste Grandjean de Montigny",,,,,,,0,,
13207501,0769663362,"Measurement, Grades 6 - 8",9780769663364,,,,ES,2011/2/15,Spectrum,,false,1,13207501,2,8,2,0,2011/1/3,,,1,0,1,0,0,4.00,128,Paperback,,2,0,School Specialty Publishing,,,,,,,0,,
13208001,1566393418,Counties In Court,9781566393416,,,,ES,1995/11/28,Temple University Press,,false,2,5103964,0,0,0,0,1995/11/28,Counties In Court Cl,,0,0,0,0,0,0.00,256,Paperback,,0,0,Wayne N. Welsh,,,,,,,0,,
13208501,159874321X,Qualitative Inquiry and the Politics of Evidence,9781598743210,,,,ES,2008/5/15,Left Coast Press,,false,6,4303692,3,8,2,0,2008/5/15,Qualitative Inquiry and the Politics of Evidence,book,0,2,0,0,0,4.00,352,Hardcover,,0,0,,,,"Michael D. Giardina,Norman K. Denzin",,,1,0,,
13209001,0933784112,Stud Age Chaucer 1987,9780933784116,,,,ES,2003/12/15,University of Notre Dame Press,,false,2,13210325,1,0,0,0,2003/12/15,,,0,0,0,0,0,0.00,,Hardcover,,0,0,,,,Thomas J. Heffernan,,,1,0,,
13209501,0226601617,The Ecology of School Renewal,9780226601618,,,,ES,1993/7/1,The National Society For The Study Of Ed,,false,2,13209501,2,0,0,0,1987/5/28,,,0,0,0,0,0,0.00,336,Paperback,,0,0,,,,John I. Goodlad,,,2,0,,
13210001,0226240525,"Adolescent Psychiatry, Volume 7: Developmental and Clinical Studies",9780226240527,,,,ES,1979/10/1,University of Chicago Press Journals,,false,1,13210001,0,0,0,0,1979/10/1,,,0,0,0,0,0,0.00,582,Hardcover,,0,0,,,,"Peter L. Giovacchini,Sherman C. Feinstein",,,,0,,
13210501,1842463616,Review of Eriope and Eriopidion (Labiatae),9781842463611,,,,ES,2000/1/15,"Royal Botanic Gardens, Kew",,false,1,13210501,0,0,0,0,2000/1/15,,,0,0,0,0,0,0.00,107,Paperback,,0,0,R M Harley,,,,,,,0,,
13211001,0817356584,The Naval Air War in Korea,9780817356583,,,,ES,2011/3/25,University Alabama Press,,false,4,1164274,21,21,5,0,1988/4/1,Naval Air War in Korea,book,1,4,0,0,0,4.20,256,Paperback,,0,0,Richard P. Hallion,,,,,,11,5,1,
13211501,0875806651,"Holy Fathers, Secular Sons: Clergy, Intelligentsia, and the Modern Self in Revolutionary Russia",9780875806655,,,,ES,2011/8/1,Northern Illinois University Press,,false,2,5108218,13,13,3,1,2008/1/3,"Holy Fathers, Secular Sons: Clergy, Intelligentsia, and the Modern Self in Revolutionary Russia (Studies of the Harriman Institute) (Studies of the Harriman ... (Studies of the Harriman Institute)",book,1,2,0,0,0,4.33,302,Paperback,,0,0,Laurie Manchester,,,,,,5,0,,history
13212001,0809301903,"Philosophy in Process, Volume 1: 1955-1960",9780809301904,,,,ES,1966/1/1,Southern Illinois University Press,,false,1,13212001,1,0,0,0,1966/1/1,,,0,0,0,0,0,0.00,800,Hardcover,,0,0,Paul Weiss,,,,,,1,0,,
13212501,085318397X,Orders of American Freemasonry,9780853183976,,,,ES,2011/12/20,Lewis Masonic,,false,1,13212501,4,3,1,0,2011/12/20,,,0,0,1,0,0,3.00,160,Hardcover,,1,0,"Arturo de Hoyos,S. Brent Morris",,,,,,3,0,,
13213001,0982787774,Tangerine Dream,9780982787779,,,,ES,2010/4/1,"Creative House Int'l Press, Inc.",,false,1,13213001,1,0,0,0,2010/4/1,,,0,0,0,0,0,0.00,56,Paperback,,0,0,Marsean Bierria,,,,,,,0,,
13214001,0434009024,"A Trust Betrayed (Margaret Kerr, #1)",9780434009022,,,,ES,2000/10/26,William Heinemann Ltd,,false,22,1215891,979,1654,459,38,2000/10/26,A Trust Betrayed,book,89,162,152,49,7,3.60,336,,,4,2,Candace Robb,,,,,,337,11,40,"crime,fiction,historical,historical-fiction,medieval,mystery"
13215001,1429010495,Why Prohibition!,9781429010498,,,,ES,2007/12/15,Applewood Books,,false,6,13215001,0,0,0,0,2007/12/15,,,0,0,0,0,0,0.00,328,Paperback,,0,0,Charles Stelzle,,,,,,,0,,
13215501,1429019921,Chapters of Erie,9781429019927,,,,ES,2009/6/24,Applewood Books,,false,4,1018900,21,11,3,1,1871/1/1,Chapters of Erie,book,1,1,0,1,0,3.67,436,Paperback,,0,0,,,,,,,15,1,,"american-history,history"
13216001,0825671736,"The Day the Music Died: The Last Tour of Buddy Holly, the Big Bopper, and Richie Valens",9780825671739,,,,ES,2000/12/22,Schirmer Trade Books,,false,1,13216001,7,30,6,0,2000/12/22,,,6,0,0,0,0,5.00,300,Hardcover,,6,0,Larry Lehmer,,,,,,1,0,,music
13216501,0735620326,Security + Certification,9780735620322,,,,ES,2004/10/1,Microsoft Press,,false,1,13216501,1,0,0,0,2004/10/1,,,0,0,0,0,0,0.00,694,Paperback,,0,0,Joern Wettern,,,,,,1,0,,
13217001,1855733870,Trading in Oil Futures and Options,9781855733879,,,,ES,1998/9/28,Woodhead Publishing,,false,2,7929845,9,7,2,0,1998/9/28,,,0,1,1,0,0,3.50,160,Hardcover,,1,0,Sally Clubley,,,,,,7,0,,
13217501,160787282X,VCLA Virginia Communication and Literacy AssessmentPractice Test 2,9781607872825,,,,ES,2011/4/25,XAMOnline.com,,false,1,13217501,2,0,0,0,2011/4/25,,,0,0,0,0,0,0.00,69,Paperback,,0,0,Sharon Wynne,,,,,,2,0,,
13218001,0727879766,Criminal Innocence,9780727879769,,,,ES,2012/1/26,Severn House Large Print,,false,5,8714315,34,45,12,0,2010/11/1,,,2,5,5,0,0,3.75,304,Hardcover,Large Print,0,0,Jeffrey Ashford,,,,,,17,1,1,"fiction,mystery"
13218501,,Mike Logan vs. The Crosstown Horde,,B004Q9TJH6,,,ES,,Mahervolous Books,,true,1,13218501,6,5,1,1,2011/12/10,,book,1,0,0,0,0,5.00,,,,1,1,Jim Maher,,,,,,4,0,,
13219501,8497940687,Como no ser el perfecto . . . Marido,9788497940689,,,,ES,2008/10/1,Edimat Libros,,false,2,13219501,1,0,0,0,2008/10/1,,,0,0,0,0,0,0.00,72,Hardcover,,0,0,Ulysses Brave,,,,,,,0,,
13220501,1580372546,"Developing Creative Thinking Skills, Grades 5 - 8",9781580372541,,,,ES,2003/9/1,Mark Twain Media,,false,2,13220501,0,0,0,0,2003/9/1,,,0,0,0,0,0,0.00,128,Paperback,,0,0,Bob Meyers,,,,,,,0,,
13221001,1556429932,Acing the Orthopedic Board Exam: The Ultimate Crunch Time Resource,9781556429934,,,,ES,2015/9/15,Slack Incorporated,,false,1,13221001,0,0,0,0,2012/10/15,,,0,0,0,0,0,0.00,496,Paperback,,0,0,Brett R. Levine,,,,,,,0,,
13221501,1906434786,Troubleshooting SQL Server - A Guide for the Accidental DBA,9781906434786,,,,ES,2011/9/1,Red Gate Books,,false,1,13221501,39,58,14,1,2011/9/26,,,5,6,3,0,0,4.14,370,Paperback,,14,1,"Jonathan Kehayias,Ted Krueger",,,,,,14,0,3,"non-fiction,reference"
13222001,1555234755,If I Could Have But One Full Day,9781555234751,,,,ES,,,,false,1,13222001,0,0,0,0,,,,0,0,0,0,0,0.00,,,,0,0,"Deborah Redding-Stewart,Joseph Kavanaugh",Nancy Thomson de Grummond,,,,,,0,,
13225501,1907133275,"Bite Me, Robot Boy",9781907133275,,,,ES,2012/1/5,Dog Horn Publishing,,false,1,13225501,0,0,0,0,2012/1/5,,,0,0,0,0,0,0.00,254,Paperback,,0,0,Adam Lowe,,,,,,,0,,
13226501,1847429068,"Landscapes of Voluntarism: New Spaces of Health, Welfare and Governance",9781847429063,,,,ES,2012/2/1,Policy Press,,false,3,16829525,0,0,0,0,2006/6/14,,,0,0,0,0,0,0.00,320,Paperback,,0,0,,,,"Christine Milligan,David Conradson",,,,0,,
13227001,1449316220,Creating Windows Applications with HTML,9781449316228,,,,ES,2013/10/22,O'Reilly Media,,false,1,13227001,0,0,0,0,2012/1/22,,,0,0,0,0,0,0.00,120,Paperback,,0,0,Robert A. Heath,,,,,,,0,,
13227501,0984425349,Rather San Diego: eat.shop explore > discover local gems,9780984425341,,,,ES,2012/6/1,Cabazon Books,,false,1,13227501,0,0,0,0,2012/6/1,,,0,0,0,0,0,0.00,192,Paperback,,0,0,Rather Editor,,,,,,,0,,
13228501,0307931846,Elmo's Rockin' Rhyme Time! (Sesame Street),9780307931849,,,,ES,2012/8/7,Random House Books for Young Readers,,false,1,13228501,22,30,9,2,2012/8/7,,,1,2,5,1,0,3.33,12,Board Book,,9,2,Naomi Kleinberg,,,,,,4,7,,
13229501,0007452586,Birmingham  the Heart of England: Waterways Guide 3,9780007452583,,,,ES,2012/3/28,HarperCollins UK,,false,1,13229501,7,26,6,0,2012/5/1,,,3,2,1,0,0,4.33,168,Spiral-bound,,6,0,"Collins,Collins",,,,,,,0,,
13230001,0340950587,Dodo Doo Doo,9780340950586,,,,ES,2011/11/29,Hachette Children's,,false,2,9711139,29,63,19,5,2009/9/1,,book,5,2,8,2,2,3.32,32,Paperback,,7,1,Kaye Umansky,,,,,,4,4,,"childrens,picture-books"
13230501,1589661842,Biosemiotics: An Examination into the Signs of Life and the Life of Signs,9781589661844,,,,ES,2009/2/16,University of Scranton Press,,false,3,3149382,82,69,16,2,2008/7/15,Biosemiotics: An Examination into the Signs of Life and the Life of Signs (USP-Approaches to Postmodernity),book,8,5,3,0,0,4.31,300,Paperback,,2,0,Jesper Hoffmeyer,,,Donald Favareau,,,56,0,2,philosophy
13231001,1429080795,The Toilet,9781429080798,,,,ES,2012/2/28,Applewood Books,,false,1,13231001,0,0,0,0,2011/12/31,,,0,0,0,0,0,0.00,24,Hardcover,,0,0,Mary Murray,,,,,,,0,,
13233501,1231461225,"Fisica Teorica: Teoria Das Cordas, Teoria de Tudo, Velocidade Da Luz Variavel, Teoria Quantica de Campos, Teoria Brans-Dicke",9781231461228,,,,ES,2011/6/26,"Books LLC, Wiki Series",,false,1,13233501,0,0,0,0,2011/6/26,,,0,0,0,0,0,0.00,,Paperback,,0,0,Source Wikipedia,,,,,,,0,,
13235501,0979539536,DEEP: The Practice of BNIM Architects,9780979539534,,,,ES,2013/8/13,ORO editions,,false,1,13235501,2,9,2,0,2012/8/7,,,1,1,0,0,0,4.50,256,Hardcover,,2,0,Andrew Payne,,,Rodolphe El-Khoury,,,,0,,
13236501,1933108320,DeKok and the Corpse by Return,9781933108322,,,,ES,,Speck Press,,false,1,13236501,3,4,1,0,,Dekok and the Corpse Return,book,0,1,0,0,0,4.00,216,Hardcover,,1,0,A.C. Baantjer,,,,,,2,0,,
13237001,1848422202,Double Feature Volume Two,9781848422209,,,,ES,2012/2/28,Nick Hern Books,eng,false,2,13237001,4,5,1,0,2012/4/10,,book,1,0,0,0,0,5.00,128,Paperback,,1,0,"Prasanna Puwanarajah,Tom Basden",,,,,,2,0,,"comedy,plays"
13237501,0813339952,Democracy in Poland,9780813339955,,,,ES,2002/4/18,Westview Press,,false,2,2012087,5,3,1,0,2002/4/1,Democracy in Poland (2nd Edition),book,0,0,1,0,0,3.00,312,Hardcover,Second Edition,0,0,"Marjorie Castle,Raymond Taras",,,,,,3,0,,
13238001,0773505814,In Defence of Open-Mindedness,9780773505810,,,,ES,1985/6/1,McGill-Queen's University Press,,false,4,3862636,3,14,3,0,1985/1/1,In Defence of Open-Mindedness,,2,1,0,0,0,4.67,136,Paperback,,0,0,William Hare,,,,,,,0,,
13239501,1935439480,Jonah Man,9781935439486,,,,ES,2012/4/17,Ig Publishing,,false,3,13239501,167,267,73,12,2012/4/17,,book,17,22,27,6,1,3.66,204,Paperback,,71,12,Christopher Narozny,,,,,,80,3,2,"american-history,crime,fiction,historical-fiction,literary-fiction"
13241001,,Periodic Tales The Curious Lives of the Elements,,B006GB4GW0,,,ES,,,,false,32,10294187,11340,11640,3135,380,2011/1/1,Periodic Tales: The Curious Lives of the Elements,book,699,1194,936,255,51,3.71,,,,0,0,Hugh Aldersey-Williams,,,,,,6650,45,829,"art,essays,history,nature,non-fiction,philosophy,reference,science,unfinished"
13242001,3836666480,Vom Handymenschen Zum Menschenhandy,9783836666480,,,,ES,2008/12/3,Diplomica Verlag Gmbh,,false,1,13242001,0,0,0,0,2008/12/3,,,0,0,0,0,0,0.00,98,Paperback,,0,0,Juliane Uhl,,,,,,,0,,
13242501,0736095691,Soccer Anatomy,9780736095693,,,,ES,2011/8/30,Human Kinetics Publishers,eng,false,4,13242501,94,93,24,1,2011/8/26,Soccer Anatomy,book,10,4,8,1,1,3.88,213,Paperback,,21,1,Donald T. Kirkendall,,,,,,53,0,3,
13243501,,Once a Warrior: Wired for Life- An Interactive Workbook,9780981917115,,,,ES,2011/12/1,Hearts Toward Home International,eng,false,4,1116799,99,164,42,6,2005/7/1,Once a Warrior: Wired For Life,book,15,11,13,3,0,3.90,53,Paperback,,0,0,Bridget C. Cantrell,,,,,,40,6,3,"psychology,reference"
13244001,8310119933,"Świątynia (Tytus Grójecki, #2)",9788310119933,,,,ES,2011/10/12,Nasza Księgarnia,pol,false,2,13244001,114,183,55,3,2011/10/12,,book,3,25,15,11,1,3.33,520,Paperback,,51,2,Jakub Żulczyk,,,,,,53,1,1,"fantasy,fiction,horror,novels"
13245001,2811603727,"Bloody Monday, Tome 2",9782811603724,,,,ES,2010/11/3,Pika,,false,2,10656336,393,951,237,11,2010/11/3,,book,85,89,48,11,4,4.01,192,Paperback,,4,1,,,,,,,65,7,2,"action,adventure,comedy,comics,contemporary,crime,death,drama,fiction,graphic-novels,high-school,horror,manga,mystery,politics,suspense,thriller,tragedy"
13245501,000718297X,Sketch,9780007182978,,,,ES,,,,false,1,13245501,4,9,2,0,2004/9/6,,,1,1,0,0,0,4.50,,,,2,0,Alwyn Crawshaw,,,,,,,0,,"art,music"
13247501,9781935265,The Sacred Mountain,,,,,ES,1211/1/1,Deep River Books,,true,1,13247501,1,5,1,1,2011/9/5,,book,1,0,0,0,0,5.00,143,Kindle Edition,,1,1,Dalen Keys,,,,,,,0,,
13249001,,Elfin Blood,9781605216164,,,,ES,2011/4/8,"Changeling Press, LLC",eng,true,2,13249001,3,2,1,1,2011/4/8,,book,0,0,0,1,0,2.00,63,ebook,1st Edition,1,1,Dany Sirene,,,,,,2,0,,
13250501,8806170244,Il linguaggio e la morte. Un seminario sul luogo della negatività,9788806170240,,,,ES,,Einaudi,ita,false,10,85828,526,593,140,6,1982/1/1,Il linguaggio e la morte. Un seminario sul luogo della negatività,book,59,59,18,4,0,4.24,150,Paperback,Piccola Biblioteca Einaudi. Nuova serie,9,1,Giorgio Agamben,,,,,,315,7,17,"criticism,language,literature,non-fiction,philosophy,religion,research,theology,writing"
13253001,,Don Juan and Men: Stories of Lust and Seduction,9781608200474,,,,ES,2009/9/23,MLR Press,eng,true,6,7723474,72,46,13,1,2009/8/2,,book,3,4,3,3,0,3.54,,ebook,,0,0,Caro Soles,,,,,,40,9,2,"contemporary,gay,romance,short-stories"
13253501,,A Man of His Word,,B005WJDJW0,,,ES,,,,true,13,11834653,394,387,104,15,2011/1/1,A Man of His Word,book,27,39,22,14,2,3.72,192,,,5,1,Sarah M. Anderson,,,,,,253,12,1,"adult,contemporary,fiction,harlequin,romance"
13254501,0964125420,This Medium's Life,9780964125421,,,,ES,2011/4/27,Berkheimer Press,,false,2,13254501,1,0,0,0,2011/4/27,,,0,0,0,0,0,0.00,376,Paperback,,0,0,Joey Crinita,,,,,,1,0,,
13256001,8427247370,Guillermo Hace De Las Suyas (Just William #3),9788427247376,,,,ES,2000/1/1,Molino,,false,22,2740021,876,2464,582,24,1923/1/1,William Again,book,270,204,88,14,6,4.23,,Paperback,,3,0,Richmal Crompton,,,,,,157,9,5,"adventure,british-literature,childrens,classics,comedy,english-literature,fiction,france,humor,school,short-stories,young-adult"
13257001,,Red Deception,,,,,ES,2011/12/26,,eng,true,2,13257001,46,69,17,9,2011/12/25,,book,8,3,5,1,0,4.06,,Kindle Edition,,14,9,J.C. Murtagh,,,,,,24,3,1,"erotica,historical,historical-fiction,romance"
13257501,0691154457,Alexander the Great and His Empire: A Short Introduction,9780691154459,,,,ES,2012/3/25,Princeton University Press,,false,9,9308507,40,60,20,1,,,,1,4,10,4,1,3.00,216,Paperback,,9,0,Pierre Briant,,,,Amélie Kuhrt,,13,0,1,"biography,history"
13258001,1847395562,Before I Say Goodbye,9781847395566,,,,ES,2008/9/4,Simon & Schuster UK,,true,81,691775,16986,36822,9773,380,2000/1/1,Before I Say Goodbye,book,2341,3554,3233,557,88,3.77,336,ebook,,0,0,Mary Higgins Clark,,,,,,2973,24,220,"adult,adult-fiction,american,contemporary,cozy-mystery,crime,fiction,modern,murder-mystery,mystery,mystery-thriller,novels,romance,suspense,thriller"
13258501,1847376312,Scattered Leaves,9781847376312,,,,ES,2009/5/5,Simon & Schuster UK,,true,13,43456,3683,5882,1556,48,2007/1/1,"Scattered Leaves (Early Spring, #2)",book,547,400,387,164,58,3.78,416,ebook,,0,0,V.C. Andrews,,,,,,1472,11,30,"abuse,adult,adult-fiction,classics,drama,fiction,gothic,horror,mystery,romance,suspense,thriller,tragedy,young-adult"
13259001,0743275195,Favorite Family Meals,9780743275194,,,,ES,2012/3/6,Atria Books,eng,false,4,577714,52,93,26,4,2006/1/1,Family Meal Planner,book,5,9,8,4,0,3.58,192,Paperback,,0,0,Annabel Karmel,,,,,,16,0,2,"cookbooks,food,non-fiction,parenting"
13259501,1416587608,The Eyes of Kid Midas,9781416587606,,,,ES,,Simon Pulse,,false,16,454575,1543,2686,756,76,1992/1/1,The Eyes of Kid Midas,book,161,223,270,77,25,3.55,192,Paperback,,0,0,Neal Shusterman,,,,,,617,15,9,"adventure,childrens,fantasy,fiction,middle-grade,mythology,novels,paranormal,school,science-fiction,supernatural,teen,young-adult"
13260001,1616283920,Explore Your World!: Crazy Cool Science Projects & Outdoor Adventures,9781616283926,,,,ES,2012/5/22,Weldon Owen,,false,1,13260001,12,0,0,0,2012/5/22,,,0,0,0,0,0,0.00,80,Paperback,,0,0,"Bethany Mann,Sarah Hines Stephens",,,,,,6,1,1,science
13260501,1451652453,Italian Without Words,9781451652451,,,,ES,2011/10/11,Meadowbrook,,true,9,1807580,78,112,34,7,1989/4/15,Italian Without Words,,7,9,8,7,3,3.29,112,ebook,,2,1,"Don Cangelosi,Joseph Delli Carpini",,,,,,24,3,1,"funny,humor,reference"
13261001,1449411444,From the Top (Big Nate),9781449411442,,,,ES,2012/3/6,Andrews McMeel Publishing,,false,5,8939770,15423,44758,10215,252,2010/1/1,,book,6406,2062,1199,335,213,4.38,224,Hardcover,,4,0,Lincoln Peirce,,,,,,1968,15,448,"childrens,comedy,comics,fiction,funny,graphic-novels,graphic-novels-comics,humor,juvenile,middle-grade,realistic-fiction,young-adult"
13261501,0373746725,"Private Security (The Delancey Dynasty, #4)",9780373746729,,,,ES,2012/5/1,Harlequin,,false,9,13261501,197,300,81,8,2012/1/1,,book,21,23,32,2,3,3.70,288,Paperback,Large Print,57,5,Mallory Kane,,,,,,71,10,7,"adult,adult-fiction,contemporary,crime,harlequin,mystery,romance"
13262001,1901784312,The Private Eye Annual 2003,9781901784312,,,,ES,,,,false,1,13262001,19,29,8,1,2003/1/1,,book,3,0,4,1,0,3.62,,Hardcover,,8,1,Ian Hislop,,,,,,7,0,,
13263501,1781250057,The Library Book,9781781250051,,,,ES,2012/1/1,Profile Books,,false,5,13263501,5644,3519,929,172,2012/1/1,,book,222,368,272,54,13,3.79,182,Hardcover,,829,151,"Alan Bennett,Anita Anand,Ann Cleeves,Bali Rai,Bella Bathurst,Caitlin Moran,China Miéville,Hardeep Singh Kohli,James                Brown,Julian Barnes,Julie Myerson,Karin Slaughter,Kate Mosse,Lionel Shriver,Lucy Mangan,Michael  Brooks,Nicky Wire,Seth Godin,Stephen Fry,Susan Hill,Tom Holland,Val McDermid,Zadie Smith",,,,,,3373,53,46,"adult,american,anthologies,autobiography,biography,biography-memoir,essays,european-literature,fiction,history,memoir,non-fiction,politics,short-stories,writing"
13264001,9600316848,Μικρή νεοελληνική ιχθυονωπογραφία ,9789600316841,,,,ES,1996/1/1,Εκδόσεις Καστανιώτη,gre,false,1,13264001,0,0,0,0,1996/6/22,Μικρή νεοελληνική ιχθυονωπογραφία ,book,0,0,0,0,0,0.00,128,,,0,0,"Kyriakos Delopoulos,Κυριάκος Ντελόπουλος",,,,,,,0,,
13264501,,Force of Habit: Sister Madeleine Investigates,9780984887606,,,,ES,2011/12/19,Penner Inc,eng,true,3,16104273,373,142,38,14,2011/6/19,Force of Habit: Sister Madeleine Investigates ,book,11,13,7,7,0,3.74,,ebook,1st,6,3,Cash Peters,,,,,,329,3,1,"fiction,mystery"
13265001,0373170254,Takeover Bid,9780373170258,,,,ES,1989/10/1,,,false,4,13265001,3,2,1,0,1988/3/1,Takeover Bid,book,0,0,0,1,0,2.00,,,Harlequin Romance,1,0,Sally Cook,,,,,,1,0,,
13266001,,Here Lies,,B004TS1VK2,,,ES,,,,true,3,12279464,2,5,2,1,2010/1/1,,,0,0,1,1,0,2.50,,,,0,0,H.W. Guernsey,,,,,,,0,,"fiction,humor,short-stories"
13267001,0722136137,No more parades.,9780722136133,,,,ES,1969/1/1,Sphere,,false,38,17017131,687,1355,337,34,1925/1/1,,book,122,118,81,14,2,4.02,190,,,0,0,Ford Madox Ford,,,,,,254,13,14,"adult-fiction,british-literature,classic-literature,classics,fiction,historical-fiction,literary-fiction,love,modern-classics,novels,war"
13267501,,Unknown Book 13267501,,,,,ES,,,,false,1,13267501,1,0,0,0,,,,0,0,0,0,0,0.00,,,,0,0,Unknown,,,,,,,0,,
13268001,,Kicking at the Darkness: Bruce Cockburn and the Christian Imagination,,B006CQ8HAG,,,ES,,,,true,3,12561130,165,225,59,15,2011/12/1,,book,13,30,10,4,2,3.81,,,,9,1,Brian J. Walsh,,,,,,78,2,13,"biography,christian,christianity,faith,music,non-fiction,philosophy,religion,spirituality,theology"
13268501,3642211941,Optical Binding Phenomena: Observations and Mechanisms,9783642211942,,,,ES,2011/7/10,Springer,,false,5,13268501,0,0,0,0,2011/1/1,,,0,0,0,0,0,0.00,96,Hardcover,,0,0,Jonathan M. Taylor,,,,,,,0,,
13269001,026321804X,The Deputy's Lost and Found,9780263218046,,,,ES,2011/8/1,Mills & Boon,,false,6,7928179,172,210,57,4,2010/1/1,The Deputy's Lost and Found (Men of the West),book,16,16,17,7,1,3.68,288,Hardcover,,0,1,Stella Bagwell,,,,,,68,10,4,"contemporary,fantasy,fiction,harlequin,love-story,romance"
13269501,0099447983,Survival of the Funniest,9780099447986,,,,ES,2003/10/23,Red Fox,,false,1,13269501,0,0,0,0,2003/10/23,,book,0,0,0,0,0,0.00,128,Paperback,,0,0,John  Byrne,,,,,,,0,,
13270001,,"Complete Works of Robert Louis Stevenson Set.10 (St. Ives, Being the Adventures of a French Prisoner in England, Tales and Fantasies, The Black Arrow)",,B005DZFXHW,,,ES,,,,true,1,13270001,3,5,1,0,,,,1,0,0,0,0,5.00,,,,1,0,Robert Louis Stevenson,,,,,,2,0,,
13271001,0449456595,You Are Psychic!,9780449456590,,,,ES,1990/5/19,"Random House, Inc.",,false,9,1400280,477,546,145,17,1989/1/9,You Are Psychic!: The Free Soul Method,,41,51,38,8,7,3.77,288,print,,0,0,Pete A. Sanders Jr.,,,,,,201,8,55,"paranormal,philosophy,spirituality,writing"
13271501,0552558567,The Haunted Holiday (Princess Poppy),9780552558563,,,,ES,,"Random House, Inc.",,false,4,12458850,53,104,25,0,2007/6/7,,book,12,8,3,1,1,4.16,128,novelty book,,0,0,Janey Louise Jones,,,,,,12,1,,"chapter-books,childrens,crime"
13272501,,"Fireworks - Bermain Api (Sapta Siaga, #11)",9789792277746,,,,ES,2011/12/1,PT Gramedia Pustaka Utama,ind,false,31,124680,4519,10064,2646,45,1959/1/1,Secret Seven Fireworks,book,765,821,865,165,30,3.80,150,Paperback,,10,2,Enid Blyton,,,,,,743,26,35,"adventure,childrens,classics,detective,fiction,juvenile,mystery,young-adult"
13273001,1444900218,Dear Vampa,9781444900217,,,,ES,2011/8/1,Hodder Children's Books,,false,7,6516518,360,897,232,68,2009/8/25,Dear Vampa,book,59,100,59,11,3,3.87,32,Paperback,,1,2,Ross Collins,,,,,,67,15,1,"animals,childrens,fiction,funny,holiday,humor,juvenile,picture-books,science-fiction,supernatural,vampires,werewolves"
13274001,9045802244,Klein meisje groot,9789045802244,,,,ES,2011/1/1,Mouria ,nl,false,23,8789529,5025,8653,2583,426,2011/1/1,Big Girl Small,book,382,799,886,373,143,3.35,,,,11,2,Rachel DeWoskin,,,,Lidwien Biekmann,,2050,38,39,"adult,adult-fiction,contemporary,family,feminism,fiction,high-school,literary-fiction,novels,realistic-fiction,relationships,romance,school,teen,young-adult"
13274501,0827426518,The King's Good Servant,9780827426511,,,,ES,,,,false,1,13274501,0,0,0,0,,,,0,0,0,0,0,0.00,,,,0,0,Richard O'Sullivan,,,,,,,0,,
13275501,0375710663,Knopf MapGuide: Prague,9780375710667,,,,ES,2002/3/5,"Random House, Inc.",,false,3,1360127,18,37,9,0,2002/3/5,Knopf MapGuide: Prague (Knopf Mapguides),,2,6,1,0,0,4.11,48,print,,0,0,,,,,,,1,0,,travel
13276001,0517654881,Italians: History Art and Genius of,9780517654880,,,,ES,1987/8/2,"Random House, Inc.",,false,1,13276001,0,0,0,0,1987/8/2,,,0,0,0,0,0,0.00,,hardback,,0,0,Random House,,,,,,,0,,
13277001,1425807283,"Read and Succeed: Comprehension, Level 5 [With CDROM]",9781425807283,,,,ES,,,,false,2,20915774,0,0,0,0,2010/5/1,,,0,0,0,0,0,0.00,,,,0,0,,,,,,,,0,,
13278501,9510368393,Pimeän kirkkaus,9789510368398,,,,ES,2010/8/24,WSOY,fin,false,2,13278501,26,56,17,0,2010/1/1,Mörkrets klarhet,book,0,8,7,1,1,3.29,61,Paperback,,14,0,Claes Andersson,,,,Jyrki Kiiskinen,,5,2,1,"poetry,politics"
13279001,,Submundo,9789721061972,,,,ES,2011/12/1,Publicações Europa-América,,false,6,3382333,75,95,31,3,2008/2/15,,book,3,7,10,11,0,3.06,144,Paperback,,3,1,Robert Finn,,,,,,30,2,,"fiction,mystery,thriller"
13279501,1891266322,The Lifeboat Strategy,9781891266324,,,,ES,,,,false,3,4865671,8,5,1,0,2005/1/1,The Lifeboat Strategy,,1,0,0,0,0,5.00,,,,0,0,Mark Nestmann,,,,,,6,0,,non-fiction
13280001,,Non esiste saggezza,,B0067BGRIK,,,ES,2011/6/29,Rizzoli,ita,true,7,8611519,593,1011,306,22,2010/5/19,Non esiste saggezza,book,28,86,148,39,5,3.30,256,Kindle Edition,Vintage,4,1,Gianrico Carofiglio,,,,,,96,2,7,"contemporary,crime,fiction,literature,novels,short-stories,thriller"
13280501,9026129254,"Dodemansrit (Roy Grace, #7)",9789026129254,,,,ES,2011/10/1,De Fontein,nl,false,41,11214214,10008,25463,6154,395,2011/1/1,Dead Man's Grip,book,2376,2555,971,198,54,4.14,379,Paperback,,37,2,Peter James,,,,Lia Belt,,378,35,48,"adult-fiction,crime,detective,drama,fiction,mystery,mystery-thriller,suspense,thriller"
13281001,0760727430,Spells for success,9780760727430,,,,ES,2001/1/1,Barnes & Noble Books,,false,1,13281001,8,13,6,1,2001/1/1,,,0,0,2,3,1,2.17,79,Unknown Binding,,6,1,Antonia Beattie,,,,,,1,1,,reference
13282501,9045005638,Het geheim van Oss: een geschiedenis van de SP,9789045005638,,,,ES,,L.J. Veen,nl,false,1,13282501,19,57,14,2,,,book,3,9,2,0,0,4.07,480,Paperback,,14,2,Kees Slager,,,,,,3,0,1,
13283001,0230515568,Anxieties and Management Responses in International Business,9780230515567,,,,ES,2007/4/15,Palgrave Macmillan,,false,1,13283001,1,0,0,0,2007/4/15,,,0,0,0,0,0,0.00,304,Hardcover,,0,0,,,,"Mo Yamin,Rudolf R. Sinkovics",,,,0,,
13283501,1579580459,"The 19th Century L-Z: Dictionary of World Biogrpahy, Volume 6",9781579580452,,,,ES,1999/6/1,Routledge,,false,2,15301416,3,3,1,0,1998/4/1,,book,0,0,1,0,0,3.00,1000,Hardcover,,0,0,Frank N. Magill,,,,,,2,0,,
13285001,,"Kindle - il manuale non ufficiale. Indicazioni, consigli e astuzie",,B006OD1MN6,,,ES,,,,true,2,13285001,8,12,3,1,2011/5/18,,,1,1,1,0,0,4.00,,ebook,,2,1,Matthias Matting,,,,,,1,1,,non-fiction
13285501,0436203367,Hiding Room,9780436203367,,,,ES,1998/10/21,"Random House, Inc.",,false,3,422387,37,62,17,2,1995/1/1,The Hiding Room,,6,3,5,2,1,3.65,,hardback,,0,0,Jonathan Wilson,,,,,,16,3,,
13286001,0385906617,Slept Away,9780385906616,,,,ES,,"Random House, Inc.",,false,1,5168560,2467,1762,503,61,2009/1/1,Slept Away,book,127,128,149,69,30,3.50,320,hardback,,0,0,Julie Kraut,,,,,,1853,19,13,"chick-lit,contemporary,fiction,high-school,humor,realistic-fiction,romance,teen,young-adult"
13287001,0307341151,Wiggles Henry's Big Band,9780307341150,,,,ES,2000/8/21,"Random House, Inc.",,false,2,13287001,4,5,1,1,2000/8/21,,,1,0,0,0,0,5.00,,hardback,,0,0,Golden Books,,,,,,2,0,,
13287501,0517668130,Lotus Crew,9780517668139,,,,ES,1988/2/13,"Random House, Inc.",,false,1,13287501,0,0,0,0,1988/2/13,,,0,0,0,0,0,0.00,,hardback,,0,0,Random House,,,,,,,0,,
13288501,0394731840,"The Hermetic and Alchemical Writings of Paracelsus, Volume 1: Hermetic Chemistry",9780394731841,,,,ES,1976/5/12,"Random House, Inc.",,false,12,3051237,38,39,10,0,1976/5/12,,book,4,2,3,1,0,3.90,394,paperback,,0,0,Paracelsus,,,,,,18,1,1,philosophy
13289501,0553713264,A Love of My Own,9780553713268,,,,ES,,"Random House, Inc.",,false,21,181463,7814,23000,5322,64,2002/1/1,A Love of My Own,book,2830,1586,733,134,39,4.32,,audio,,0,0,E. Lynn Harris,,,,,,1839,11,30,"adult,adult-fiction,american,drama,fiction,lgbt,romance"
13290001,0517239337,House & Garden: Complete Guide Interior,9780517239339,,,,ES,1988/12/12,"Random House, Inc.",,false,1,13290001,0,0,0,0,1988/12/12,,,0,0,0,0,0,0.00,,hardback,,0,0,Random House,,,,,,,0,,
13290501,1550374362,Dinosaur Dreams,9781550374360,,,,ES,1997/3/1,Annick Press,,false,4,6299425,10,20,6,1,1989/3/1,Dinosaur Dreams (Annikins),,2,0,2,2,0,3.33,32,Paperback,,0,0,Kerry Westell,Scot Ritchie,,,,,1,0,,picture-books
13291001,0553451634,Breaking Free,9780553451634,,,,ES,1989/2/1,"Random House, Inc.",,false,6,440973,116,117,30,6,1970/1/1,Breaking Free,,9,11,8,2,0,3.90,,audio,,0,0,Nathaniel Branden,,,,,,65,3,2,"mental-health,parenting,philosophy,psychology,self-help"
13291501,0712616543,A Country House Companion,9780712616546,,,,ES,1988/1/15,"Random House, Inc.",,false,3,3087643,37,33,8,0,1987/1/1,A Country House Companion,book,3,3,2,0,0,4.12,192,Hardcover,,0,0,Mark Girouard,,,,,,18,2,,history
13292001,0517320398,Perspective,9780517320396,,,,ES,1980/5/12,"Random House, Inc.",,false,1,13292001,0,0,0,0,1980/5/12,,,0,0,0,0,0,0.00,,hardback,,0,0,Random House,,,,,,,0,,
13292501,0394297989,Assertiveness,9780394297989,,,,ES,,"Random House, Inc.",,false,2,13292501,0,0,0,0,,,,0,0,0,0,0,0.00,,audio,,0,0,Sound Editions,,,,,,,0,,
13293001,0679018816,Bed & Breakfasts and Country Inns: New England: Delightful Places To Stay and Great Things to Do When You Get There,9780679018810,,,,ES,1993/8/31,"Random House, Inc.",,false,2,12154157,2,0,0,0,1991/8/27,,,0,0,0,0,0,0.00,,paperback,,0,0,Fodor's Travel Publications Inc.,,,,,,1,0,,
13293501,1467906255,Inmigrantes Jud�os Al Uruguay (1890-1950): Estudio Antropol�gico E Historias de Vida.,9781467906258,,,,ES,2011/11/7,Createspace Independent Publishing Platform,,false,2,13293501,1,4,1,0,2011/11/7,,,0,1,0,0,0,4.00,204,Paperback,,1,0,Teresa Porzecanski,,,,,,1,0,,
13294001,0517108747,Paradigms Lost,9780517108741,,,,ES,1993/7/5,"Random House, Inc.",,false,10,187639,487,620,160,11,1989/1/1,Paradigms Lost,book,45,62,41,12,0,3.88,,hardback,,0,0,John L. Casti,,,,,,210,10,11,"non-fiction,philosophy,science,science-fiction,technology"
13294501,0761541276,Harry Potter and the Chamber of Secrets (PC): Prima's Official Strategy Guide,9780761541271,,,,ES,,"Random House, Inc.",,false,8,3106388,20,30,6,1,,"""Harry Potter and the Chamber of Secrets"": Official Strategy Guide (Playstation 2, Game Cube and X-Box): UK Version",book,6,0,0,0,0,5.00,128,paperback,,1,0,Prima Publishing,,,,,,10,0,,
13295001,0517622246,How to Draw Pluto,9780517622247,,,,ES,1986/5/19,"Random House, Inc.",,false,1,13295001,0,0,0,0,1986/5/19,,,0,0,0,0,0,0.00,,hardback,,0,0,Random House,,,,,,,0,,
13295501,0771001606,Power Under Control,9780771001604,,,,ES,1972/1/1,"Random House, Inc.",,false,1,13295501,0,0,0,0,1972/1/1,,,0,0,0,0,0,0.00,,hardback,,0,0,"Ministry Of Transport Ontario,Ontario Ministry Of Transport",,,,,,,0,,
13296001,0517505029,Hallwag Switzerland,9780517505021,,,,ES,1988/12/12,"Random House, Inc.",,false,1,13296001,0,0,0,0,1988/12/12,,,0,0,0,0,0,0.00,,hardback,,0,0,Random House,,,,,,,0,,
13297001,0345349660,TAKE CONTROL YR MONEY,9780345349668,,,,ES,1989/1/13,"Random House, Inc.",,false,2,4590735,0,0,0,0,1986/8/12,Take Control of Your Money: A Life Guide to Financial Freedom,,0,0,0,0,0,0.00,,paperback,,0,0,Barbara  Lee,,,,,,,0,,
13297501,8809771826,I volti della menzogna: gli indizi dell'inganno nei rapporti interpersonali,9788809771826,,,,ES,2013/5/7,Giunti,ita,true,42,252429,8256,9044,2320,123,1985/1/1,"Telling Lies: Clues to Deceit in the Marketplace, Politics, and Marriage",book,706,875,562,151,26,3.90,352,ebook,,2,0,Paul Ekman,,,,,,4731,22,527,"american,biography,business,economics,education,language,non-fiction,personal-development,philosophy,politics,psychology,relationships,research,science,self-help,social,sociology,unfinished"
13298501,0862646898,Grisel and the Tooth Fairy & Other Stories,9780862646899,,,,ES,1998/11/19,"Random House, Inc.",,false,3,15862528,4,6,2,0,1998/1/1,Grisel and the Tooth Fairy & Other Stories,book,0,0,2,0,0,3.00,96,paperback,,0,0,Roger Collinson,,,,,,,0,,
13299001,0517631334,Proud Mary,9780517631331,,,,ES,1986/9/20,"Random House, Inc.",,false,1,13299001,0,0,0,0,1986/9/20,,,0,0,0,0,0,0.00,,hardback,,0,0,Random House,,,,,,,0,,
13299501,0517483173,My Neighborhood,9780517483176,,,,ES,1985/8/7,"Random House, Inc.",,false,1,13299501,0,0,0,0,1985/8/7,,,0,0,0,0,0,0.00,,hardback,,0,0,Random House,,,,,,,0,,
13300001,0517608421,Behind Closed Doors: 404 Marria,9780517608425,,,,ES,1987/3/12,"Random House, Inc.",,false,1,13300001,0,0,0,0,1987/3/12,,,0,0,0,0,0,0.00,,hardback,,0,0,Random House,,,,,,,0,,
13300501,0517022648,Anything Book: Victorian,9780517022641,,,,ES,1990/2/4,"Random House, Inc.",,false,1,13300501,0,0,0,0,1990/2/4,,,0,0,0,0,0,0.00,,hardback,,0,0,Random House,,,,,,,0,,
13301001,,Iron Hands,,B006IEXV12,,,ES,,,,true,1,13301001,68,100,24,6,2011/12/4,Iron Hands,book,12,6,4,2,0,4.17,,,,24,6,James Scott Bell,,,,,,38,2,1,"fiction,short-stories"
13302001,0307055108,Barbie and the Rockers,9780307055101,,,,ES,1987/5/1,"Random House, Inc.",,false,1,13302001,11,10,3,0,1987/5/1,,,1,0,1,1,0,3.33,,paperback,,3,0,Golden Books,,,,,,7,0,,
13303001,0517344262,Films of Sidney Poitier,9780517344262,,,,ES,1981/6/22,"Random House, Inc.",,false,1,13303001,0,0,0,0,1981/6/22,,,0,0,0,0,0,0.00,,hardback,,0,0,Random House,,,,,,,0,,
13303501,0345250001,The Great Victorian Collection,9780345250001,,,,ES,1976/5/12,"Random House, Inc.",,false,7,902786,193,261,76,13,1975/1/1,The Great Victorian Collection,book,15,20,27,11,3,3.43,183,Mass Market Paperback,,2,1,Brian Moore,,,,,,89,9,,"fantasy,fiction,literature"
13304001,0679826378,VICTORY GOAL (ANGEL PARK SOCCE,9780679826378,,,,ES,1992/2/18,"Random House, Inc.",,false,3,579219,20,10,3,2,1992/1/1,"VICTORY GOAL (ANGEL PARK SOCCE (Angel Park Soccer Stars, No 3)",book,0,2,0,1,0,3.33,112,paperback,,0,0,Dean Hughes,,,,,,12,0,2,juvenile
13304501,0385259883,Pojo's Unofficial Total Digimon,9780385259880,,,,ES,2000/5/16,"Random House, Inc.",,false,1,13304501,122,7,2,0,2000/5/16,,,1,0,0,1,0,3.50,112,paperback,,2,0,Brian Brokaw,,,,,,35,0,46,
13305001,0517090015,Not a Worry in the World,9780517090015,,,,ES,1992/8/23,"Random House, Inc.",,false,5,3945557,8,24,5,1,1991/2/6,Not a Worry in the World,,4,1,0,0,0,4.80,,hardback,,0,0,Marcia Williams,,,,,,1,0,,juvenile
13305501,0517557401,HOW TO GET YOUR FIRST JOB P 12,9780517557402,,,,ES,1988/12/12,"Random House, Inc.",,false,1,13305501,0,0,0,0,1988/12/12,,,0,0,0,0,0,0.00,,paperback,,0,0,Crown Publishing Group,,,,,,,0,,
13306001,4087740072,Akage No An =Anne Of Green Gables,9784087740073,,,,ES,,,,false,39,8127,885966,2623524,618285,17819,1908/6/1,Anne of Green Gables,book,315511,180918,89159,22123,10574,4.24,,,,2,0,L.M. Montgomery,,,,,,190227,2177,8640,"adventure,childrens,classic-literature,classics,family,fiction,historical,historical-fiction,juvenile,literature,middle-grade,novels,realistic-fiction,romance,school,teen,young-adult"
13306501,0738570079,Little Bighorn,9780738570075,,,,ES,2009/7/8,Arcadia Publishing,,false,1,13306501,2,8,2,0,2009/7/8,,,0,2,0,0,0,4.00,128,Paperback,,2,0,Vincent A. Heier,,,,,,,2,,
13307001,0763603023,The Magic Stopwatch: A Sports Adventure Game,9780763603021,,,,ES,1997/11/3,"Random House, Inc.",eng,false,2,34309092,0,0,0,0,1997/11/3,,book,0,0,0,0,0,0.00,32,hardback,,0,0,Heather Maisner,,,,,,,0,,
13308001,0375808841,SW EP.1: MOVIE STORY BOOK,9780375808845,,,,ES,1999/2/26,"Random House, Inc.",,false,1,13308001,3,0,0,0,1999/2/26,,,0,0,0,0,0,0.00,,paperback,,0,0,Ryder Windham,,,,,,3,0,,
13308501,1601253990,Pathfinder Campaign Setting: Jade Regent Poster Map Folio,9781601253996,,,,ES,2012/1/1,"Paizo Publishing, LLC",eng,false,1,13308501,26,31,8,0,2012/1/1,Pathfinder Campaign Setting: Jade Regent Poster Map Folio,book,2,4,1,1,0,3.88,3,Unbound,,8,0,,,,,,,13,0,,reference
13309001,0517449625,Beginners Guide to Magic,9780517449622,,,,ES,1984/3/26,"Random House, Inc.",,false,1,13309001,0,0,0,0,1984/3/26,,,0,0,0,0,0,0.00,,hardback,,0,0,Random House,,,,,,,0,,
13309501,,Jó: Romance de um homem simples,,,,,ES,2008/1/1,Companhia das Letras,por,false,107,57785,4051,8740,2280,151,1930/1/1,Hiob: Roman eines einfachen Mannes,book,650,909,473,187,61,3.83,190,Paperback,,2,0,Joseph Roth,,,,,,1195,24,53,"classics,contemporary,european-literature,faith,fiction,historical,historical-fiction,history,literary-fiction,literature,modern-classics,novels,religion,school,unfinished"
13311001,0517171007,The Gospel of Life,9780517171004,,,,ES,1996/8/14,"Random House, Inc.",,false,11,945144,1719,3831,833,23,1995/4/17,The Gospel of Life: Evangelium Vitae,book,593,174,46,12,8,4.60,,Paperback,,0,0,John Paul II,,,,,,709,17,15,"christian,christianity,faith,feminism,non-fiction,philosophy,religion,spirituality,textbooks,theology,unfinished"
13311501,0345279980,AFFAIR,9780345279989,,,,ES,1979/2/12,"Random House, Inc.",,false,1,13311501,0,0,0,0,1979/2/12,,book,0,0,0,0,0,0.00,,paperback,,0,0,Anthony Amato,,,,,,,0,,
13312001,0736480366,Bear in Air,9780736480369,,,,ES,,"Random House, Inc.",,false,1,13312001,1,0,0,0,,,,0,0,0,0,0,0.00,32,hardback,,0,0,"H.L. Ross,Walt Disney Company",,,,,,1,0,,
13312501,0517104733,The Care Bears and the Big Cleanup,9780517104736,,,,ES,1993/5/30,"Random House, Inc.",,false,1,13312501,1,1,1,0,1993/5/30,,book,0,0,0,0,1,1.00,,hardback,,1,0,Bobbi Katz,,,,,,,0,,
13313001,0517457385,Master Rabbit Leaves Home (Oak Tree Tales),9780517457382,,,,ES,1984/11/28,Crescent,,false,1,13313001,1,0,0,0,1984/11/28,,book,0,0,0,0,0,0.00,,Hardcover,,0,0,Dorothea King,,,,,,,0,,
13313501,0517182254,Klimt,9780517182253,,,,ES,1994/6/28,"Random House, Inc.",,false,1,13313501,2,4,1,0,1994/6/28,,,0,1,0,0,0,4.00,,hardback,,1,0,Random House,,,,,,1,0,,
13314001,0517114747,Heart of the Enlightened,9780517114742,,,,ES,1994/1/1,"Random House, Inc.",,false,10,333098,240,441,101,12,1989/3/26,,,58,25,16,1,1,4.37,,hardback,,0,0,Anthony de Mello,,,,,,93,2,10,"christianity,contemporary,history,non-fiction,religion,short-stories,spirituality,theology"
13314501,6029726315,Kalau Anda Mau Pasti Bisa,9786029726312,,,,ES,2010/1/1,Titik Media Publisher,ind,false,1,13314501,17,34,8,1,2010/1/1,Kalau Anda Mau Pasti Bisa,book,3,4,1,0,0,4.25,129,Paperback,,8,1,Antonius Arif,,,,,,11,0,,self-help
13315001,0517163322,House That Jack Built,9780517163320,,,,ES,1988/12/12,"Random House, Inc.",,false,4,13315155,0,0,0,0,1987/3/4,,,0,0,0,0,0,0.00,,hardback,,0,0,Random House,,,,,,,0,,
13315501,0394857208,HH-MERRY XMAS W/MUPPTS,9780394857206,,,,ES,1983/10/12,"Random House, Inc.",,false,1,13315501,1,4,1,0,1983/10/12,,,0,1,0,0,0,4.00,,hardback,,1,0,Muppets,,,,,,,0,,
13316001,1437701345,Avery's Diseases Of The Newborn: Expert Consult   Online And Print,9781437701340,,,,ES,2011/9/21,Saunders,,false,10,1856072,15,22,5,1,1991/5/1,Avery's Diseases of the Newborn,,3,1,1,0,0,4.40,1520,Hardcover,,2,0,"Christine A. Gleason,Christine J. Ko,Sherin Devaskar",,,,,,7,0,,
13316501,0812915798,NYT 1930-34 THEA REV,9780812915792,,,,ES,1971/1/12,"Random House, Inc.",,false,1,13316501,0,0,0,0,1971/1/12,,,0,0,0,0,0,0.00,,hardback,,0,0,The New York Times,,,,,,,0,,
13317001,0517431513,Hummingbirds: My Winter Guests,9780517431511,,,,ES,1997/9/23,"Random House, Inc.",,false,2,1844909,24,41,11,3,1997/9/23,Hummingbirds: My Winter Guests,,2,4,5,0,0,3.73,,hardback,,0,0,Arnette Heidcamp,,,,,,9,3,,"animals,non-fiction"
13317501,,A Chill At Twilight,,B00608B3CA,,,ES,,,,true,1,13317501,43,29,8,2,2011/10/26,,book,2,1,5,0,0,3.62,,Kindle Edition,,8,2,Calista Fox,,,,,,26,2,,"paranormal,romance,short-stories"
13318001,2354250568,La Gauche La Plus Bête Du Monde,9782354250560,,,,ES,,,,false,1,13318001,1,0,0,0,2008/1/1,,,0,0,0,0,0,0.00,,,,0,0,"Claude Villers,Razzy Hammadi",,,,,,,0,,"non-fiction,politics"
13319501,0852651406,Double Measures: The Guardian Book of Drinking,9780852651407,,,,ES,,"Random House, Inc.",,false,2,5183890,4,4,1,0,,Double Measures,,0,1,0,0,0,4.00,272,paperback,,0,0,,,,Richard Nelsson,,,,0,,
13320001,0913668818,Cable Car,9780913668818,,,,ES,1978/4/1,"Random House, Inc.",,false,4,9179452,5,9,2,0,1973/1/1,,,1,1,0,0,0,4.50,,paperback,,0,0,Christopher C. Swan,,,,,,2,0,,
13322501,,Informatietechnologie - de gevolgen van nieuwe ontwikkelingen voor de rol,9789026730290,,,,ES,,Kluwer,,false,1,13322501,1,0,0,0,,,book,0,0,0,0,0,0.00,,,,0,0,"Barry Derksen,Peter Noordam",,,,,,1,0,,
13324501,,The Basic Cook Something Good,,B006GEHSBI,,,ES,,,,true,1,13324501,10,3,2,0,2011/11/29,,,0,0,0,1,1,1.50,,,,2,0,Robin McLain,,,,,,2,1,1,
13325001,,My Lord Viking,,B004R1Q2RI,,,ES,,,,true,3,5597446,108,76,25,10,2001/1/1,My Lord Viking,book,2,6,9,7,1,3.04,,,,9,2,Jo Ann Ferguson,,,,,,65,7,,"fantasy,historical,paranormal,regency,romance,time-travel"
13325501,1178688496,"Joseph II Und Katharina Von Russland. Ihr Briefwechsel, Hrsg. Von Alfred, Ritter Von Arneth",9781178688498,,,,ES,,,,false,1,13325501,1,0,0,0,2011/8/28,,,0,0,0,0,0,0.00,,,,0,0,"Alfred Arneth,Joseph II",,,,,,1,0,,
13326001,,La planète de cristal,B0000DS61Z,,,,ES,1975/1/1,Marabout ,fre,false,1,13326001,3,8,2,1,1975/1/1,,book,1,0,1,0,0,4.00,182,Paperback,,2,1,Leon Groc,,,,,,1,0,,
13326501,,Unknown Book 13326501,,,,,ES,,,,false,1,13326501,1,0,0,0,,,,0,0,0,0,0,0.00,,,,0,0,Unknown,,,,,,,0,,
13328001,,La Dea dei baci,,B006E0II4A,,,ES,2010/1/1,Feltrinelli,ita,true,4,3968965,18,36,10,3,1997/1/1,La Dea dei baci,book,3,3,2,1,1,3.60,192,Kindle Edition,,0,0,Ippolita Avalli,,,,,,2,0,,
13328501,,Unknown Book 13328501,,,,,ES,,,,false,1,13328501,1,0,0,0,,,,0,0,0,0,0,0.00,,,,0,0,Unknown,,,,,,,0,,
13329501,,Koty. Encyklopedia hodowcy. Poradnik,,,,,ES,,Skarbnica Wiedzy,pol,false,1,13329501,3,3,1,0,,,book,0,0,1,0,0,3.00,200,Hardcover,,1,0,Wojciech Tymiński,,,,,,0,0,,
13330001,8497101049,Història dels grecs,9788497101042,,,,ES,2009/2/1,,cat,false,22,6992207,786,1687,417,35,1959/1/1,Storia dei Greci,book,144,171,84,13,5,4.05,,Paperback,,2,0,Indro Montanelli,,,,Joan Casas,,194,3,27,"classics,comedy,history,non-fiction,reference"
13330501,0747810958,Victorian Housebuilding,9780747810957,,,,ES,2012/11/20,Shire Publications,,false,1,13330501,5,12,3,0,2012/7/24,,,1,1,1,0,0,4.00,56,Paperback,,3,0,Kitt Wedd,,,,,,,0,,"non-fiction,victorian"
13331501,0546884229,"N. Singh: Webster's Timeline History, 1936   2007",9780546884227,,,,ES,,,,false,1,13331501,0,0,0,0,,,,0,0,0,0,0,0.00,,,,0,0,Icon Group International,,,,,,,0,,
13333001,,Lady Dragon (The Kitty Wu Series),,B006MV2TUU,,,ES,,Mad Square Enterprises,,true,2,13333001,3,9,2,0,2011/12/15,,book,1,1,0,0,0,4.50,,,,2,0,James Gordon,,,,,,1,0,,
13333501,8871042905,Il Diritto Civile Nella Legalità Costituzionale,9788871042909,,,,ES,,,,false,1,13333501,2,2,1,0,1991/1/1,,,0,0,0,1,0,2.00,,,,1,0,Pietro Perlingieri,,,,,,1,0,,
13334001,1441984348,Hedgehog Signaling Activation in Human Cancer and Its Clinical Implications,9781441984340,,,,ES,2011/5/4,Springer,,false,5,18764348,0,0,0,0,2011/1/1,,book,0,0,0,0,0,0.00,217,Hardcover,,0,0,,,,Jingwu Xie,,,,0,,
13334501,0749701064,Rescuing Gloria,9780749701062,,,,ES,1991/2/1,Mammoth,,false,4,6234010,6,10,3,0,1991/2/1,Rescuing Gloria,,1,0,1,1,0,3.33,144,Paperback,,0,0,Gillian Cross,,,,,,,0,,
13335001,,Benden Sonra Devam,9789944522854,,,,ES,2010/1/1,,tur,false,4,13335001,241,383,100,9,2010/1/1,,book,22,44,30,3,1,3.83,,,,94,7,Akın Öngör,,,,,,85,1,16,business
13336001,1452502528,Dare to Be a Winner,9781452502526,,,,ES,2011/10/24,Balboa Press,,false,2,13336001,0,0,0,0,2011/10/24,,,0,0,0,0,0,0.00,76,Paperback,,0,0,Ian Newbegin,,,,,,,0,,
13337001,1905777345,Professional Ethics Tutorial (Aat Accounting   Level 3 Diploma In Accounting),9781905777341,,,,ES,,,,false,2,13337001,2,4,2,0,2010/7/31,,,0,0,1,0,1,2.00,,,,2,0,Jo Osborne,,,,,,,0,,
13337501,0230765939,Bold as Brass: My Story,9780230765931,,,,ES,2012/5/1,MacMillan,eng,false,5,13337501,252,697,165,23,2012/5/1,,book,75,61,22,5,2,4.22,352,Hardcover,,100,22,"Hilary Devey,Megan Lloyd Davies",,,,,,14,3,2,"autobiography,biography,business,non-fiction,unfinished"
13338001,0769237118,"Michael Aaron Piano Course (Curso Para Piano), Bk 2: Modern Approach to Piano Study (Metodo Moderno Para El Estudio del Piano) (Spanish, English Language Edition)",9780769237114,,,,ES,1985/3/1,Alfred Music,,false,1,13338001,0,0,0,0,1985/3/1,,,0,0,0,0,0,0.00,64,Paperback,,0,0,Michael  Aaron,,,,,,,0,,
13338501,,La letra escarlata,,B005HKDN34,,,ES,2011/8/16,,spa,true,2271,12296,962953,2133774,629607,13168,1850/3/16,The Scarlet Letter,book,112137,186542,203714,88565,38649,3.39,366,,,7,0,Nathaniel Hawthorne,,,,Sellén Francisco,,214169,2975,8387,"adult,adult-fiction,american,classic-literature,classics,college,drama,feminism,fiction,high-school,historical,historical-fiction,history,literary-fiction,literature,novels,religion,romance,school,unfinished,young-adult"
13339001,8474320569,Realidad Y Juego,9788474320565,,,,ES,1993/1/1,Gedisa,spa,false,27,361284,4733,7160,1689,42,1971/1/1,Playing and Reality ,book,837,526,246,53,27,4.24,202,Paperback,,12,1,D.W. Winnicott,,,,,,2750,12,97,"academic,education,mental-health,non-fiction,parenting,philosophy,psychology,school,science,self-help,sociology,unfinished,writing"
13339501,1108037208,Home and Garden,9781108037204,,,,ES,2011/8/24,Cambridge University Press,,false,17,3488969,29,21,5,0,,,book,2,2,1,0,0,4.20,404,Paperback,,0,0,Gertrude Jekyll,,,,,,17,1,1,non-fiction
13340501,0252010620,Samantha Rastles the Woman Question [Cassette],9780252010620,,,,ES,1991/1/1,University of Illinois Press,,false,18,933102,12,16,5,0,1913/1/1,Samantha on the Woman Question,book,2,0,1,1,1,3.20,,Audio,,0,0,Marietta Holley,,,,,,3,2,,"fiction,historical-fiction"
13341501,161120366X,Daughter of Providence,9781611203660,,,,ES,2011/7/26,Dreamscape Media,,false,10,10410160,193,407,114,21,2011/7/7,,book,16,40,51,7,0,3.57,,MP3 CD,,0,0,Julie Drew,,,,,Tavia Gilbert,57,4,5,"adult-fiction,drama,family,fiction,historical-fiction"
13342501,1231852097,"Esoteeriset Koulukunnat: Alkemia, Antroposofia, Hermetismi, Kabbala, Neljas Tie, Ruusuristilaisyys, Teosofia, Uuspakanuus, G. I. Gurdjieff",9781231852095,,,,ES,2011/8/5,"Books LLC, Wiki Series",,false,1,13342501,0,0,0,0,2011/8/5,,,0,0,0,0,0,0.00,,Paperback,,0,0,Source Wikipedia,,,,,,,0,,
13343001,,Monarch of the Sands,,B006IIX8NE,,,ES,2012/2/1,Harlequin,eng,true,23,12064455,499,633,183,24,2011/9/1,Monarch of the Sands,book,33,57,66,15,12,3.46,188,,Harlequin Presents #3041,12,2,Sharon Kendrick,,,,,,176,6,43,"contemporary,fiction,harlequin,romance"
13345001,,The Pirate Captain's Daughter,,B006K2C99M,,,ES,,,,true,4,9658908,931,1318,429,75,2011/2/14,,book,44,98,161,97,29,3.07,,,,0,0,Eve Bunting,,,,,,153,16,2,"adventure,family,fiction,historical,historical-fiction,medieval,relationships,romance,teen,young-adult"
13345501,,"Monster Hunter Vendetta (Monster Hunter International, #2)",,B004RGOQM6,,,ES,2011/3/15,Audible Frontiers,eng,false,13,7683254,21112,66493,15662,671,2010/9/1,Monster Hunter Vendetta,book,6917,6188,2151,297,109,4.25,21,Audiobook,"Audible, Unabridged",122,24,Larry Correia,,,,,Oliver Wyman,1264,47,255,"action,adult,adventure,contemporary,demons,fantasy,fiction,funny,ghosts,horror,humor,magic,mystery,novels,paranormal,science,science-fiction,science-fiction-fantasy,shapeshifters,supernatural,thriller,urban-fantasy,vampires,werewolves,zombies"
13348001,,This Is the One: Sir Alex Ferguson - The Uncut Story of a Football Genius,,B0067VFMKE,,,ES,2011/11/11,Aurum,,true,6,2138129,219,504,122,9,2008/7/25,This Is the One: Sir Alex Ferguson - The Uncut Story of a Football Genius,book,46,50,22,4,0,4.13,304,Kindle Edition,,8,1,Daniel  Taylor,,,,,,74,3,6,"biography,non-fiction,sports"
13349501,0545434440,"The Dragonet Prophecy (Wings of Fire, #1)",9780545434447,,,,ES,2012/7/1,Scholastic Audio Books,,false,40,13228487,40591,89573,20903,1692,2012/7/1,The Dragonet Prophecy ,book,11674,5422,2484,740,583,4.29,9,Audio CD,,17,7,Tui T. Sutherland,,,,,,14747,74,1593,"action,adventure,animals,chapter-books,childrens,fantasy,fiction,high-fantasy,juvenile,magic,middle-grade,school,war,young-adult"
13351501,1463600593,Richard Hyatt's Columbus: Remembering 40 Years of Daily Journalism,9781463600594,,,,ES,2011/8/31,Createspace,,false,1,13351501,2,10,2,0,2011/8/31,,,2,0,0,0,0,5.00,206,Paperback,,2,0,Richard Hyatt,,,,,,,0,,
13352001,,Scout: Survive The Night. The Dead War Chapter 1,,B006RY6JSU,,,ES,,,eng,true,1,13352001,5,3,1,0,2011/12/31,,book,0,0,1,0,0,3.00,,,,1,0,George L. Cook III,,,,,,3,0,,
13352501,1463789742,Divine Work: Theology of Work According to the Desert Fathers,9781463789749,,,,ES,2011/12/7,Createspace Independent Publishing Platform,,false,1,13352501,2,0,0,0,2011/12/7,,,0,0,0,0,0,0.00,268,Paperback,,0,0,Brad Hayton,,,,,,2,0,,
13353001,8717051991,Skilsmisse Og Br̜n: En Bog For Forl̆dre,9788717051997,,,,ES,,,,false,1,13353001,0,0,0,0,,,,0,0,0,0,0,0.00,,,,0,0,Morten Nissen,,,,,,,0,,
13353501,1445871920,Torchwood: Army of One,9781445871929,,,,ES,2012/3/8,BBC Audiobooks Ltd,,false,4,13353501,233,316,92,11,2012/3/8,,book,13,27,42,7,3,3.43,1,Audio CD,,90,10,Ian Edginton,,,,,Kai Owen,20,5,3,"aliens,fiction,science-fiction"
13354001,1456594982,Colts and Fillies: Eal for Children,9781456594985,,,,ES,2011/4/28,Createspace Independent Publishing Platform,,false,1,13354001,2,9,2,1,2011/4/28,,,1,1,0,0,0,4.50,56,Paperback,,2,1,Susan Jung,,Dixie Cowles,,,,,0,,
13355001,1932543430,The Sculpture of Grainger McKoy,9781932543438,,,,ES,,,,false,1,13355001,1,5,1,1,,,book,1,0,0,0,0,5.00,87,,,1,1,"High Museum of Art, Atlanta",,,,,,,0,,
13355501,0817357157,Enduring Motives: The Archaeology of Tradition and Religion in Native America,9780817357153,,,,ES,2012/8/31,University Alabama Press,,false,3,13355501,5,0,0,0,2012/1/1,,book,0,0,0,0,0,0.00,352,Paperback,,0,0,,,"Alice Beck Kehoe,Amy  Roe,Arlene Colman,Colin McEwan,James A. Brown,Jeffrey Quilter,John   Kelly,John E. Clark,John Norder,Kelley Hays-Gilpin,Peter G. Roe,Robert L.  Hall,Stephen H. Lekson,Wesley Bernardini","Linea Sundstrom,Warren DeBoer",,,5,0,,"anthropology,science"
13356001,,السكان الأصليين لمصر,9789770928837,,,,ES,2012/1/1,دار الشروق ,ara,false,6,6136499,8328,10868,2893,245,2009/1/1,السكان الأصليين لمصر,book,723,1098,798,193,81,3.76,229,Paperback,,47,10,بلال فضل,,,,,,4751,8,152,"comics,history,literature,non-fiction,politics,short-stories,social"
13356501,1429045469,Six Months in the Gold Mines,9781429045469,,,,ES,2010/10/21,Applewood Books,,false,1,13356501,1,0,0,0,2010/10/21,,,0,0,0,0,0,0.00,172,Paperback,,0,0,E. Buffum,,,,,,1,0,,
13357001,0807835560,"Fatal Revolutions: Natural History, West Indian Slavery, and the Routes of American Literature",9780807835562,,,,ES,2012/3/12,University of North Carolina Press,,false,4,13357001,18,19,5,1,2012/3/12,,,1,3,0,1,0,3.80,296,Hardcover,,5,1,Christopher Iannini,,,,,,12,0,,"history,literature"
13357501,1610454626,Enough: Discovering Joy through Simplicity and Generosity,9781610454629,,,,ES,2012/4/1,christianaudio,,false,16,6327101,1017,1907,484,58,2009/1/1,Enough: Discovering Joy through Simplicity and Generosity,book,157,172,126,27,2,3.94,,Audiobook,,1,0,Adam Hamilton,,,,,Sean Runnette,338,12,66,"adult,christian,christianity,faith,leadership,non-fiction,religion,spirituality,theology"
13358001,01410.0168,life is so good,,,,,ES,,,,true,21,933231,10145,19514,4706,850,2000/1/1,Life Is So Good,book,1959,1740,797,158,52,4.15,260,,,22,6,George Dawson,,,,,,4687,13,178,"adult,american,american-history,autobiography,biography,biography-memoir,family,fiction,historical,history,inspirational,memoir,non-fiction,politics,school,self-help"
13358501,,On a Wing and a Prayer (London at War),,B006OUEUDI,,,ES,,,,true,12,31578320,945,2041,458,31,1998/1/1,,book,270,142,34,9,3,4.46,,,,337,16,Helen  Carey,,,,,,118,5,169,"fiction,historical,historical-fiction,romance,war"
13360001,1461409586,Hallucinations: Research And Practice,9781461409588,,,,ES,2011/12/21,Springer,,false,4,13360001,9,13,4,0,2011/12/21,,,0,2,1,1,0,3.25,426,Hardcover,,4,0,,,,"Iris E.C. Sommer,Jan Dirk Blom",,,4,0,,
13360501,1455812714,Breaking News,9781455812714,,,,ES,2012/9/25,Brilliance Audio,,false,2,13771831,4344,4481,1097,110,2012/1/1,,book,472,341,205,63,16,4.08,,Audio CD,,1,0,Fern Michaels,,,,,,2666,22,116,"chick-lit,contemporary,family,fiction,mystery,romance"
13361001,3868822453,"Come On, Baby!",9783868822458,,,,ES,,,,false,2,13361001,2,8,2,0,2011/6/16,,,0,2,0,0,0,4.00,,,,2,0,Flic Everett,,,,,,,0,,
13361501,2909478270,Plasticiens volants: De nos rêves occupons le ciel,9782909478272,,,,ES,2010/12/1,Éditions Odyssée,spa,false,1,13361501,4,4,1,3,2010/12/1,,book,0,1,0,0,0,4.00,136,Paperback,,1,3,"Floriane Gaber,Marc Bureau,Marc Mirales",,,,,,2,0,,
13362001,8807101505,"Geometria delle passioni: paura, speranza, felicità: filosofia e uso politico",9788807101502,,,,ES,1994/1/7,Feltrinelli,ita,false,3,563957,30,28,7,1,1991/1/1,Geometría de las pasiones,book,2,3,2,0,0,4.00,519,Paperback,Campi del sapere,4,0,Remo Bodei,,,,,,17,0,1,philosophy
13363001,1441111506,Plato on Virtue and the Law,9781441111500,,,,ES,2012/1/5,Bloomsbury Academic,,false,2,13363001,1,0,0,0,2011/11/3,,,0,0,0,0,0,0.00,188,Paperback,,0,0,Sandrine Berges,,,,,,1,0,,
13363501,142865500X,George F. Johnson and His Industrial Democracy,9781428655003,,,,ES,,,,false,1,13363501,4,5,1,1,2006/7/25,,,1,0,0,0,0,5.00,,,,1,1,William Inglis,,,,,,3,0,,
13364001,9604940546,Όσα δεν είπαμε ποτέ,9789604940547,,,,ES,2011/1/1,Modern Times,gre,false,91,19322012,15865,30325,7861,594,2008/1/1,Toutes ces choses qu'on ne s'est pas dites,book,2497,2738,1838,586,202,3.86,303,,,5,0,Marc Levy,,,,,,4188,32,1473,"adult,chick-lit,contemporary,drama,family,fantasy,fiction,france,humor,literature,love,novels,romance,young-adult"
13364501,1453797653,Rehoboth: A Place of Destiny,9781453797655,,,,ES,2010/9/21,Createspace,,false,2,13364501,0,0,0,0,2010/9/21,,,0,0,0,0,0,0.00,88,Paperback,,0,0,R. Reed Hervey,,,,,,,0,,
13366001,1151000779,"Scrolling Shooters: Zero Wing, Radiant Silvergun, Zaxxon, Touhou Project, Defender, Tyrian, the Guardian Legend, Raystorm, Einhander, Raid",9781151000774,,,,ES,2012/10/24,"Books LLC, Wiki Series",,false,1,13366001,1,3,1,0,2011/6/25,,,0,0,1,0,0,3.00,,Paperback,,1,0,Source Wikipedia,,,,,,,0,,
13366501,9174484095,Häxorna,,,,,ES,1987/1/1,Litteraturfrämjandet,swe,false,204,6327,404645,1123349,269195,6248,1983/10/27,The Witches,book,121424,89949,44846,8919,4057,4.17,212,Paperback,,109,4,Roald Dahl,Quentin Blake,,,Meta Ottosson,,98405,602,2110,"adventure,chapter-books,childrens,classics,comedy,fantasy,fiction,funny,horror,humor,juvenile,magic,middle-grade,novels,paranormal,school,supernatural,witches,young-adult"
13367001,0956284086,Sea of Ink,9780956284082,,,,ES,2012/9/1,Peirene,,false,6,15829361,259,380,104,20,2003/2/28,Meer der Tusche,book,23,36,34,8,3,3.65,112,Paperback,,21,1,Richard Weihe,,,,Jamie Bulloch,,126,10,1,"art,biography-memoir,fiction,historical,historical-fiction,history,literary-fiction,literature,non-fiction,novella,novels,short-stories,unfinished"
13367501,9077766197,"Vage omzwervingen (Natte maan, #1)",,,,,ES,2011/1/1,Xtra Graphic Novel,nl,false,9,30043876,2920,5250,1445,148,2004/12/22,Wet Moon Volume 1: Feeble Wanderings (Wet Moon),book,375,438,416,159,57,3.63,173,Paperback,,10,4,Ross Campbell,,,,,,1149,16,14,"adult,art,comics,fiction,gothic,graphic-novels,graphic-novels-comics,horror,lgbt,manga,mystery,queer,romance,supernatural,young-adult"
13368501,,Girl Meets Boys,,B006MCGOEQ,,,ES,,,,true,2,13072739,31,32,13,7,2011/9/13,,book,0,2,4,5,2,2.46,,,,2,0,Louise Gibney,Ciaran Robinson,,,,,14,1,,
13369001,,The Big Heat,,,,,ES,1953/1/1,"Dodd, Mead",eng,false,21,845175,229,354,98,13,1953/1/1,The Big Heat,book,16,40,31,10,1,3.61,187,Hardcover,,7,2,William P. McGivern,,,,,,113,6,1,"crime,fiction,historical,movies,mystery,mystery-thriller,novels"
13370001,,Toinen sukupuoli 2 - Eletty kokemus,,,,,ES,2011/10/1,Tammi,fin,false,26,426675,2554,2768,662,43,1949/1/1,Le deuxième sexe #2,book,296,234,99,22,11,4.18,688,Hardcover,,9,0,Simone de Beauvoir,,,,,,1544,7,104,"classics,essays,feminism,france,history,non-fiction,philosophy,politics,sociology"
13370501,1231327030,"Amerikanska Folkmusiker: Bob Dylan, Bruce Springsteen, Pete Seeger, Iron & Wine, Spider John Koerner, Arlo Guthrie, Melanie Safka, Ariel Pink",9781231327036,,,,ES,2011/8/3,"Books LLC, Wiki Series",,false,1,13370501,3,0,0,0,2011/8/3,,book,0,0,0,0,0,0.00,,Paperback,,0,0,Source Wikipedia,,,,,,3,0,,
13371501,0595291147,"Share, Inc.",9780595291144,,,,ES,2003/10/13,iUniverse,,false,3,13371501,0,0,0,0,2003/10/1,,,0,0,0,0,0,0.00,300,Paperback,,0,0,James Lewis,,,,,,,0,,
13372001,8882742326,Il barone,9788882742324,,,,ES,2001/1/1,Sperling & Kupfer ,ita,false,6,18324819,413,714,189,18,1982/1/1,Il barone,book,48,68,60,9,4,3.78,613,Paperback,,4,1,Sveva Casati Modignani,,,,,,125,8,10,"chick-lit,novels,romance"
13372501,,Demokrasi dan Budaya Birokrasi,,,,,ES,1994/11/1,Yayasan Bentang Budaya,ind,false,1,13372501,17,5,1,0,1994/11/1,,book,1,0,0,0,0,5.00,264,Paperback,1st ed.,1,0,Kuntowijoyo,,,,,,15,0,,politics
13374001,,Windfall,,B005SITQWC,,,ES,,,,true,5,7701189,18,21,7,1,2010/1/1,,book,1,0,4,2,0,3.00,,,,2,0,Jenna Byrnes,,,,,,8,3,,"contemporary,erotica,romance"
13374501,1456444875,Instrumentos de Recoleccion de Datos En Ciencias Sociales y Ciencias Biomedicas: Valiez y Confiabilidad. Dieno y Construccion. Normas y Formatos,9781456444877,,,,ES,2011/4/27,Createspace Independent Publishing Platform,,false,1,13374501,0,0,0,0,2011/4/27,,book,0,0,0,0,0,0.00,370,Paperback,,0,0,Rafael Hernández-Nieto,,,,,,,0,,
13375001,9400722346,"Natural Hazard Mitigation Policy: Implementation, Organizational Choice, and Contextual Dynamics",9789400722347,,,,ES,2011/10/3,Springer,,false,5,13375001,0,0,0,0,2011/10/1,,,0,0,0,0,0,0.00,240,Hardcover,,0,0,"Daniel J. Alesch,Lucy A. Arendt,William J. Petak",,,,,,,0,,
13377501,,Say YES! to Change: 27 Secrets to Motivating Yourself and Your Team,,B003ZYFCII,,,ES,,,,true,1,13377501,13,7,2,0,2010/8/13,,,0,1,1,0,0,3.50,,,,2,0,Lawrence Polsky,,,,,,7,0,,
13378501,,Saving Celine,,B006S2QQM0,,,ES,2011/12/31,Astrid Cielo,en-US,true,2,13378501,29,10,4,1,2011/12/31,,book,0,1,0,3,0,2.50,,ebook,,4,1,Astrid Cielo,,,,,,20,0,1,"fiction,romance"
13379001,1462646646,The Hidden Talent: What's That All About?,9781462646647,,,,ES,2011/9/1,America Star Books,,false,1,13379001,1,0,0,0,2011/9/30,,,0,0,0,0,0,0.00,372,Paperback,,0,0,F.D. Stewart,,,,,,1,0,,
13380001,0521736811,Shakespeare's Workmanship,9780521736817,,,,ES,2008/9/1,Cambridge University Press,,false,11,13380001,4,5,1,0,1918/6/1,Shakespeare's Workmanship,,1,0,0,0,0,5.00,324,Paperback,,1,0,Arthur Quiller-Couch,,,,,,2,0,,essays
13381001,1856262944,100 Great Natural Remedies: Using Healing Plants At Home,9781856262941,,,,ES,1998/1/1,K. Cathie,,false,5,7102192,24,12,4,1,1997/1/1,,book,0,1,2,1,0,3.00,192,Unknown Binding,,1,0,"Caroline  Taggart,Geoff Hayes,Laura Hodgson,Penelope Ody",,,,,,6,0,1,health
13381501,1440322783,Puzzle Boxes: Fun and Intriguing Band Saw Projects,9781440322785,,,,ES,2012/3/29,Popular Woodworking Books,,false,6,7828916,57,70,18,3,2010/1/1,,,5,8,3,2,0,3.89,143,Paperback,,7,0,Jeff Vollmer,,,,,,20,0,12,"non-fiction,reference"
13383001,0905927419,Handbook Of Cultivated Sedums,9780905927411,,,,ES,,,,false,1,13383001,5,13,3,0,,,,1,2,0,0,0,4.33,,,,3,0,Ronald L Evans,,,,,,2,0,,
13384001,,Salzano's Captive Bride (Mills & Boon Modern),,B002RI9VD0,,,ES,,,,true,17,6437585,252,371,118,15,2009/1/1,Salzano's Captive Bride ,book,17,25,43,24,9,3.14,,,,3,0,Daphne Clair,,,,,,70,0,4,"adult,fiction,harlequin,romance"
13384501,,The Ice Cream Girls,,B005SCRA4E,,,ES,2012/4/24,Grand Central Publishing,,true,39,6780522,17513,35473,8941,762,2010/1/1,The Ice Cream Girls,book,2943,3475,1942,451,130,3.97,431,,Reprint edition ,43,3,Dorothy Koomson,,,,,,6650,71,168,"abuse,adult,adult-fiction,chick-lit,contemporary,crime,drama,family,fiction,modern,mystery,romance,suspense,thriller"
13385001,8860734754,Lo statista,9788860734754,,,,ES,2008/1/1,Baldini Castoldi Dalai,ita,false,1,13385001,9,20,5,1,2008/1/1,,book,2,1,2,0,0,4.00,234,Hardcover,,5,1,Massimo Giannini,,,,,,1,0,,
13385501,3834924903,Prufungsqualitat Des Abschlussprufers: Einfluss Der Mandatsdauer Auf Die Bilanzpolitik Beim Mandanten,9783834924902,,,,ES,2011/7/18,Gabler Verlag,,false,1,13385501,0,0,0,0,2011/7/18,,,0,0,0,0,0,0.00,518,Paperback,,0,0,Daniela Wiemann,,,,,,,0,,
13387001,1860461778,Turlupin,9781860461774,,,,ES,,,,false,10,750920,162,340,90,12,1924/1/1,Turlupin,book,20,37,27,5,1,3.78,,,,0,0,Leo Perutz,,,,John Brownjohn,,41,6,,"fiction,historical,historical-fiction,literature"
13387501,0741411830,The Handy Kap Kids in the Missing Link Mystery,9780741411839,,,,ES,2002/9/24,Infinity Publishing.com,,false,1,13387501,1,0,0,0,2002/9/24,,book,0,0,0,0,0,0.00,213,Paperback,,0,0,Garent Tuttle,,,,,,,0,,
13388001,0741434946,Gun Rites,9780741434944,,,,ES,2006/10/20,Infinity Publishing,,false,1,13388001,1,0,0,0,2006/10/20,,book,0,0,0,0,0,0.00,267,Paperback,,0,0,Frank Mayer,,,,,,,0,,
13388501,0741461463,Memoirs of a Truck Driver's Wife,9780741461469,,,,ES,2010/10/1,Infinity Publishing (PA),,false,1,13388501,5,4,1,0,2010/10/1,,,0,1,0,0,0,4.00,128,Paperback,,1,0,Barbara Higgins,,,,,,3,0,,
13389001,0741467895,Daring Caution: The Executive's Guide to Pricing Improvement,9780741467898,,,,ES,,,,false,2,13389001,8,6,2,0,2011/1/1,,book,0,0,2,0,0,3.00,,,,0,0,Robert F. Sherlock,,,,,,5,0,,
13390001,1456517198,Times Magic Arrow,9781456517199,,,,ES,2011/1/2,Createspace Independent Publishing Platform,,false,1,13390001,3,0,0,0,,,,0,0,0,0,0,0.00,312,Paperback,,0,0,Anthony Dover,,,,,,3,0,,
13390501,1847621198,Human Biology: AS-Level: Exam Board: AQA: Complete Revision & Practice,9781847621191,,,,ES,2008/1/1,CGP,eng,false,1,13390501,3,3,1,0,2008/1/1,,book,0,0,1,0,0,3.00,96,Paperback,,1,0,Richard Parsons,,,,,,1,0,,
13393001,,Born to Die,,B006U0LLA2,,,ES,,,,true,2,535022,9,6,2,0,2007/1/1,Born to Die,,0,0,2,0,0,3.00,,,,2,0,Doug Stringer,,,,,,4,1,1,
13394001,,"Western Civilization, Volume B: 1300-1815",,B005GEXLU6,,,ES,2011/1/1,Wadsworth,eng,true,10,9908034,50,45,12,1,2014/1/1,,,4,4,1,3,0,3.75,368,Kindle Edition,8th Edition,1,0,Jackson J. Spielvogel,,,,,,20,4,2,"history,reference,school"
13395001,ISBN978597,RTFM. Книга про ИТ-аутсорсинг. Как создать сервисную ИТ-компанию,,,,,ES,,Поколение,rus,true,1,13395001,4,8,2,0,,,book,0,2,0,0,0,4.00,112,ebook,,2,0,Евгений Калинин,,,,,,1,0,,
13395501,1118209877,"Guidelines for Vapor Cloud Explosion, Pressure Vessel Burst, Bleve, and Flash Fire Hazards",9781118209875,,,,ES,2011/12/1,Wiley-Aiche,,true,4,16465830,4,4,1,0,2010/9/16,,,0,1,0,0,0,4.00,456,ebook,,0,0,Center for Chemical Process Safety,,,,,,1,0,1,
13397501,1863502785,Fat &Fibre Counter,9781863502788,,,,ES,,,,false,1,13397501,1,3,1,0,,,,0,0,1,0,0,3.00,,,,1,0,Rosemary Stanton,,,,,,,0,,
13400001,,Ramblings of a Tired Mind: Poems,9781466177154,,,,ES,2011/1/1,Annalise Grey,eng,true,3,13400024,37,58,15,2,2011/1/1,,book,5,4,5,1,0,3.87,,ebook,,3,0,Annalise Grey,,,,,,16,2,,"american,contemporary,poetry"
13400501,1231940344,"Luonnon Rajaamat Maantieteelliset Alueet: Ilmastovyohykkeet, Jarvet, Kannakset, Kasvillisuusvyohykkeet, Laaksot, Lahdet, Mantereet, Meret",9781231940341,,,,ES,2011/9/3,"Books LLC, Wiki Series",,false,1,13400501,0,0,0,0,2011/9/3,,,0,0,0,0,0,0.00,,Paperback,,0,0,Source Wikipedia,,,,,,,0,,
13402001,,"Justin (Tales of the Shareem, #6)",,,,,ES,2012/2/20,JA / AG Publishing,eng,true,4,13402001,1461,3085,765,43,2012/1/30,,book,278,293,150,29,15,4.03,,ebook,,562,36,Allyson James,,,,,,260,13,11,"adult,aliens,bdsm,erotica,fantasy,menage,paranormal,romance,science-fiction"
13402501,0230235875,Teaching Stylistics,9780230235878,,,,ES,2011/7/15,Palgrave Macmillan,,false,2,13111361,17,19,5,0,2011/7/15,,,2,1,1,1,0,3.80,296,Hardcover,,0,0,,,,"Dan McIntyre,Lesley Jeffries",,,11,0,,research
13403001,,كتاب الغرباء,,,,,ES,,دار الخلفاء للكتاب الإسلامي,ara,false,2,13403001,26,17,5,0,,,book,1,1,2,1,0,3.40,103,Paperback,1403-1983,5,0,الآجري,,,,,,19,0,1,
13403501,1449710751,Tras Las Huellas de Tu Paso,9781449710750,,,,ES,2011/2/21,WestBow Press,,false,1,13403501,0,0,0,0,2011/2/21,,,0,0,0,0,0,0.00,136,Paperback,,0,0,Frances Morales,,,,,,,0,,
13405501,,العلاج السلوكي للطفل,,,,,ES,,المجلس الوطني للثقافة والفنون والآداب,ara,false,1,13405501,422,220,58,8,1993/12/1,العلاج السلوكي للطفل,book,22,15,12,5,4,3.79,305,Paperback,عالم المعرفة #180,58,8,"رضوان إبراهيم,عبد الستار إبراهيم,عبد العزيز بن عبد الله الدخيل",,,,,,316,2,14,psychology
13406001,3261000597,Verkehrspsychologische Testverfahren Und Das Grundgesetz,9783261000590,,,,ES,1967/12/31,"Peter Lang Gmbh, Internationaler Verlag Der Wissenschaften",,false,1,13406001,0,0,0,0,,,,0,0,0,0,0,0.00,125,Paperback,,0,0,Norbert Westenberger,,,,,,,0,,
13407001,9600334803,Ένας τυχαίος εραστής,9789600334807,,,,ES,2003/1/1,Καστανιώτης,gre,false,43,96334,5314,10517,2950,376,2001/1/1,,book,559,1090,880,301,120,3.57,294,Paperback,,21,2,Nadine Gordimer,,,,Τόνια Κοβαλένκο,,1711,6,80,"adult,adult-fiction,classics,college,contemporary,cultural,fiction,literary-fiction,literature,love,novels,romance,school,travel,unfinished"
13409501,,Villebråd,9789113023175,,,,ES,2010/1/18,Norstedts,swe,false,35,1287516,3746,8014,1994,123,2007/8/7,Broken Angels,book,632,867,412,67,16,4.02,394,Hardcover,,4,0,Richard Montanari,,,,,,142,15,34,"contemporary,crime,detective,fiction,horror,mystery,mystery-thriller,suspense,thriller"
13410001,0716614278,Magnetism (Building blocks of science),9780716614272,,,,ES,2011/12/1,,,false,4,13410001,48,88,21,4,2011/12/1,,book,10,6,4,1,0,4.19,32,Hardcover,,20,4,Joseph Midthun,Samuel Hiti,,,,,16,2,,"comics,non-fiction,school,science"
13410501,,untitled manuscript - L.K.,,,,,ES,,,,false,1,13410501,1,3,1,0,,,book,0,0,1,0,0,3.00,194,Unbound,,1,0,L.K.,,,,,,,0,,biography
13411501,,The Corner Office: An Erotic Bi-Curious Sex Tale,,B005ME7NRM,,,ES,2011/9/9,,,true,1,13411501,5,4,1,0,2011/9/9,,book,0,1,0,0,0,4.00,49,Kindle Edition,,1,0,Emily Plum,,,,,,2,1,,
13412001,,Maus I: My Father Bleeds History,,,,,ES,1986/1/1,Pantheon Books,eng,false,41,40490167,348490,970426,223458,5611,1985/8/12,Maus: A Survivor's Tale: My Father Bleeds History,book,124526,64836,24158,6040,3898,4.34,160,Hardcover,,3,0,Art Spiegelman,,,,,,109210,453,1232,"adult,american,animals,art,autobiography,biography,biography-memoir,classics,college,comics,family,fiction,graphic-novels,graphic-novels-comics,high-school,historical,historical-fiction,history,literature,manga,memoir,non-fiction,politics,religion,school,survival,war,young-adult"
13412501,9788792121,Djævelens advokat,,,,,ES,2007/1/1,TV2 Forlag,dan,false,1,13412501,7,11,3,0,2007/1/1,,book,1,0,2,0,0,3.67,216,Hardcover,,3,0,Sanne Udsen,,,,,,1,0,,
13413001,8619010298,Veliki Burdin Kuvar,,,,,ES,1987/1/1,Nolit,srp,false,1,13413001,3,4,2,0,1987/1/1,,book,0,0,1,0,1,2.00,503,Hardcover,,2,0,Ljiljana Vranic,,,,,,2,0,,
13413501,,For 91 days in Buenos Aires,,B005Z1BW3S,,,ES,,www.for91days.com,en-GB,true,1,13413501,38,53,15,1,,,book,2,8,2,2,1,3.53,,Kindle Edition,,15,1,Michael   Powell,,,,,,19,1,,"contemporary,lgbt,reference,travel"
13414501,1583944893,Connection: Our Deepest Desire And Greatest Fear,9781583944899,,,,ES,2012/9/25,North Atlantic Books,,false,10,13573270,3000,2248,531,39,2012/1/1,,book,258,170,80,15,8,4.23,344,Paperback,,61,1,"Aline LaPierre,Laurence Heller",,,,,,2089,13,219,"health,mental-health,non-fiction,parenting,psychology,reference,research,self-help"
13415001,,5 Strong Bricks in the Wall,9780980568448,,,,ES,2012/1/9,Bent Banana Books,eng,true,1,13415001,0,0,0,0,2012/1/9,,book,0,0,0,0,0,0.00,203,ebook,1,0,0,Arts-Alliance Anthology,,,,,,,0,,
13415501,9780984723,"Boy Meets Girl, The End",9780984723034,,,,ES,2011/11/7,Zenahora,eng,false,2,13415501,253,177,62,16,2011/10/14,"Boy Meets Girl, The End",book,9,11,16,14,12,2.85,318,Paperback,,50,15,Gregory Tkac,,,,,,167,13,8,"adult,adult-fiction,drama,romance"
13416001,1908483415,The Wells,9781908483416,,,,ES,2012/12/7,Knox Robinson Publishing Ltd,eng,false,3,13416001,259,18,5,2,2012/12/7,,book,1,1,3,0,0,3.60,374,Hardcover,,5,2,Patrick Gooch,,,,,,246,0,1,"historical-fiction,mystery"
13416501,,Amigosa Calm,,,,,ES,2012/1/6,Damien Darby,eng,true,3,13416505,3,0,0,0,2012/1/6,Amigosa Calm,book,0,0,0,0,0,0.00,103,ebook,,0,0,Damien Darby,,,,,,2,1,,non-fiction
13417001,,Amazing Red Book of Anal Sex Stories,,B0068BPSWA,,,ES,2012/1/12,Amazon Digital Services ,eng,true,1,13417001,3,3,1,0,2012/1/12,,book,0,0,1,0,0,3.00,,Kindle Edition,,1,0,Tony Appice,,,,,,2,0,,
13417501,2980347663,"Faire un succès de sa vie,  pourquoi pas?",,,,,ES,1995/1/1,,fre,false,1,13417501,1,4,1,1,1995/1/1,,book,0,1,0,0,0,4.00,132,,,1,1,Marcel Gagnon,,,,,,,1,,
13418001,,Year One (fwriction : review),,,,,ES,2012/1/1,fwriction : review,eng,true,1,13418001,65,100,21,4,2012/1/1,,book,18,2,0,1,0,4.76,195,ebook,,21,4,"Abby Rotstein,Adam Sivits,Alison Barker,Angelle Scott,Ann Bogle,Anthony Luebbert,Ashley Stokes,Barry Basden,Brett Elizabeth Jenkins,Daniel Romo,David Kirby,Desmond Kon Zhicheng-Mingdé,Frank Hinton,Howard Good,Jack Allen,Jack Bootle,James Valvis,Jason Lee Norman,Jen Knox,Jen Violi,Jerry Ratch,Julie Innis,Karen Eileen Sikola,Kari Nguyen,Keith Birthday,Kelcy Wilburn,Len Kuntz,Marcus Speh,Matt Potter,Matthew Boyd,Meg Pokrass,Meg Tuite,Melanie Yarbrough,Mensah Demary,Myfanwy Collins,Neil Serven,Nicholas Mainieri,Nicollette Wong,Paul Lisicky,Robert Vaughan,Roxane Gay,Róbert Gál,S.H. Gall,Sam Rasnake,Sarah Flynn,Sarah Malone,Shelagh Power-Chopra,Stephen Hastings-King,Susan Tepper,Suzanne Marie Hopcroft",,,Danny  Goodman,,,39,0,1,short-stories
13418501,,Os Jardins de Edena (O Mundo de Edena),,,,,ES,1989/1/1,Meribérica/Liber,por,false,14,1612780,749,1675,399,13,1988/1/1,Le Monde d'Edena 2: Les Jardins d'Edena,book,173,143,73,9,1,4.20,56,Paperback,,6,1,Mœbius,,,,,,251,8,4,"adventure,art,comics,fantasy,fiction,france,graphic-novels,religion,romance,science-fiction,speculative-fiction"
13419001,0748120300,"Hearts in Darkness (Nikki & Michael, #2)",9780748120307,,,,ES,2010/1/1,Hachette UK,eng,true,11,12189,4027,7541,1893,133,2000/12/31,,book,608,753,436,85,11,3.98,288,ebook,,5,0,Keri Arthur,,,,,,1456,19,37,"adult,contemporary,fantasy,magic,mystery,paranormal,romance,supernatural,urban-fantasy,vampires,witches"
13419501,,زمستان ۶۶,9789642436064,,,,ES,2011/1/1,نشر افراز,per,false,4,13419501,145,205,73,6,1998/1/1,زمستان ۶۶,book,3,11,34,19,6,2.81,152,Paperback,,68,5,محمد یعقوبی,,,,,,49,0,2,"plays,unfinished"
13420001,1459223640,More Than One Night (Harlequin Superromance),9781459223646,,,,ES,2012/3/1,Harlequin,eng,true,13,13131875,1956,3185,858,87,2012/1/1,More Than One Night,book,186,344,246,59,23,3.71,288,ebook,,19,6,Sarah Mayberry,,,,,,966,23,3,"adult,adult-fiction,amazon,chick-lit,contemporary,erotica,fiction,funny,harlequin,romance"
13420501,,La Catedral,,,,,ES,,,spa,true,92,18832453,127,218,59,1,1903/1/1,La Catedral,book,12,26,15,3,3,3.69,,Kindle Edition,,0,0,Vicente Blasco Ibáñez,,,,,,50,1,8,"classics,historical-fiction"
13421001,8621004070,Ježeva kuća i druge bajke,,,,,ES,1990/1/1,Veselin Masleša,scr,false,1,13421001,59,157,34,1,1990/1/1,Ježeva kuća,book,25,5,4,0,0,4.62,59,Hardcover,Lastavica lektira,34,1,Branko Ćopić,Ranko Perišić,,,,,11,0,,"childrens,classics,fairy-tales"
13421501,,SCHWULE SADISTEN - Die SA und die Hetzjagd auf Ernst Röhm,,B006W0OB7A,,,ES,,,ger,true,1,13421501,1,2,1,1,2012/1/10,,book,0,0,0,1,0,2.00,,Kindle Edition,,1,1,Martin Compart,,,,,,,1,,
13422001,,Flört Oyunu,,,,,ES,2004/1/1,,tur,false,56,864806,8026,15233,4110,186,1999/1/1,Dating Game,book,1171,1191,1229,408,111,3.71,389,,,1,0,Danielle Steel,,,,,,1880,27,102,"adult,adult-fiction,chick-lit,contemporary,drama,family,fiction,love-story,novels,relationships,romance"
13422501,,Ο χορός,9789606627590,,,,ES,2007/1/1,Ηλέκτρα,gre,false,1,13422501,0,0,0,0,2007/1/1,La danse,book,0,0,0,0,0,0.00,37,Hardcover,,0,0,,,,,,,,0,,
13423501,,Komarr,9788466602983,,,,ES,2001/5/1,"Ediciones B., S.A.",spa,false,24,61884,16796,54805,12749,478,1998/1/1,Komarr,book,5709,5294,1609,120,17,4.30,352,Paperback,,22,4,Lois McMaster Bujold,,,,,,1727,94,134,"adult-fiction,adventure,crime,fantasy,fiction,humor,mystery,novels,romance,science,science-fiction,science-fiction-fantasy,speculative-fiction,suspense"
13424001,,My Mother's Dress (Back to the Land),,B005AQ3XA8,,,ES,2011/7/1,,eng,true,1,13424001,3,10,2,0,2011/7/1,,book,2,0,0,0,0,5.00,,Kindle Edition,,2,0,Laurie Elmquist,,,,,,1,0,,
13424501,,"Fullmetal Alchemist, Vol. 22 (Fullmetal Alchemist, #22)",9789812769947,,,,ES,2009/11/1,Chuang Yi Publishing,eng,false,20,6956554,9566,32844,7082,84,2009/1/1,鋼の錬金術師 22,book,5094,1494,432,40,22,4.64,184,Paperback,,2,1,Hiromu Arakawa,,,,,,1174,77,22,"action,adventure,comedy,comics,fantasy,fiction,graphic-novels,magic,manga,novels,science-fiction,steampunk,supernatural,teen,young-adult"
13425001,1612001017,When Washington Burned: An Illustrated History of the War of 1812,9781612001012,,,,ES,2012/7/19,Casemate,eng,false,2,13425001,14,26,6,2,2012/4/19,,book,3,2,1,0,0,4.33,288,Hardcover,,6,2,Arnold Blumberg,,,,,,5,1,1,
13425501,006213180X,Mornings Like This: Found Poems,9780062131805,,,,ES,2011/11/22,Harper Perennial,,true,5,158744,778,1323,364,37,1995/1/1,Mornings Like This: Found Poems,book,77,133,108,36,10,3.63,96,ebook,,0,0,Annie Dillard,,,,,,309,12,8,"classics,fiction,humor,literature,nature,non-fiction,poetry"
13426001,0061284904,"Our Kind of People: A Continent's Challenge, A Country's Hope",9780061284908,,,,ES,2012/7/10,Harper,,false,7,13426001,724,569,156,22,2012/5/1,,book,30,56,58,9,3,3.65,240,Hardcover,,139,21,Uzodinma Iweala,,,,,,505,14,8,"cultural,education,family,fiction,health,history,love,medical,mystery,nature,non-fiction,politics,science,society,sociology,travel"
13426501,4805308915,Periplus Pocket Japanese Dictionary: Japanese-English English-Japanese Second Edition,9784805308912,,,,ES,,Tuttle Publishing,,false,3,11945390,10,15,4,0,,,,1,1,2,0,0,3.75,128,Paperback,,0,0,,,,Periplus Editors,,,4,0,1,
13427501,9703702430,Germenes/ Germs,9789703702435,,,,ES,2005/11/1,Planeta Publishing,,false,4,1942995,131,277,73,13,2004/10/20,Germs,,23,21,20,9,0,3.79,,Hardcover,,2,0,Ross Collins,,,,,,31,10,1,"childrens,fiction,funny,humor,picture-books,science"
13428001,,Các tôn giáo trên thế giới,8935073076633,,,,ES,2011/4/1,NXB Thời Đại,vie,false,33,532686,708,970,264,16,1979/1/1,Religions of the World,book,61,95,77,23,8,3.67,600,Paperback,,1,0,"Lewis M. Hopfe,Mark R. Woodward",,,,Phạm Văn Liễn,,238,12,24,"academic,adult,christian,christianity,class,college,education,history,non-fiction,philosophy,reference,religion,research,school,sociology,spirituality,textbooks,theology"
13428501,1609811348,"Midnight Rescue, The Proposal, Christy's Choice",9781609811341,,,,ES,2010/9/1,Oasis Audio,,false,5,508121,45,48,12,2,2005/8/1,Midnight Rescue/The Proposal/Christy's Choice (The Christy Juvenile Series),book,2,8,2,0,0,4.00,,Audio CD,,1,0,Catherine Marshall,,,,,Jaimee Draper,24,4,,"christian,classics,fiction,historical-fiction"
13429001,,Dikter,,,,,ES,1945/1/1,Norstedts,swe,false,2,13429001,11,29,7,0,1945/1/1,,book,3,2,2,0,0,4.14,89,Paperback,Tredje upplagan,6,0,Gabriela Mistral,,,,,,4,1,,poetry
13429501,0340857951,Sales Team Management in a Week,9780340857953,,,,ES,2002/11/1,Hodder & Stoughton,,false,1,13429501,1,0,0,0,2002/11/1,,,0,0,0,0,0,0.00,96,Paperback,,0,0,Andrea Newton,,,,,,1,0,,
13430001,1847735746,Japanese in Your Pocket,9781847735744,,,,ES,2009/9/1,Globetrotter,,false,2,13202764,0,0,0,0,2009/6/16,,,0,0,0,0,0,0.00,192,Paperback,,0,0,,,,,,,,0,,
13430501,1859742483,Namibia Travel Pack,9781859742488,,,,ES,2000/8/1,Globetrotter,,false,1,13430501,0,0,0,0,2000/8/1,,,0,0,0,0,0,0.00,128,Paperback,,0,0,Bruce Elder,,,,,,,0,,
13431501,0299287440,"Hooligans in Khrushchev's Russia: Defining, Policing, and Producing Deviance during the Thaw",9780299287443,,,,ES,2012/12/10,University of Wisconsin Press,,false,4,14863188,9,11,3,0,2012/6/1,,,1,0,2,0,0,3.67,290,Paperback,,2,0,Brian LaPierre,,,,,,4,0,1,history
13432001,,Certified Programming with Dependent Types,,,,,ES,2016/6/30,,eng,true,3,18148428,167,94,23,3,2010/2/3,,book,7,12,3,1,0,4.09,369,ebook,,3,0,Adam Chlipala,,,,,,114,9,16,"non-fiction,science,textbooks,unfinished"
13432501,,V melónovom cukre,9788089445363,,,,ES,2011/12/7,Artforum,slo,false,46,46182,22539,44871,11162,774,1968/1/1,In Watermelon Sugar,book,4375,3782,2120,623,262,4.02,216,Hardcover,,41,7,Richard Brautigan,Daniela Olejníková,,,Daniel Hevier,,3413,158,44,"adult,adult-fiction,american,classics,contemporary,dystopia,fantasy,fiction,literary-fiction,literature,magical-realism,novella,novels,poetry,science-fiction,short-stories,unfinished"
13433001,,Claude Lorrain and the Ideal Landscape,,,,,ES,1998/1/1,"National Museum of Western Art, Tokyo",eng,false,1,13433001,1,0,0,0,1998/1/1,,book,0,0,0,0,0,0.00,223,Paperback,,0,0,,,,,,,,0,,
13433501,094118854X,Film and Video on the Internet: The Top 500 Sites,9780941188548,,,,ES,1996/1/25,Michael Wiese Productions,,false,1,13433501,0,0,0,0,1996/1/25,,,0,0,0,0,0,0.00,264,Paperback,,0,0,"Bert Deivert,Dan Harries,Michael Wiese",,,,,,,0,,
13434001,,The Day of the Beast,,,,,ES,1958/1/1,"Walter J. Black, Inc",eng,false,124,6522280,323,408,117,7,1922/1/1,The Day of the Beast,book,30,30,32,17,8,3.49,351,Hardcover,Golden West Deluxe Edition,0,0,Zane Grey,,,,,,116,6,55,"fiction,historical-fiction,novels"
13434501,1550024191,Guardians on Trial,9781550024197,,,,ES,2003/2/1,Dundurn,,false,4,16202305,0,0,0,0,2003/2/1,,,0,0,0,0,0,0.00,376,Paperback,,0,0,,,,Anthony Hall,,,,0,,
13435001,1563110016,"Randolph County, IN  1818-1990",9781563110016,,,,ES,1990/12/29,Turner,,false,1,13435001,0,0,0,0,1990/12/29,,book,0,0,0,0,0,0.00,,Hardcover,,0,0,,,,,,,,0,,
13435501,8492635665,El Enigma de los Circulos de las Cosechas,9788492635665,,,,ES,2011/12/13,EDC Corona Borealis SL,,false,3,17053519,11,17,4,0,2011/12/13,,,1,3,0,0,0,4.25,308,Paperback,,3,0,Vicente Fuentes,,,,,,6,0,1,non-fiction
13436001,8497636627,Breve Historia de los Indios Norteamericanos,9788497636629,,,,ES,2009/1/11,Nowtilus,,false,3,8450364,12,15,4,0,2009/1/1,,,1,2,0,1,0,3.75,352,Paperback,,1,0,Gregorio Doval,,,,,,5,0,3,non-fiction
13436501,1847513778,With My Little Eye,9781847513779,,,,ES,2012/7/1,Severn House Publishers,,false,6,12633023,31,40,15,6,2011/10/1,,,0,2,7,5,1,2.67,176,Paperback,,0,0,Gerald Hammond,,,,,,9,2,1,"crime,mystery"
13439001,,Destiny - A Journey of Discovery and Awakening,,B0013FDX3M,,,ES,,,,true,1,13439001,2,0,0,0,,,,0,0,0,0,0,0.00,,,,0,0,Robert C. Gallagher,,,,,,2,0,,
13439501,,Dynamic Components of Personal Power (N/A),,B00111YAQC,,,ES,,,,true,2,6954292,5,10,3,0,2007/1/1,,,0,2,0,1,0,3.33,,,,0,0,Jim Bouchard,,,,,,2,0,,
13440001,,a river of thoughts,,B001B40SJ2,,,ES,,Truxton S LaFrance,,true,1,13440001,0,0,0,0,,,,0,0,0,0,0,0.00,,ebook,,0,0,Crystal A Wright,,,,,,,0,,
13440501,,Diabetes Natural Cures:The Diabetes Controversy,,B0017K6T52,,,ES,,ERIC GACHOYA,,true,1,13440501,0,0,0,0,,,,0,0,0,0,0,0.00,,ebook,,0,0,"GACHOYA, ERIC",,,,,,,0,,
13441001,,Sermon + Bible Study Notes: The Christian and the Sabbath (What's Up with the Sabbath?),,B0013WJ61S,,,ES,,,,true,1,13441001,0,0,0,0,2008/2/6,,,0,0,0,0,0,0.00,,,,0,0,Brian W. Evans,,,,,,,0,,
13441501,,Finding the Time For Your Life,,B0011FX16S,,,ES,,Tamara Wilhite,,true,1,13441501,0,0,0,0,,,,0,0,0,0,0,0.00,,ebook,,0,0,Tamara Wilhite,,,,,,,0,,
13442001,,German Extermination Camps Photograph Archives,,B001B2J8VS,,,ES,,,,true,1,13442001,0,0,0,0,,,,0,0,0,0,0,0.00,,ebook,,0,0,Various,,,,,,,0,,
13442501,,Thought by Thought on Death Row,,B00185EDJU,,,ES,,,,true,1,13442501,1,1,1,0,2008/4/19,,,0,0,0,0,1,1.00,,,,1,0,Jane F. Gilgun,,,,,,,0,,
13443001,,Binnur's Turkish Cookbook: Soup & Salad Recipes,,B0013QUFEG,,,ES,,,,true,1,13443001,0,0,0,0,2008/2/9,,,0,0,0,0,0,0.00,,,,0,0,Binnur Tomay,,,,,,,0,,
13443501,,Prayer to St. John Bosco,,B001CG8YHW,,,ES,,,,true,1,13443501,1,0,0,0,,,,0,0,0,0,0,0.00,,ebook,,0,0,Various,,,,,,1,0,,
13444001,,Beauty Buzzy the Queen Bee,,B001PBEXLK,,,ES,,createspace,,true,1,13444001,0,0,0,0,,,,0,0,0,0,0,0.00,,ebook,,0,0,Lucy Cope,,,,,,,0,,
13444501,,Point and Pillow Lace,,B001M0NV3K,,,ES,,,,true,19,5752206,1,0,0,0,2007/3/1,Point And Pillow Lace,,0,0,0,0,0,0.00,,ebook,,0,0,Mary Sharp,,,,,,,0,,
13445001,3551792410,"Daisuki 06/2010 (Daisuki, #101)",9783551792419,,,,ES,2011/5/27,Carlsen Verlag,ger,false,2,13445001,8,17,4,0,2010/5/28,,book,1,3,0,0,0,4.25,256,Paperback,,4,0,Unknown,,,,,,,2,,manga
13445501,,Thanatos - anđeo heroja,,,,,ES,2002/1/1,Naklada Bošković,,false,1,13445501,2,7,2,0,2002/1/1,,book,0,1,1,0,0,3.50,539,Hardcover,,2,0,Mate Kuvačić - Ižepa,,,,,,,0,,
13446001,,Falling From Grace- From the writers desk,,B00166F57K,,,ES,,Creative Intuition Publishing,,true,1,13446001,2,5,1,0,,,,1,0,0,0,0,5.00,,ebook,,1,0,Ltd,,,,,,1,0,,
13446501,,Aspects du français,,,,,ES,1963/1/1,Masson & Cie,fre,false,1,13446501,3,0,0,0,1963/1/1,,book,0,0,0,0,0,0.00,214,Hardcover,,0,0,Jules Marouzeau,,,,,,2,0,,
13447001,,Murder on a Tangent,,,,,ES,1945/1/1,"Doubleday, Doran & Company",eng,false,1,13447001,8,12,3,1,1945/1/1,,book,1,1,1,0,0,4.00,208,Hardcover,,3,1,Doris Miles Disney,,,,,,5,0,,
13447501,,White Valentine...รักแรกของหัวใจ,9786160603565,,,,ES,2006/2/19,แจ่มใส,tha,false,2,13447501,90,100,24,1,2006/2/19,,book,11,7,5,1,0,4.17,217,,,22,1,เจ้าปลาน้อย,,,,,,51,0,1,"contemporary,romance,young-adult"
13448001,0948397985,Max Oldaker: Last of the matinee idols,9780948397981,,,,ES,1988/1/1,O'Mara,eng,false,1,13448001,4,4,1,1,1988/1/1,,book,0,1,0,0,0,4.00,256,Hardcover,,1,1,Charles Osborne,,,,,,2,0,,
13448501,8808121038,Grammatica araba Manuale di arabo moderno con esercizi e cd audio per l'ascolto. Vol. 2,9788808121035,,,,ES,2011/1/1,Zanichelli,ita,false,3,13448501,11,15,4,0,2004/1/1,,book,1,2,0,1,0,3.75,384,,,3,0,Luc-Willy Deheuvels,,,,,,4,0,,
13449001,,Forerunner (Mercenary Man) ,9781771111720,,,,ES,2012/1/1,eXtasy Books,eng,true,2,13449001,60,28,6,4,2012/4/15,,book,4,2,0,0,0,4.67,100,ebook,First,6,4,Mark Alders,,,,,,37,11,1,novella
13449501,,Treasures from the Orient: A homecoming for Art Works displayed in Vienna and Leiden,,,,,ES,,Miho Museum,jpn,false,1,13449501,1,0,0,0,,,book,0,0,0,0,0,0.00,64,Paperback,Japanese - English version,0,0,MIHO MUSEUM,,,,,,,0,,art
13450001,2864240394,Le vampire de Curitiba,9782864240396,,,,ES,1998/7/10,Métailié,fre,false,11,6491074,334,544,164,12,,,book,26,45,59,23,11,3.32,160,Hardcover,,1,0,Dalton Trevisan,,,,"Geneviève Leibrich,Nicole Biros",,129,3,1,"classics,fiction,literature,short-stories,vampires"
13450501,2742797874,"La fille qui rêvait d'un bidon d'essence et d'une allumette (Millénium, #2)",9782742797875,,,,ES,2012/1/1,Babel,fre,false,246,5060378,997927,3121097,737139,32827,2006/5/9,Flickan som lekte med elden,book,324718,288603,100893,17491,5434,4.23,792,Mass Market Paperback,Babel Noir,157,11,Stieg Larsson,,,,,,158094,1166,10281,"action,adult,adult-fiction,adventure,contemporary,crime,detective,drama,fiction,literature,murder-mystery,mystery,mystery-thriller,novels,suspense,thriller"
13451001,,The Paintings Of L. S. Lowry: Oils And Watercolours,,,,,ES,1975/1/1,Jupiter Books,,false,1,13451001,6,19,4,0,1975/1/1,,book,3,1,0,0,0,4.75,,,,4,0,,,,,,,1,0,,non-fiction
13451501,8574482048,O Mestre de Go,9788574482040,,,,ES,2011/11/1,Estação Liberdade,por,false,42,13752,7741,12726,3300,276,1954/1/1,名人 Meijin,book,889,1317,865,189,40,3.86,217,Paperback,,15,1,Yasunari Kawabata,,,,Meiko Shimon,,3644,17,105,"classics,cultural,fiction,historical,historical-fiction,history,literary-fiction,literature,memoir,non-fiction,novels,philosophy,sports"
13452001,,Cuentos Completos V,,,,,ES,2008/11/1,Minotauro,spa,false,16,22585,2611,5644,1330,56,1987/1/1,The Collected Stories of Philip K. Dick 5: The Eye of The Sibyl,book,581,527,188,33,1,4.24,446,Paperback,,7,1,Philip K. Dick,,,,,,947,10,41,"american,anthologies,collections,detective,english-literature,fantasy,fiction,literature,science,science-fiction,science-fiction-fantasy,short-stories,speculative-fiction"
13452501,,Tex n. 237: Contro tutti,,,,,ES,1980/7/1,Daim Press,ita,false,1,13452501,4,9,2,0,1980/7/1,Tex n. 237: Contro tutti,periodical,1,1,0,0,0,4.50,114,Mass Market Paperback,First,2,0,Guido Nolitta,Erio Nicolò,,,,,1,0,,
13453001,,O Diabo que Resolva,,,,,ES,1949/1/1,Livros do Brasil,por,false,23,2082281,453,754,218,25,1937/1/1,The Devil to Play,book,38,59,91,25,5,3.46,,Paperback,Colecção Vampiro #21,4,0,Ellery Queen,,,,Cecília Whately,,147,13,10,"adult,adult-fiction,crime,detective,fiction,mystery"
13453501,095330194X,The Bad Consequences Of The Tongue,9780953301942,,,,ES,2002/10/1,Jam'iat Ihyaa' Minhaaj al-Sunnah,eng,false,1,13453501,1,0,0,0,2002/10/1,,book,0,0,0,0,0,0.00,38,Paperback,Third Reprint,0,0,Sheikh Ahmad Zamzami,,,,,,1,0,,
13454001,,Os Espólios de Poynton,9788535912128,,,,ES,2008/1/1,Companhia das Letras,por,false,105,193772,2123,4133,1121,97,1896/1/1,The Spoils of Poynton,book,272,401,307,107,34,3.69,224,Paperback,,9,0,Henry James,,,,Onédia Pereira de Queiroz,,712,12,25,"american,british-literature,canon,classic-literature,classics,english-literature,fiction,literary-fiction,literature,novels,relationships,romance,victorian"
13454501,,As Pupilas do Senhor Reitor,9725681452350,,,,ES,1995/1/1,Editorial Ulisseia,por,false,126,2259479,2342,4905,1339,48,1867/1/1,As Pupilas do Senhor Reitor,book,253,537,417,109,23,3.66,353,Paperback,,2,0,Júlio Dinis,,,,,,689,16,17,"classics,fiction,literature,novels,romance"
13455001,,Birthright: Battle for the Confederation- Reprisal (#2),,B006P10MQU,,,ES,2011/12/21,Silver Impala Press,en-GB,true,1,13455001,14,49,13,0,2011/12/21,,book,2,6,5,0,0,3.77,,Kindle Edition,,13,0,Ryan Krauter,,,,,,1,0,,
13455501,,Awake (A Fairytale Trilogy #1),2940014117661,,,,ES,2012/2/5,Tall House Books,eng,true,4,13596803,3554,3106,850,106,2012/2/4,,book,207,281,247,91,24,3.65,,,,173,47,Jessica  Grey,,,,,,2452,28,34,"adventure,chick-lit,contemporary,fairy-tales,fantasy,fiction,humor,magic,mystery,paranormal,retellings,romance,supernatural,teen,urban-fantasy,young-adult"
13456001,,Karma - kas müüt või tegelikkus?,9789949183715,,,,ES,2009/1/1,Pilk,est,false,2,13455996,2,3,1,0,2007/1/1,,book,0,0,1,0,0,3.00,320,Paperback,,0,0,Naumi,,,,,,,0,1,
13456501,0521132770,Social Science Methodology: A Unified Framework,9780521132770,,,,ES,2012/1/1,Cambridge,eng,false,4,13456501,68,93,26,3,2011/12/15,Social Science Methodology: A Unified Framework,book,4,13,4,4,1,3.58,495,Paperback,Second Edition,26,3,John Gerring,,,,,,25,1,6,"grad-school,non-fiction,research"
13457001,,Norrington Abbey,,,,,ES,2012/2/8,Siren Publishing,eng,true,2,13457001,21,17,5,0,2012/2/8,,book,1,0,4,0,0,3.40,,ebook,,4,0,Josie Dennis,,,,,,12,-1,,"adult,fiction,historical,menage,romance"
13458001,,فصلنامه حکومت اسلامی / شماره 26 ,,,,,ES,,مجلس خبرگان رهبری,,false,1,13458001,1,2,1,0,,,book,0,0,0,1,0,2.00,,,,1,0,,,,,,,,0,,
13459001,8605004215,Asmodejev šal,,,,,ES,1990/1/1,"Mladost, Zagreb - Svjetlost, Sarajevo",scr,false,4,3367232,45,89,23,0,1988/1/1,Asmodejev šal,book,7,7,8,1,0,3.87,280,Hardcover,Biblioteka Izabrana djela: Ivan Aralica 8,2,0,Ivan Aralica,,,,,,13,1,,drama
13459501,,De dood van Dantes keizer,9789054293149,,,,ES,2011/5/1,Uitgeverij Conserve,nl,false,2,13459501,19,22,8,1,2011/5/1,,book,0,1,4,3,0,2.75,192,Paperback,,8,1,Renée Vink,,,,,,12,1,,
13465001,885662236X,"Un giorno solo, tutta la vita",9788856622362,,,,ES,2012/1/1,Piemme,ita,false,50,11010251,96759,175357,41690,4386,2011/9/6,The Lost Wife,book,17288,17330,5813,899,360,4.21,350,Hardcover,,106,17,Alyson Richman,,,,Isabella Zani,,50621,219,744,"adult,adult-fiction,chick-lit,drama,family,fiction,historical,historical-fiction,history,literary-fiction,love,love-story,novels,relationships,romance,survival,war"
13477501,,"Babysitter Gang Bang (Babysitter Gang Bang, #1)",,,,,ES,,,,true,2,13477501,48,51,14,0,2011/11/5,,book,7,0,3,3,1,3.64,,Kindle Edition,,14,0,Jade K. Scott,,,,,,29,0,1,fiction
13479501,,Lilly Aphrodite'in Fırtınalı Hayatı ,9789944821957,,,,ES,2009/10/1,Epsilon Yayınevi,tur,false,28,2774709,4365,6336,1709,256,2008/7/24,The Glimmer Palace,book,369,692,471,133,44,3.71,400,Paperback,,7,1,Beatrice Colin,,,,Pınar Turanlı,,2340,22,27,"adult,adult-fiction,contemporary,drama,fiction,film,historical,historical-fiction,history,literature,novels,politics,romance,unfinished,war"
13480001,1469906724,Shadows in the Brook,9781469906720,,,,ES,2012/1/17,CreateSpace,eng,false,3,13416970,14,2,1,1,2009/2/1,Shadows in the Brook,book,0,0,0,1,0,2.00,110,Paperback,,0,0,Cheryl Landmark,,,,,,12,0,,
13480501,,Teenage Werewolf Gangbang,,,,,ES,,,eng,true,2,13480501,4,3,1,0,2012/2/9,,book,0,0,1,0,0,3.00,19,ebook,,1,0,Aurora Dupree,,,,,,3,0,,
13481001,8804513276,Racconti dello Yukon e dei mari del sud,9788804513278,,,,ES,2003/2/1,Mondadori,ita,false,4,1351329,89,117,31,2,1912/1/1,,book,4,16,11,0,0,3.77,776,Paperback,Oscar Classici 584 (2 volumi),11,1,Jack London,,,,,,35,2,2,"adventure,american,classics,fiction,novels,short-stories"
13481501,,Once a Ferrara Wife... (Ferrara #1),,B006IIXBZ4,,,ES,2012/2/1,Harlequin,eng,true,37,12769561,3475,6681,1757,186,,Once a Ferrara Wife...,book,507,601,485,123,41,3.80,191,Kindle Edition,Harlequin Presents #3043,37,3,Sarah Morgan,,,,,,1241,17,84,"adult,adult-fiction,contemporary,family,fiction,harlequin,love,romance"
13482001,9780615144,Stop The Thyroid Madness ,,,,,ES,2008/1/1,Laughing Grape Publishing,,false,6,3588296,1111,1918,470,48,2008/1/1,Stop the Thyroid Madness: A Patient Revolution Against Decades of Inferior Treatment,book,195,153,93,23,6,4.08,293,Paperback,,0,0,Janie A. Bowthorpe,,,,,,474,11,41,"adult,amazon,health,medical,non-fiction,reference,self-help"
13482501,,The Last Rhinemaiden,9781465778314,,,,ES,2012/1/15,,eng,true,2,21127951,3,3,1,1,2012/1/15,,book,0,0,1,0,0,3.00,285,ebook,SmashWords Edition,1,1,Lee McAulay,,,,,,1,0,,
13483001,,"Mai rău decât moartea (Vampirii sudului, #8)",9789731024042,,,,ES,2011/1/1,Leda,rum,false,74,2233407,230000,673351,167745,3628,2008/5/1,From Dead to Worse,book,56742,64750,39122,6144,987,4.01,384,Mass Market Paperback,Editie Chiosc,53,3,Charlaine Harris,,,,Ana-Maria Nica,,23524,644,704,"adult,adult-fiction,chick-lit,contemporary,fantasy,fiction,horror,humor,magic,mystery,mystery-thriller,novels,paranormal,romance,science-fiction,shapeshifters,supernatural,suspense,urban-fantasy,vampires,werewolves,witches,young-adult"
13483501,,العلم والتكنولوجيا وحقوق الإنسان,,,,,ES,2004/1/1,دار الكتاب المصري,ara,false,1,13483501,55,3,1,0,2004/1/1,"Science, Technology and Human Rights",book,0,0,1,0,0,3.00,185,Hardcover,الأولى,1,0,"Mahathir Mohamad,مهاتير محمد",,,,,,53,1,,non-fiction
13484001,,Pacatul impotriva spiritului,,,,,ES,,Polirom,rum,false,4,7352780,56,95,25,1,1999/1/1,,book,8,7,7,3,0,3.80,,,,2,0,Ioan Petru Culianu,,,,,,26,1,1,politics
13484501,8807806800,Gatto e topo,9788807806803,,,,ES,2009/1/1,Feltrinelli,ita,false,106,46285,9681,16687,4703,238,1961/1/1,Katz und Maus,book,852,1691,1519,465,176,3.55,176,Paperback,Universale Economica,42,2,Günter Grass,,,,Enrico Filippini,,3749,118,78,"adult-fiction,classics,european-literature,fiction,historical,historical-fiction,history,literary-fiction,literature,novella,novels,school,war"
13485001,8817055077,Il disagio della libertà,9788817055079,,,,ES,2012/2/1,Rizzoli,ita,false,6,13485001,149,286,72,12,2012/2/1,Il disagio della libertà,book,19,34,17,2,0,3.97,176,Hardcover,Saggi,63,12,Corrado Augias,,,,,,43,3,4,"non-fiction,politics,sociology"
13485501,9780979635,Scratch - with Audio Theater and Links,9780979635243,,,,ES,2012/2/10,DesktopEpics Entertainment,eng,true,1,13485501,7,13,3,0,2012/2/10,,book,2,0,1,0,0,4.33,,ebook,,3,0,,,,,,,3,0,,
13486001,9023010469,Het grote mandala kleur- en werkboek,9789023010463,,,,ES,2000/1/1,Altamira-Becht,nl,false,8,1539522,28,47,11,0,1999/1/1,Arbeitsbuch zur Mandala-Therapie,book,6,3,1,1,0,4.27,238,Paperback,,1,0,Ruediger Dahlke,,,,,,10,0,1,"non-fiction,reference"
13486501,,In stitches,,,,,ES,,Gallery,,false,1,13486501,3,5,1,1,,,book,1,0,0,0,0,5.00,,,,1,1,Alan Eisenstock,,,,,,2,0,,
13487001,,"Under the Influence (Kate Shugak, #13.5)",,,,,ES,2011/12/1,Gere Donovan Press ,eng,true,1,13487001,297,278,76,6,2011/12/1,Under the Influence,book,26,17,19,9,5,3.66,,ebook,,76,6,Dana Stabenow,,,,,,188,6,,"contemporary,fiction,mystery,mystery-thriller,short-stories"
13487501,,"Aftermath (Inspector Banks, #12)",,,,,ES,2002/1/1,Macmillan,,false,59,377916,9870,24689,6006,276,2001/10/2,Aftermath,book,2136,2643,1035,140,52,4.11,437,Hardcover,First in Great Britain,0,0,Peter Robinson,,,,,,2200,36,341,"adult,adult-fiction,contemporary,crime,detective,fiction,murder-mystery,mystery,mystery-thriller,suspense,thriller"
13488001,9722906291,Amor sem tempo,,,,,ES,2002/10/1,Difel,por,false,13,468636,720,1262,351,33,1995/1/1,So I Am Glad,book,80,119,99,36,17,3.60,278,Paperback,Large print,1,1,A.L. Kennedy,,,,,,269,9,8,"contemporary,fantasy,fiction,literary-fiction,literature,philosophy,science-fiction"
13488501,,Journey to the Center of the Earth,,,,,ES,2007/1/1,"Sterling Publishing Co., Inc.",eng,false,1748,32829,220486,495605,128632,4262,1864/11/25,Voyage au centre de la Terre,book,35422,48964,35571,7251,1424,3.85,239,Hardcover,,1,0,Jules Verne,Scott McKowen,,,,,59696,326,5426,"adult,adult-fiction,adventure,childrens,classic-literature,classics,fantasy,fiction,france,historical,historical-fiction,literature,novels,school,science,science-fiction,science-fiction-fantasy,speculative-fiction,steampunk,travel,victorian,young-adult"
13489001,,Batman: #03 (Batman: Las primeras 100 historietas #3 de 16),9189870717133,,,,ES,2012/2/16,Clarín (DC Comics),spa,false,1,13489001,17,28,8,1,,,book,2,2,2,2,0,3.50,114,Paperback,Batman: 100 primeras historietas,8,1,Bob Kane,,,,Alejo García Valdearena,,7,0,1,comics
13489501,,Irritable,,,,,ES,2010/12/30,Blushing Books,eng,true,3,13489501,20,31,11,2,2009/9/8,,book,3,1,2,1,4,2.82,42,ebook,,6,2,Joanne Locker,,,,,,7,1,,"adult-fiction,erotica"
13490001,,Diamante in umbra,,,,,ES,1975/1/1,Editura Facla,rum,false,1,13490001,5,9,4,1,1975/1/1,Diamante in umbra,book,0,0,2,1,1,2.25,130,Softcover,,4,1,Lucian Penescu,,,,,,1,0,,
13490501,9020679058,"Smaragdgroen (Eindeloos verliefd, #3)",9789020679052,,,,ES,2012/2/13,Blossom Books,nl,false,74,7544603,87947,235960,56220,5021,2010/12/8,Smaragdgrün,book,25290,19494,9087,1924,425,4.20,480,Hardcover,,777,72,Kerstin Gier,,,,Merel Leene,,18838,858,555,"adventure,contemporary,fantasy,fiction,funny,ghosts,historical,historical-fiction,humor,love,magic,mystery,paranormal,romance,science-fiction,supernatural,teen,time-travel,urban-fantasy,young-adult"
13491001,,Neonatology Review,9780557221608,,,,ES,2011/12/14,,eng,false,2,1027739,79,81,18,4,2003/2/28,Neonatology Review,,11,6,0,1,0,4.50,548,Paperback,2nd edition,2,0,"Camilia Martin,Dara Brodsky",,,,,,50,0,4,reference
13491501,9780764333,Miriam Haskell Jewelry,,,,,ES,2010/3/28,Schiffer Publishing,eng,false,1,13491501,1,5,1,1,2010/3/28,,book,1,0,0,0,0,5.00,256,Hardcover,2,1,1,Sheila Pamfiloff,,,,,,,0,,
13492001,,Der kleine Igel,,,,,ES,1959/1/1,Herder & Co,ger,false,1,13492001,4,8,2,1,1959/1/1,Der kleine Igel,book,1,0,1,0,0,4.00,,Hardcover,,2,1,Gina Ruck-Pauquèt,Marianne Richter,,,,,2,0,,
13492501,,love intertwined vol.2,,B006X4LPU,,,ES,2012/1/12,,,true,5,13492501,266,640,161,11,2012/1/12,,book,53,61,40,4,3,3.98,,Kindle Edition,,131,10,Pepper Pace,,,,,,28,5,4,"bdsm,contemporary,erotica,love,romance"
13493501,,Little Red Riding Hood (Usborne First Reading),9781409519218,,,,ES,2007/1/1,Usborne,,false,11,17122028,98,152,40,9,2006/5/26,,book,12,12,13,2,1,3.80,,Paperback,,0,0,,,,,,,26,10,1,"fairy-tales,picture-books,teaching"
13494001,,The Wizard of Oz,9781403795067,,,,ES,2010/1/1,Creative Edge LLC,,false,6,2647794,355,530,136,27,2005/9/1,,,41,48,40,6,1,3.90,182,Paperback,,6,2,L. Frank Baum,Nick Price,,,,,97,19,3,"chapter-books,childrens,classics,fantasy,fiction,middle-grade"
13494501,8850227396,Cerulean sins,9788850227396,,,,ES,2012/2/1,TEA,ita,false,51,30245,65829,175208,45582,824,2003/1/1,"Cerulean Sins (Anita Blake, Vampire Hunter, #11)",book,15988,13382,10791,3946,1475,3.84,509,Paperback,TeaDue,20,0,Laurell K. Hamilton,,,,Alessandro Zabini,,7496,32,416,"action,adult,adult-fiction,contemporary,crime,erotica,fantasy,fiction,horror,magic,menage,mystery,paranormal,romance,science-fiction,science-fiction-fantasy,shapeshifters,supernatural,thriller,urban-fantasy,vampires,werewolves,witches,zombies"
13495001,B0046H9BW6,"Brokentide (Legend of Shadows, #1)",,,,,ES,2012/7/18,Amazon Digital Services,eng,true,3,13495001,64,104,31,3,2012/2/13,,book,5,8,14,1,3,3.35,628,Kindle Edition,,18,3,Grant Costello,,,,,,24,1,3,"demons,fantasy,magic,romance"
13495501,,Passionate Alpha (Twin Pines Grizzlies #6),9781619262690,,,,ES,2012/4/7,"Siren-Bookstrand, Inc.",eng,true,3,13495501,321,728,196,2,2011/1/14,,book,46,66,68,14,2,3.71,63,ebook,,163,1,Anitra Lynn McLeod,,,,,,28,4,,"bdsm,contemporary,erotica,fantasy,gay,paranormal,romance"
13496001,8531603188,O Príncipe,9788531603181,,,,ES,1995/1/1,Cultrix,por,false,2241,28862,441264,823176,216584,6845,1513/1/1,Il principe,book,61847,75603,58168,16059,4907,3.80,168,Paperback,,1,0,Niccolò Machiavelli,,,,Antonio D'Elia,,167377,383,16739,"academic,adult,business,classic-literature,classics,college,essays,fiction,high-school,historical,history,leadership,literature,medieval,non-fiction,novels,philosophy,politics,psychology,reference,school,science,self-help,sociology,unfinished,war"
13496501,,Daughter of the Bamboo Forest,,B006V7SIA0,,,ES,2012/1/23,Twin Forest Books,en-US,true,2,13555982,2072,3617,1039,92,2012/1/23,,book,181,336,355,136,31,3.48,216,Kindle Edition,,545,22,Sheng-Shih Lin,,,,,,390,20,40,"adult-fiction,fiction,historical-fiction"
13497001,,"O Melhor da Disney - As Obras Completas de Carl Barks, volume 23",,,,,ES,2006/8/1,Editora Abril,por,false,1,13497001,9,19,4,0,2006/8/1,,book,3,1,0,0,0,4.75,180,Paperback,1st,4,0,Carl Barks,,,,,,5,0,,
13497501,,O Príncipe,,,,,ES,1976/1/1,Editora Cultrix,por,false,2241,28862,441264,823176,216584,6845,1513/1/1,Il principe,book,61847,75603,58168,16059,4907,3.80,165,Paperback,Early,4,0,Niccolò Machiavelli,,,,,,167377,383,16739,"academic,adult,business,classic-literature,classics,college,essays,fiction,high-school,historical,history,leadership,literature,medieval,non-fiction,novels,philosophy,politics,psychology,reference,school,science,self-help,sociology,unfinished,war"
13498001,0758238495,"Death of a Neighborhood Witch (A Jaine Austen Mystery, #11)",9780758238498,,,,ES,2012/9/1,Kensington Books,eng,false,8,13498001,2900,5982,1591,221,2012/8/26,,book,422,555,461,116,37,3.76,262,Hardcover,,1388,202,Laura Levine,,,,,,849,36,56,"adult,animals,chick-lit,comedy,contemporary,cozy-mystery,death,fiction,funny,holiday,humor,murder-mystery,mystery,mystery-thriller,romance"
13498501,9756463139,Türkiye Avrupa Kıskacında,9799756463139,,,,ES,2005/1/1,Derin Yayınları,tur,false,1,13498501,14,24,7,0,2005/1/1,Türkiye Avrupa Kıskacında,book,2,1,3,0,1,3.43,176,Paperback,1st Edition,7,0,Erol Manisalı,,,,,,2,0,,
13499001,9684322089,"El Sol de Mayo. (Sepan Cuantos, #197)",9789684322080,,,,ES,1993/1/1,Porrua,spa,false,2,13499001,13,13,4,0,1868/1/1,El sol de mayo,book,0,2,1,1,0,3.25,347,Paperback,,3,0,Juan Antonio Mateos,,,,,,8,0,1,
13499501,,The Silent Council,9781469963648,,,,ES,2012/1/25,Createspace,eng,false,2,13346655,2,4,1,0,2011/12/20,The Silent Council,book,0,1,0,0,0,4.00,373,Paperback,,0,0,Paul Kelly,,,,,,1,0,,fantasy
13500001,,The Crone: Woman of Age Wisdom and Power,,,,,ES,,,,false,5,1008649,823,1040,251,27,1986/1/1,"The Crone: Woman of Age, Wisdom, and Power",book,111,81,48,6,5,4.14,,,,0,0,Barbara G. Walker,,,,,,499,5,21,"feminism,history,magic,mythology,non-fiction,philosophy,psychology,reference,research,self-help,sociology,spirituality,unfinished,witches"
13500501,,Celebrity Nurse,,,,,ES,1974/1/1,Avalon Books,eng,false,1,13500501,1,4,1,0,1974/1/1,Celebrity Nurse,book,0,1,0,0,0,4.00,192,Hardcover,,1,0,Ann Gilmer,,,,,,,0,,
13501001,,Reign of Silence,,B006LSE87G,,,ES,2011/12/1,Amazon Kindle,en-GB,true,2,11515989,293,194,49,12,2005/6/8,,book,17,19,10,0,3,3.96,332,Kindle Edition,,17,4,Tony  Martin,,,,,,230,8,2,"adult,christian,fantasy,ghosts,gothic,horror,mystery,mystery-thriller,paranormal,thriller"
13501501,0739167804,"Idealism, Pragmatism, and Feminism: The Philosophy of Ella Lyman Cabot",9780739167809,,,,ES,2011/10/10,Lexington Books ,eng,false,4,13501501,17,20,6,1,2011/10/10,,book,0,2,4,0,0,3.33,242,Hardcover,,4,1,John Kaag,,,,,,9,1,,historical
13502001,1607196972,"Twinkle, Twinkle, Little Star (Rising Readers)",9781607196976,,,,ES,2011/1/1,NewMark Learning LLc,eng,false,1,13502001,1,5,1,0,2011/1/1,,book,1,0,0,0,0,5.00,16,Paperback,,1,0,,,,,,,,1,,
13502501,,A Child's History of England,9781466272293,,,,ES,2011/9/13,CreateSpace,eng,false,271,1775352,1669,1880,502,68,1854/1/1,A Child's History of England,book,118,196,141,36,11,3.75,318,Paperback,,1,1,Charles Dickens,,,,,,888,18,118,"british-literature,childrens,classics,english-literature,fiction,historical,history,juvenile,literature,non-fiction,young-adult"
13503001,,Mencintai Pantun,,,,,ES,2009/1/1,Quest Ahead SDN BHD,msa,false,1,13503001,3,6,2,0,2009/1/1,,book,0,0,2,0,0,3.00,117,Paperback,,2,0,Mohamad Shahidan,,,,,,2,0,,
13503501,,VBA и программирование в MS Office для пользователей,,,,,ES,2006/1/1,,rus,false,1,13503501,0,0,0,0,2006/1/1,,book,0,0,0,0,0,0.00,384,Hardcover,,0,0,Ростислав Михеев,,,,,,,0,,non-fiction
13504001,0983231710,"Gnawing on a Thin Man (Acme Poem Company Chapbook Series, #2)",9780983231714,,,,ES,2012/1/1,"Willow Springs Editions, Acme Poem Company",eng,false,1,13504001,14,37,8,0,2012/1/1,,book,6,1,1,0,0,4.62,42,Paperback,,8,0,Ray Amorosi,,,,,,3,1,,poetry
13504501,,النوخذة والعاصفة,,,,,ES,,,ara,false,1,13504501,1,0,0,0,,,book,0,0,0,0,0,0.00,,Paperback,,0,0,نجلا علي,,,,,,1,0,,
13505001,,"Field Gray (Bernard Gunther, #7)",9781407469201,,,,ES,,,eng,false,37,9568416,7115,19219,4650,355,2010/10/28,Field Grey,book,1716,2023,766,104,41,4.13,,Audio Cassette,,2,2,Philip Kerr,,,,,,1568,18,168,"action,adventure,crime,detective,fiction,historical,historical-fiction,history,literary-fiction,literature,mystery,mystery-thriller,novels,suspense,thriller,war"
13505501,9197618802,Dannyboy & kärleken,9789197618809,,,,ES,2006/5/1,Sockerförlaget,swe,false,2,13505501,56,133,40,2,2005/4/6,,book,6,13,12,6,3,3.33,234,Paperback,,40,2,Daniel Åberg,,,,,,11,3,,fiction
13506001,,History of Art,9781407564067,,,,ES,2011/1/1,Parragon Books Ltd.,eng,false,1,13506001,40,56,12,0,2011/1/1,,book,8,4,0,0,0,4.67,704,Hardcover,,12,0,Parragon Publishing,,,,,,19,1,4,art
13506501,,Cultural Studies for Beginners,,,,,ES,2001/1/1,Icon Books Ltd.,,false,14,266014,769,965,276,27,1994/3/16,Cultural Studies for Beginners,book,45,90,105,29,7,3.50,,,,5,2,Ziauddin Sardar,,,,,,325,8,40,"academic,amazon,comics,criticism,graphic-novels,history,non-fiction,philosophy,politics,psychology,school,science,sociology"
13507501,,Amintiri cu sfinti (vol. 2),,,,,ES,,,rum,false,1,13507501,3,11,3,0,,,book,0,2,1,0,0,3.67,,,,3,0,Daniel Branzei,,,,,,,0,,
13508001,9186369729,"Vreden och Återkomsten (the Vampire Diaries, #3-4)",9789186369729,,,,ES,2010/10/20,Pocketförlaget,swe,false,37,1895792,83390,207840,55605,1814,2007/12/26,The Fury and Dark Reunion,book,18237,14785,14551,5830,2202,3.74,403,Pocket,,56,4,L.J. Smith,,,,,,15710,163,666,"action,chick-lit,contemporary,fantasy,fiction,high-school,horror,love,magic,mystery,paranormal,romance,supernatural,teen,urban-fantasy,vampires,werewolves,witches,young-adult"
13508501,,"Nicht jetzt, niemals",9783800056767,,,,ES,2012/1/1,Ueberreuter,ger,false,17,17262309,2356,2766,776,201,2011/3/23,,book,156,265,243,85,27,3.56,143,Hardcover,,7,1,Ursula Dubosarsky,,,,,,1377,25,15,"childrens,crime,fantasy,fiction,historical,historical-fiction,history,middle-grade,mystery,realistic-fiction,school,teen,war,young-adult"
13509001,0881452645,SUPER POWERS,9780881452648,,,,ES,2005/7/1,Broadway Play Publishing,eng,false,1,13509001,2,3,1,0,,,book,0,0,1,0,0,3.00,78,Paperback,,1,0,Jeremy Dobrish,,,,,,,1,,
13510001,,Grantbo’s Misadventures,9781466103207,,,,ES,2012/1/29,Smashwords Edition,eng,true,1,13510001,0,0,0,0,2012/1/29,,book,0,0,0,0,0,0.00,81,ebook,(40 stories of when Grantbo’s life went horribly wrong),0,0,Grantbo,,,,,,,0,,
13510501,,مسارات الثورة: رؤية تحليلية ديموقراطية جذرية,9789774901565,,,,ES,2012/1/1,دار العين للنشر,ara,false,1,13510501,72,47,13,1,2012/1/1,,book,3,3,6,1,0,3.62,213,Paperback,الأولى,13,1,شريف يونس,,,,,,55,1,,politics
13511001,,Melhores Crônicas,9788526008328,,,,ES,2009/1/1,Global,por,false,1,13511001,7,15,4,0,2003/1/1,Melhores Crônicas ,book,1,1,2,0,0,3.75,231,Paperback,Coleção Melhores Crônicas,4,0,Manuel Bandeira,,,,,,3,0,,
13511501,1600763189,Images of Being,9781600763182,,,,ES,2011/9/1,StoneGarden.net,eng,false,2,13511501,2,4,1,1,2011/9/1,,book,0,1,0,0,0,4.00,84,Paperback,,1,1,Diane Sahms-Guarnieri,,,,,,,0,,
13512001,,Wanita cantiknya dirimu bila berjilbab,9789675426247,,,,ES,2010/1/1,"Must Read, 2010",msa,false,1,13512001,6,5,1,0,2010/1/1,,book,1,0,0,0,0,5.00,120,Paperback,,1,0,Mohd. Hanif Haji Ismail,,,,,,3,0,,
13512501,8762600230,"Fire piger, et par jeans (Piger i Jeans, #1)",,,,,ES,2002/1/1,Romano Carlsen,dan,false,95,452306,738311,2174451,576200,6931,2001/9/11,The Sisterhood of the Traveling Pants,book,165578,190731,159800,44146,15945,3.77,310,Paperback,,9,1,Ann Brashares,,,,,,124081,350,1428,"adventure,chick-lit,childrens,contemporary,drama,family,fiction,high-school,humor,love,middle-grade,movies,novels,realistic-fiction,romance,teen,travel,young-adult"
13513001,,At Play: Easy Growth in Reading Primer Level One,,,,,ES,1940/1/1,The John C. Winston Company,eng,false,2,13513001,8,7,2,2,1940/1/1,,book,0,1,1,0,0,3.50,124,Hardcover,,1,1,"Alice Meighen,Allie Lou Felton,Ethel Maltby Gehres,Gertrude Hildreth,Mabel J. Henderson",Corrine Pauli Waterall,,"Eula A. Johnston,Grace A. Allen,Joy Muchmore Lacey",,,1,2,,
13513501,0312515103,Hello Baby: Mirror Cloth Book,9780312515102,,,,ES,2012/8/21,Priddy Books,,false,1,13513501,3,10,3,0,2012/9/18,,book,1,1,0,0,1,3.33,6,Bath Book,,3,0,Roger Priddy,,,,,,,0,,
13514001,146410042X,Student Solutions Manual for Introductory Statistics,9781464100420,,,,ES,2008/6/27,W. H. Freeman,,true,2,13514001,7,0,0,0,2008/6/27,,,0,0,0,0,0,0.00,250,ebook,,0,0,Stephen Kokoska,,,,,,6,0,,
13514501,,The Basilisk Plot,,,,,ES,,,,false,3,21106571,11,23,5,1,2011/5/5,,book,3,2,0,0,0,4.60,,,,2,1,Dwayne Carr,,,,,,5,0,,"angels,christian-fiction,demons"
13515001,2259200699,Trahie,9782259200691,,,,ES,2005/10/1,Plon,fre,false,42,1106041,2090,4475,1247,129,2003/1/1,Svek,book,237,463,381,129,37,3.59,,,,8,0,Karin Alvtegen,,,,,,533,12,20,"adult-fiction,contemporary,crime,drama,fiction,love,modern,mystery,mystery-thriller,school,suspense,thriller"
13515501,1432641379,"History Of The Republican Party: Embracing Its Origin, Growth And Mission",9781432641375,,,,ES,2007/6/1,"Kessinger Publishing, LLC",eng,false,7,13515501,1,0,0,0,1884/1/1,"History of the Republican Party: embracing its origin, growth and mission, together with appendices of statistics and information required by enlightened politicians and patriotic citizens",book,0,0,0,0,0,0.00,644,Paperback,Facsimile reprint,0,0,Frank Abial Flower,,,,,,1,0,,
13516501,,Josephine the Outlaw King,,B006YK73V4,,,ES,,,en-GB,true,2,12493248,96,114,32,4,2011/9/23,Josephine the Outlaw King,book,12,6,7,2,5,3.56,,Kindle Edition,,14,0,Jeannette Louise Kantzalis,,,,,,51,5,1,"amazon,contemporary,crime,fiction,suspense"
13517001,10:1860113,Take the kids to Paris and Disneyland Resort Paris,13:9781860113,,,,ES,2006/1/1,The Globe Pequot Press,eng,false,1,13517001,1,5,1,0,2006/1/1,,book,1,0,0,0,0,5.00,255,Paperback,4th edition,1,0,Helen Truszkowski,,,,,,,0,,"non-fiction,travel"
13517501,9710251056,My Sunset,9789710251056,,,,ES,2012/3/7,Precious Pages Corp.,fil,false,1,13517501,270,358,81,6,2012/3/7,My Sunset,book,60,9,4,2,6,4.42,344,Paperback,First Printing,81,6,Camilla,,,,,,184,0,6,
13518001,9025750664,"De brandende brug (De grijze jager, #2)",9789025750664,,,,ES,2011/1/1,Gottmer Uitgevers Groep,nl,false,85,144349,122852,401051,93294,2748,2005/1/1,The Burning Bridge,book,47012,30721,12721,2104,736,4.30,288,Hardcover,,10,0,John Flanagan,,,,Laurent Corneille,,17368,154,1147,"action,adventure,childrens,epic-fantasy,fantasy,fiction,high-fantasy,historical,historical-fiction,juvenile,magic,medieval,middle-grade,mystery,novels,science-fiction-fantasy,teen,war,young-adult"
13518501,,Essays,,,,,ES,1947/1/1,E.P. Dutton,eng,false,275,139005,7635,9329,2181,120,1876/1/1,Essays,book,1144,632,297,82,26,4.28,358,Hardcover,,1,1,Ralph Waldo Emerson,,,,,,3954,21,844,"academic,amazon,american,anthologies,biography,classic-literature,classics,collections,college,essays,fiction,grad-school,history,literature,nature,non-fiction,philosophy,poetry,politics,psychology,religion,spirituality,unfinished"
13519001,,The Best of Round the Horne,,,,,ES,,,,false,1,13519001,4,13,3,2,,,book,2,0,1,0,0,4.33,,Hardcover,,3,2,"Barry Took,Marty Feldman",,,,,,1,0,1,humor
13519501,,Tex n. 403: Bande rivali,,,,,ES,1994/5/1,Sergio Bonelli Editore,ita,false,2,13519501,7,10,3,0,1994/5/1,Tex n. 403: Bande rivali,periodical,0,1,2,0,0,3.33,114,Brossura,First,3,0,"Decio Canzio,Fernando Fusco,Jesús Blasco,Michele Medda",,,,,,1,0,,
13520001,,Three Blinks and a Sigh: A Novel,,,,,ES,2012/1/1,BimMedia,eng,true,1,13520001,3,0,0,0,2012/1/1,,book,0,0,0,0,0,0.00,204,ebook,,0,0,Karl Bimshas,,,,,,1,0,,
13520501,,جوهرة الأربعين حرامي,,,,,ES,,دار الدعوة,,false,1,13520501,40,59,14,0,,,book,8,1,5,0,0,4.21,69,,,14,0,علاء الدين طعيمة,,,,,,20,0,,
13521001,0316023442,"Endgame, 1945: The Missing Final Chapter of World War II",9780316023443,,,,ES,2007/11/12,"Little, Brown and Company",,true,27,638799,967,1436,362,63,2007/1/1,"Endgame, 1945: The Missing Final Chapter of World War II",book,98,174,74,12,4,3.97,,ebook,,0,0,David A.T. Stafford,,,,,,474,9,22,"history,non-fiction,reference,unfinished,war"
13521501,0316215538,Starry River of the Sky,9780316215534,,,,ES,2012/10/2,"Little, Brown Books for Young Readers",,true,14,13521501,12902,27653,6735,734,2012/1/1,,book,2860,2331,1100,285,159,4.11,,ebook,,6150,613,Grace Lin,,,,,,5316,59,168,"adventure,animals,chapter-books,childrens,cultural,fairy-tales,family,fantasy,fiction,historical,historical-fiction,juvenile,magic,magical-realism,middle-grade,mystery,mythology,novels,young-adult"
13522001,0446402958,"Our Own Worst Enemy: Asking the Right Questions About Security to Protect You, Your Family, and America",9780446402958,,,,ES,2007/9/7,Grand Central Publishing,,true,11,1072498,43,90,22,4,2005/1/1,"Our Own Worst Enemy: Asking the Right Questions About Security to Protect You, Your Family, and America",,8,9,4,1,0,4.09,,ebook,,0,0,Randall Larsen,,,,,,4,2,,"history,non-fiction"
13522501,0446502464,Me 101: A Workbook for a Better Relationship,9780446502467,,,,ES,2007/5/7,Grand Central Publishing,,true,1,13522501,12,0,0,0,2007/5/7,,book,0,0,0,0,0,0.00,,ebook,,0,0,Dorothy  Garlock,,,,,,11,0,,
13523001,0446544663,Knowing Right from Wrong: A Christian Guide to Conscience,9780446544665,,,,ES,2008/9/18,FaithWords,,true,4,4610968,29,33,10,0,2008/9/18,Knowing Right from Wrong: A Christian Guide to Conscience,,1,4,2,3,0,3.30,,ebook,,0,0,Thomas D. Williams,,,,,,15,1,1,non-fiction
13523501,0759507481,Once Upon a Time: Behind the Fairy Tale of Princess Grace and Prince Rainier,9780759507487,,,,ES,2003/4/1,Grand Central Publishing,,true,25,383086,2128,3602,947,70,2003/4/1,Once Upon a Time: Behind the Fairy Tale of Princess Grace and Prince Rainier,,254,347,271,56,19,3.80,,ebook,,0,0,J. Randy Taraborrelli,,,,,,662,7,79,"autobiography,biography,biography-memoir,fiction,france,historical,history,memoir,non-fiction"
13524001,0759516278,The Garden of Eden and Other Criminal Delights,9780759516274,,,,ES,2006/8/21,Grand Central Publishing,,true,27,185906,1594,2876,820,86,2006/1/1,The Garden of Eden and Other Criminal Delights ,book,188,212,278,112,30,3.51,,ebook,,0,0,Faye Kellerman,,,,,,452,14,28,"anthologies,contemporary,cozy-mystery,crime,detective,fiction,mystery,short-stories,suspense,thriller"
13524501,0759561796,Ciara's Song: A Chronicle of Witch World,9780759561793,,,,ES,2001/2/15,Aspect,,true,15,285168,747,1322,329,7,1998/1/1,Ciara's Song: A Chronicle of the Witch World,book,112,126,78,11,2,4.02,244,ebook,,0,0,"Andre Norton,Lyn McConchie",,,,,,288,8,4,"epic-fantasy,fantasy,magic,novels,science-fiction,science-fiction-fantasy,speculative-fiction,teen,witches,young-adult"
13525001,0759571678,Midnight Robber,9780759571679,,,,ES,2001/3/15,Aspect,,true,23,71409,9485,8565,2193,282,2000/1/1,Midnight Robber,book,678,878,453,120,64,3.91,,ebook,,0,0,Nalo Hopkinson,,,,,,6641,42,141,"abuse,adult,adult-fiction,fantasy,feminism,fiction,magical-realism,novels,science-fiction,science-fiction-fantasy,speculative-fiction,urban-fantasy,young-adult"
13525501,0759585075,Walking Wonders,9780759585072,,,,ES,2001/7/15,Grand Central Publishing,,true,9,7074452,1,0,0,0,2001/1/1,,book,0,0,0,0,0,0.00,,ebook,,0,0,"Cathlynn Richard Dodson,Cathy Richard Dodson",,,,,,1,1,,
13526001,1455516570,God Loves Ugly: & love makes beautiful,9781455516575,,,,ES,2012/9/4,FaithWords,,true,2,10801598,1192,1687,394,37,2010/11/26,,book,204,118,55,13,4,4.28,224,ebook,,0,0,Christa Black,,,,,,619,16,52,"biography,christian,christianity,faith,inspirational,memoir,non-fiction,religion,self-help"
13526501,1469000113,201 Knockout Answers to Tough Interview Questions: The Ultimate Guide to Handling the New Competency-Based Interview Style,9781469000114,,,,ES,2012/2/9,Your Coach Digital,,false,2,17693809,1,0,0,0,2012/2/9,,,0,0,0,0,0,0.00,,Audiobook,,0,0,Linda Matias,,,,,,1,0,,
13527001,1596594705,The Shark and the Goldfish: Positive Ways to Thrive During Waves of Change,9781596594708,,,,ES,2009/10/10,Your Coach Digital,,false,13,6575329,1192,2229,585,69,2009/8/27,The Shark and the Goldfish: Positive Ways to Thrive During Waves of Change,,184,189,150,41,21,3.81,,Audiobook,,0,0,Jon Gordon,,,,,,407,19,35,"business,education,inspirational,leadership,non-fiction,personal-development,self-help"
13528001,161113515X,The Sugar Frosted Nutsack: A Novel,9781611135152,,,,ES,2012/3/26,"Little, Brown & Company",,false,12,12419326,3111,2936,999,267,2012/1/1,,book,136,222,259,209,173,2.94,,Audiobook,,5,2,Mark Leyner,,,,,,1827,20,68,"adult,adult-fiction,american,comedy,contemporary,fantasy,fiction,funny,humor,literature,memoir,novels,religion,science-fiction,unfinished,urban-fantasy"
13528501,0446583405,"18 Minutes: Find Your Focus, Master Distraction, and Get the Right Things Done",9780446583404,,,,ES,2012/9/11,Grand Central Publishing,,false,28,12138871,10733,14452,3744,332,2011/1/1,,book,1083,1380,1010,216,55,3.86,288,Paperback,,105,8,Peter Bregman,,,,,,4681,52,267,"business,health,leadership,non-fiction,personal-development,psychology,reference,self-help,unfinished"
13529001,089812736X,Haiku (Poetry Basics),9780898127362,,,,ES,2011/6/22,Creative Paperbacks,,false,3,10148689,22,29,10,3,2009/8/1,,book,1,3,1,4,1,2.90,32,Paperback,,1,0,Valerie Bodden,,,,,,7,0,,"poetry,reference"
13530001,,"D.Gray-man: Raid al Quartier Generale, Vol. 15",,,,,ES,2006/1/1,Planet Manga,ita,false,14,6406113,2564,7786,1755,27,2006/1/1,"D.Gray-man, Volume 15",book,1048,480,187,25,15,4.44,,Paperback,,4,0,Katsura Hoshino,,,,,,356,40,7,"action,comedy,comics,demons,fantasy,fiction,graphic-novels,historical,horror,magic,manga,mystery,paranormal,steampunk,supernatural,young-adult"
13530501,,دفاع عن العلمانية ضد المسيري,9789953566412,,,,ES,2011/1/1,مدارك,ara,false,1,13530501,43,29,12,5,2011/1/1,دفاع عن العلمانية ضد المسيري,book,1,1,5,0,5,2.42,96,Paperback,,12,5,حمد الراشد,,,,,,30,1,,
13531001,0763660930,"The Crimson Shard  (The Blackhope Enigma, #2)",9780763660932,,,,ES,2012/9/11,Templar,,false,7,13531001,863,682,177,29,2011/10/1,,book,45,73,48,10,1,3.85,256,Hardcover,,154,25,Teresa Flavin,,,,,,587,19,12,"adventure,fantasy,fiction,historical,historical-fiction,magic,middle-grade,mystery,research,romance,science-fiction,teen,time-travel,young-adult"
13531501,1583945385,The Venus Blueprint: Uncovering the Ancient Science of Sacred Spaces,9781583945384,,,,ES,2012/5/22,EVOLVER EDITIONS,,false,2,13531501,43,52,11,2,2012/5/22,,,9,1,1,0,0,4.73,272,Paperback,,10,2,Richard Merrick,,,,,,25,1,5,non-fiction
13532001,0307814521,Play Therapy,9780307814524,,,,ES,2012/2/8,Ballantine Books,,true,21,1162840,1406,2445,592,23,1947/1/1,Play Therapy,book,247,210,103,29,3,4.13,384,ebook,,1,0,Virginia M. Axline,,,,,,620,6,73,"education,non-fiction,psychology,reference"
13532501,0307374726,The Weed That Strings the Hangman's Bag,9780307374721,,,,ES,2010/3/9,Doubleday Canada,,true,67,6777616,66867,173232,43400,4955,2010/3/9,The Weed That Strings the Hangman's Bag,book,12210,20185,9657,1123,225,3.99,,ebook,,2,0,Alan Bradley,,,,,,15659,360,738,"adult,adult-fiction,adventure,cozy-mystery,crime,detective,family,fiction,funny,historical,historical-fiction,humor,murder-mystery,mystery,mystery-thriller,novels,science,suspense,thriller,young-adult"
13533001,0307716503,"Mickey and Willie: Mantle and Mays, the Parallel Lives of Baseball's Golden Age",9780307716507,,,,ES,2013/5/14,Crown Archetype,,true,6,13151177,479,841,221,38,2012/6/5,,book,46,100,62,12,1,3.81,496,ebook,,4,2,Allen Barra,,,,,,82,7,13,"biography,history,non-fiction,sports"
13533501,030736948X,Afterlands,9780307369482,,,,ES,2010/6/11,Vintage Canada,,true,14,560719,608,581,173,29,2005/1/1,Afterlands,book,31,56,44,28,14,3.36,,ebook,,0,0,Steven Heighton,,,,,,366,17,8,"adult,adult-fiction,adventure,contemporary,fiction,historical,historical-fiction,history,horror,literary-fiction,survival,tragedy,travel"
13534001,0307766780,The Rooms of Heaven,9780307766786,,,,ES,2011/7/27,Vintage,,true,6,1421409,222,400,109,21,1999/1/19,"The Rooms of Heaven : A Story of Love, Death, Grief, and the Afterlife",book,33,30,27,15,4,3.67,336,ebook,,2,0,Mary  Allen,,,,,,80,1,9,"memoir,non-fiction"
13534501,0307800385,Wet Work,9780307800381,,,,ES,2011/11/16,Knopf,,true,9,894392,614,1087,328,29,1991/1/30,Wet Work,,28,107,145,36,12,3.31,271,ebook,,2,0,Christopher Buckley,,,,,,178,12,7,"fiction,humor,non-fiction,psychology,suspense,thriller"
13535001,0307555992,Essays,9780307555991,,,,ES,2009/2/18,Everyman's Library,,true,65,9640,19792,27476,6337,387,1941/1/19,A Collection of Essays,book,3180,2280,729,121,27,4.34,1424,ebook,,0,0,George Orwell,,,,,,10246,53,718,"adult,autobiography,biography,biography-memoir,british-literature,classics,collections,criticism,english-literature,essays,fiction,history,language,literature,memoir,non-fiction,novels,philosophy,politics,school,short-stories,sociology,war,writing"
13535501,030748100X,More Than a Champion: The Style of Muhammad Ali,9780307481009,,,,ES,2010/3/24,Vintage,,true,8,911212,27,36,9,1,1995/1/1,More Than a Champion: The Style of Muhammad Ali,,4,2,2,1,0,4.00,192,ebook,,0,0,Jan Philipp Reemtsma,,,,,,7,0,,"non-fiction,sports"
13536001,0385674155,Beyond the Sky and the Earth: A Journey Into Bhutan,9780385674157,,,,ES,2011/1/28,Doubleday Canada,,true,19,145249,9394,12919,3114,328,1999/5/18,Beyond the Sky and the Earth: A Journey into Bhutan,book,1249,1250,481,97,37,4.15,,ebook,,3,1,Jamie Zeppa,,,,,,5888,12,71,"adventure,autobiography,biography,biography-memoir,fiction,history,memoir,non-fiction,philosophy,religion,spirituality,travel"
13536501,0091948665,Love Your Garden,9780091948665,,,,ES,2012/6/21,Ebury Press,,false,1,13536501,13,15,5,1,2012/7/24,,,0,1,3,1,0,3.00,192,Paperback,,5,1,Alan Titchmarsh,,,,,,7,0,,
13537001,8877180900,Diario,9788877180902,,,,ES,1988/1/1,dall'Oglio,ita,false,20,188093,1272,1228,309,25,1927/1/1,Journal of Katherine Mansfield,book,110,108,67,21,3,3.97,510,Hardcover,,1,0,Katherine Mansfield,,,John Middleton Murry,Mara Fabietti,,857,13,16,"biography,biography-memoir,classics,feminism,history,non-fiction,travel,writing"
13537501,082602825X,Suicide A Sociological and Statistical Study,9780826028259,,,,ES,1963/1/1,Ronald Press Company,eng,false,1,13537501,9,8,2,2,1963/1/1,Suicide A Sociological and Statistical Study,book,0,2,0,0,0,4.00,240,Hardcover,,2,2,Louis Israel Dublin,,,,,,6,0,1,"philosophy,psychology"
13538001,1250003229,Manthropology: The Science of Why the Modern Male Is Not the Man He Used to Be,9781250003225,,,,ES,2012/4/24,St. Martin's Griffin,,false,6,7082204,453,660,189,23,2010/10/15,,book,42,55,58,22,12,3.49,336,Paperback,,18,1,Peter Mcallister,,,,,,183,6,14,"anthropology,history,non-fiction,science,society,sociology"
13538501,1466802510,Understanding Your Food Allergies and Intolerances: A Guide to Management and Treatment,9781466802513,,,,ES,2012/5/22,St. Martin's Griffin,,true,4,12159324,30,65,21,3,2012/4/24,,book,1,6,10,2,2,3.10,256,ebook,,0,0,"Karen Asp,Wayne Shreffler",,,,,,5,4,1,non-fiction
13539001,125001400X,Miss Dimple Rallies to the Cause: A Mystery,9781250014009,,,,ES,2012/9/18,Minotaur Books,,false,5,10956213,612,1098,302,53,2011/11/22,,book,50,124,102,20,6,3.64,272,Paperback,,4,0,Mignon F. Ballard,,,,,,206,7,7,"cozy-mystery,fiction,historical,historical-fiction,mystery,young-adult"
13539501,1408814501,The Selfish Crocodile Book of Sounds,9781408814505,,,,ES,2012/11/27,Bloomsbury USA Childrens,,false,1,13539501,9,17,6,2,2012/12/24,,,0,0,5,1,0,2.83,14,Board Book,,6,2,Faustin Charles,,,,,,,1,,
13540001,4847037979,こえでおしごと take 7,,,,,ES,,,jpn,false,2,18944732,2,3,1,0,2011/12/24,,,0,0,1,0,0,3.00,,,,0,0,紺野 あずれ,,,,,,1,0,,
13540501,,Barakel and Nissa,9780985139810,,,,ES,2012/2/1,,eng,false,1,13540501,4,12,3,2,2012/2/1,,book,1,1,1,0,0,4.00,104,Paperback,,3,2,Jane Li,,,,,,1,0,,
13541001,,Alyce in the Wonderful Land of Lust ,,,,,ES,,,,false,2,13541001,6,7,3,0,2011/8/23,,book,0,0,1,2,0,2.33,,,,2,0,Kimberlyn,,,,,,3,0,,
13541501,037033213X,The Seeing,9780370332130,,,,ES,2012/7/1,Bodley Head,en-GB,false,5,13541546,706,578,173,34,2012/7/1,The Seeing,book,28,52,55,27,11,3.34,176,Hardcover,,22,4,Diana Hendry,,,,,,482,13,3,"art,childrens,fiction,historical,historical-fiction,horror,modern,mystery,mystery-thriller,relationships,teen,thriller,young-adult"
13542001,,Edward,,,,,ES,2012/3/15,Mike Voyce,eng,true,1,13542001,1,0,0,0,2012/3/15,,book,0,0,0,0,0,0.00,,ebook,,0,0,Mike Voyce,,,,,,1,0,,
13542501,0425252760,Last Scene Alive,9780425252765,,,,ES,2012/10/2,Berkley,,false,25,140080,21847,47615,12460,434,2002/8/3,Last Scene Alive,book,3083,4822,3875,607,73,3.82,288,Hardcover,,19,1,Charlaine Harris,,,,,,5280,105,139,"adult,adult-fiction,chick-lit,contemporary,cozy-mystery,crime,detective,fantasy,fiction,murder-mystery,mystery,mystery-thriller,paranormal,romance,supernatural,suspense,thriller"
13543001,0451237188,Sydney Omarr's Day-by-Day Astrological Guide for the Year 2013: Pisces,9780451237187,,,,ES,2012/6/5,Signet,,false,4,19866801,1,5,1,0,2012/6/1,,,1,0,0,0,0,5.00,320,Paperback,,0,0,"Rob MacGregor,Trish MacGregor",,,,,,,0,,
13543501,,The American Image of the Old World,,,,,ES,1963/1/1,Harper & Row,eng,false,1,13543501,2,4,1,0,1963/1/1,,,0,1,0,0,0,4.00,288,Hardcover,,1,0,Cushing Strout,,,,,,1,0,,history
13544001,,Washington's Birthday,,,,,ES,,,,false,2,13544001,17,13,3,1,1967/1/1,,book,1,2,0,0,0,4.33,52,,,3,1,Clyde Robert Bulla,Don Bolognese,,,,,11,0,,"american-history,biography,historical"
13544501,1442351152,Emotional Equations: Simple Truths for Creating Happiness + Success,9781442351158,,,,ES,2012/1/10,Simon  Schuster Audio,,false,17,12419899,2210,1821,499,50,2012/5/1,Emotional Equations,book,123,154,160,48,14,3.65,7,Audio CD,,2,2,Chip Conley,,,,,,349,19,37,"business,leadership,non-fiction,personal-development,philosophy,psychology,relationships,self-help"
13545001,1442439106,Brownie  Pearl See the Sights,9781442439108,,,,ES,2011/9/27,Beach Lane Books,,true,7,7775553,353,828,229,40,2010/8/1,,book,45,71,95,16,2,3.62,24,ebook,,0,0,Cynthia Rylant,,,,,,31,33,,"childrens,picture-books"
13545501,1451659849,All In: How the Best Managers Create a Culture of Belief and Drive Big Results,9781451659849,,,,ES,2012/4/3,Free Press,,true,14,13258980,915,1104,302,26,2012/4/1,,book,62,102,114,20,4,3.66,256,ebook,,0,0,"Adrian Gostick,Chester Elton",,,,,,460,10,69,"business,inspirational,leadership,non-fiction,personal-development,self-help,teaching"
13546001,1416995196,No Talking,9781416995197,,,,ES,2012/3/13,Atheneum Books for Young Readers,,true,23,235127,22079,62658,15861,1151,2007/1/1,No Talking,book,5663,5275,3698,924,301,3.95,160,ebook,,0,0,Andrew Clements,,,,,,392,57,278,"chapter-books,childrens,contemporary,fiction,funny,humor,juvenile,middle-grade,novels,realistic-fiction,school,young-adult"
13546501,1442465433,Troubled Waters,9781442465435,,,,ES,2012/5/22,Aladdin,,true,6,557144,767,1358,356,8,2012/5/22,"Troubled Waters (Nancy Drew: Girl Detective, #23)",book,107,115,101,27,6,3.81,160,ebook,,0,0,Carolyn Keene,,,,,,256,11,5,"action,adventure,childrens,detective,fiction,juvenile,mystery,mystery-thriller,young-adult"
13547001,0373445032,Silent Witness,9780373445035,,,,ES,2012/8/7,Love Inspired,,false,8,13547001,235,332,82,11,2012/1/1,Silent Witness,book,30,32,15,4,1,4.05,224,Paperback,,65,10,Diane Burke,,,,,,116,6,4,"adult,christian,christian-fiction,cozy-mystery,fiction,inspirational,mystery,mystery-thriller,romance,suspense"
13547501,1442429933,Santa from Cincinnati,9781442429932,,,,ES,2012/10/2,Atheneum Books for Young Readers,,false,4,13547501,312,739,198,50,2012/10/2,,,48,70,62,15,3,3.73,48,Hardcover,,194,48,Judi Barrett,,,,,,68,15,2,"adventure,childrens,christmas,family,fiction,holiday,juvenile,picture-books"
13548001,1451696051,Gandhi: A Memoir,9781451696059,,,,ES,2012/4/1,Simon  Schuster,,false,12,1067908,1160,1544,382,27,1979/1/1,Gandhi: A Memoir,book,153,127,74,21,7,4.04,272,Paperback,,0,0,William L. Shirer,,,,,,753,14,18,"autobiography,biography,biography-memoir,historical,history,memoir,non-fiction,philosophy,politics"
13548501,,11 Great Modern Stories,,,,,ES,1947/1/1,Avon Book Co.,eng,false,1,13548501,2,0,0,0,1947/1/1,,book,0,0,0,0,0,0.00,132,Paperback,"THE AVON ANNUAL 1947, Fourth Anniversary Number",0,0,Samuel Elkin,,,,,,1,1,,
13549001,,Anciens rivages,9782266087995,,,,ES,1999/3/1,Presses Pocket,fre,false,15,535315,3715,7398,2029,166,1996/4/1,Ancient Shores,book,397,750,678,175,29,3.65,381,Mass Market Paperback,Pocket SF,5,1,Jack McDevitt,,,,,,1088,13,32,"adventure,aliens,fantasy,fiction,mystery,science,science-fiction,speculative-fiction,time-travel"
13549501,1935928775,Knowing Too Much: Why the American Jewish Romance with Israel Is Coming to an End,9781935928775,,,,ES,2012/5/1,OR Books,eng,false,4,13549501,454,357,86,9,2012/1/1,,book,38,31,12,2,3,4.15,466,Paperback,,75,9,Norman G. Finkelstein,,,,,,228,5,17,"history,non-fiction,politics,religion"
13550001,,نوادر المخطوطات الجزء الثاني,,,,,ES,1991/1/1,دار الجيل,ara,false,1,13550001,31,22,5,0,1991/1/1,,book,3,1,1,0,0,4.40,545,,,5,0,عبدالسلام محمد هارون,,,,,,27,0,,
13550501,1426893485,Alien Velocity,9781426893483,,,,ES,2012/3/26,Carina Press,eng,true,3,13550501,37,46,17,8,2009/12/7,Charlie Runs Rings Around the Earth,book,0,4,6,5,2,2.71,162,ebook,,16,8,Robert Appleton,,,,,,12,1,,"aliens,mystery-thriller,science-fiction"
13551001,,"The Dress of the Season (The Blue Raven, #4.5)",,,,,ES,2012/4/3,Berkley Sensation,,true,5,13551001,980,1513,435,38,2012/4/3,"The Dress of the Season (The Blue Raven, #4.5)",book,75,135,162,49,14,3.48,100,ebook,,279,28,Kate Noble,,,,,,105,22,61,"adult,amazon,fiction,historical,historical-fiction,novella,regency,romance,short-stories"
13551501,,Principes d'analyse économique : la science économique,,,,,ES,1979/1/1,Les Cours de Droit,fre,false,1,13551501,1,0,0,0,1969/1/1,Principes d'analyse économique : la science économique,book,0,0,0,0,0,0.00,160,Paperback,Institut d'études politiques de Paris : année préparatoire,0,0,Jean-Claude Casanova,,,,,,,0,,
13552001,,El lucha libre,9788863961782,,,,ES,2011/10/1,Giovane Holden Edizioni,ita,false,1,13552001,3,14,3,1,2011/10/1,El lucha libre,book,2,1,0,0,0,4.67,134,Paperback,,3,1,Giulio Del Bianco e Luca Lippi,,,,,,,0,,
13552501,,Cái trống thiếc,,,,,ES,2002/1/1,NXB Hội Nhà Văn,vie,false,223,35743,77368,140096,35395,1544,1959/1/1,Die Blechtrommel,book,13410,11855,6539,2418,1173,3.96,968,Hardcover,,15,1,Günter Grass,,,,Dương Tường,,35552,196,1545,"classic-literature,classics,contemporary,drama,european-literature,fiction,historical,historical-fiction,history,literary-fiction,literature,magical-realism,modern-classics,novels,school,unfinished,war"
13553001,,Angie Stirs the Pot,,B007LZQ6AU,,,ES,2012/3/17,,eng,true,1,13553001,8,0,0,0,2012/3/17,,book,0,0,0,0,0,0.00,,Kindle Edition,,0,0,Harper Rowe,,,,,,6,1,,"erotica,short-stories,witches"
13553501,0726973807,On Top Down Under,,,,,ES,1981/1/1,Cassell,,false,4,4447402,29,62,15,0,1975/1/1,On top down under: Australia's cricket captains,book,6,5,4,0,0,4.13,286,Paperback,2nd,1,0,Ray Robinson,,,,,,5,0,1,"biography,non-fiction"
13554001,,After School,,,,,ES,2012/1/20,Pink Flamingo Publication,eng,false,1,13554001,15,34,8,0,2012/1/20,,book,5,0,3,0,0,4.25,,Paperback,,8,0,Jurgen von Stuka,,,,,,5,1,,"bdsm,erotica"
13554501,,Chicka Chicka Sticka Sticka,,,,,ES,,,,false,2,13554501,15,14,4,1,1995/8/1,,book,0,2,2,0,0,3.50,,,,3,1,Bill Martin Jr.,,,,,,6,2,,
13555001,,Reisen til Sublandis (Drageridderenes Orden #2),9788282111126,,,,ES,2012/1/1,Vega Forlag,nor,false,29,3704118,6310,16511,4171,69,2004/1/1,La missione di Sennar ,book,1431,1537,892,221,90,3.96,398,Hardcover,,3,0,Licia Troisi,,,,,,132,21,4,"adventure,childrens,epic-fantasy,fantasy,fiction,high-fantasy,magic,medieval,middle-grade,novels,romance,teen,young-adult"
13555501,,Charlotte au Chocolat: Memories of a Restaurant Girlhood,,,,,ES,2012/2/16,,eng,false,7,12267801,2033,2420,753,134,2012/1/1,,book,67,212,322,119,33,3.21,,,,0,0,Charlotte Silver,,,,,,1148,23,17,"adult,autobiography,biography,biography-memoir,contemporary,cooking,fiction,food,france,humor,memoir,non-fiction"
13556001,,"The Walking Dead, Vol. 14: No Way Out",,,,,ES,2011/6/21,Image Comics,eng,false,23,10822174,21238,66978,15497,597,2011/6/15,"The Walking Dead, Vol. 14: No Way Out ",book,7786,5419,1892,296,104,4.32,136,Paperback,,45,3,Robert Kirkman,"Charlie Adlard,Cliff Rathburn",,,,,2908,222,71,"action,adult,adult-fiction,adventure,comics,death,drama,dystopia,family,fantasy,fiction,graphic-novels,graphic-novels-comics,horror,manga,paranormal,post-apocalyptic,science-fiction,supernatural,survival,suspense,thriller,zombies"
13556501,0700618279,Abraham Lincoln and White America,9780700618279,,,,ES,2012/4/1,University of Kansas,en-US,false,4,13556501,21,22,6,1,2012/4/1,,book,2,1,2,1,0,3.67,240,Hardcover,,6,1,Brian R. Dirck,,,,,,13,-1,,"biography,history,politics"
13557501,,أهداف إسرائيل التوسعية في البلاد العربية,,,,,ES,1970/1/1,,ara,false,3,13050452,65,30,8,2,1970/1/1,أهداف إسرائيل التوسعية في البلاد العربية,book,3,2,2,0,1,3.75,138,Paperback,الثالثة,2,1,محمود شيت خطاب,,,,,,45,1,,
13558001,8466308113,Ilona llega con la lluvia,9788466308113,,,,ES,2002/1/1,Punto de Lectura,spa,false,19,514016,818,1893,484,38,1988/1/1,Ilona llega con la lluvia,book,130,215,109,26,4,3.91,208,Paperback,,11,0,Álvaro Mutis,,,,,,206,10,9,"fiction,literature,novels"
13558501,B006ZLS8Z2,Shadow and Flame,,,,,ES,,Dreamcraft,eng,true,3,13558501,21,32,9,2,2012/1/18,,book,1,4,3,1,0,3.56,,Kindle Edition,,9,2,Mel Keegan,,,,,,8,6,,
13559001,,در کشور مردان,9786008211006,,,,ES,2016/1/1,کوله‌پشتی,per,false,67,63657,11517,17679,4816,694,1999/1/1,In the Country of Men,book,944,1889,1513,394,76,3.67,255,Paperback,,16,5,Hisham Matar,,,,شبنم سمیعیان,,5466,26,175,"adult-fiction,biography,contemporary,cultural,fiction,historical,historical-fiction,history,international,literary-fiction,literature,memoir,non-fiction,novels,politics,school,unfinished,war"
13559501,,Cold,,,,,ES,,,,false,1,13559501,1,0,0,0,,,book,0,0,0,0,0,0.00,,,,0,0,J Smolens,,,,,,,1,,
13560501,,"""Entrapment""",,,,,ES,,,eng,true,1,13560501,4,10,2,1,,,article,2,0,0,0,0,5.00,,ebook,,2,1,T.M.  Hunter,,,,,,1,0,,science-fiction
13561001,,1 Moolaysia,9789671004449,,,,ES,2012/1/1,Anillusca Ideas Enterprise,eng,false,1,13561001,10,14,4,2,2012/1/1,,book,0,2,2,0,0,3.50,98,Paperback,,4,2,Zunar,,,,,,5,0,1,"politics,short-stories"
13561501,8954608426,외국어를 공부하는 시간,9788954608428,,,,ES,2009/6/30,문학동네,kor,false,1,13561501,2,1,1,0,2009/6/30,,book,0,0,0,0,1,1.00,215,Paperback,,1,0,오현종,,,,,,1,0,,contemporary
13562001,097046083X,Renate Müller: Toys & Design,9780970460837,,,,ES,2011/3/31,R 20th Century/Whitehaus Media,eng,false,1,13562001,4,10,3,0,2011/3/31,,book,0,1,2,0,0,3.33,80,Hardcover,,3,0,"Evan Snyderman,Renate Müller",,,,,,1,0,,
13562501,8184776977,Shakuntala: And Other Timeless Tales From Ancient India,9788184776973,,,,ES,2007/1/1,Nixon-Carre Ltd,eng,false,3,13562501,68,85,24,4,2007/1/1,,book,6,6,9,1,2,3.54,,Paperback,,18,2,Adithi Rao,,,,,,37,0,3,classics
13563001,526700216X,Петербургские зимы,,,,,ES,2000/1/1,Азбука,rus,false,2,13563001,59,158,37,2,1928/1/1,Петербургскiя зимы,book,16,15,6,0,0,4.27,288,Paperback,,36,2,Georgy Ivanov,,,,,,21,2,,"biography,classics,memoir,non-fiction,queer"
13563501,9775193982,الشريعة الإسلامية والقانون المصري,,,,,ES,1996/1/1,مكتبة مدبولى الصغير,ara,false,1,13563501,42,13,4,0,1996/1/1,,book,2,0,0,1,1,3.25,104,Paperback,,4,0,محمد سعيد العشماوي,,,,,,34,1,,
13564001,,Broken Seals,,,,,ES,1980/1/1,Western Goals,,false,1,13564001,1,0,0,0,1980/1/1,,book,0,0,0,0,0,0.00,,,,0,0,John M. Ashbrook,,,,,,,0,,
13564501,9738951348,Istoria lumii,,,,,ES,2006/1/1,Pro Editura,rum,false,103,61505,37146,62303,15147,1517,1936/1/1,Eine kurze Weltgeschichte für junge Leser: Von der Urzeit bis zur Gegenwart,book,6077,5684,2608,580,198,4.11,304,,,7,0,E.H. Gombrich,,,,,,17136,75,2171,"childrens,classics,education,fiction,historical,history,literature,non-fiction,politics,reference,science,unfinished,young-adult"
13565001,,Face au mur,9782081279988,,,,ES,2012/3/7,Flammarion,fre,false,3,13565001,10,14,3,1,2012/3/7,,book,2,1,0,0,0,4.67,368,Paperback,,2,0,Cesare Battisti,,,,,,6,0,,fiction
13565501,,Lying to the Muse,,B006CBKCR2,,,ES,2011/11/22,S Ramirez,eng,true,1,13565501,0,0,0,0,2011/11/22,,book,0,0,0,0,0,0.00,,ebook,,0,0,S. Ramirez,,,,,,,0,,
13566001,,عبد الناصر ورأفت الهجان، ربع قرن على هزيمة يونيو 1967 – 1992,,,,,ES,,,ara,false,1,13566001,26,16,7,1,,,book,1,0,1,3,2,2.29,,Paperback,,7,1,محمد مورو,,,,,,18,0,,politics
13566501,1453207104,Cousin Rosamund,9781453207109,,,,ES,2010/12/21,Open Road Media,,true,14,691673,545,769,202,21,1986/5/6,Cousin Rosamund,book,56,72,55,17,2,3.81,304,ebook,,0,0,Rebecca West,,,,,,283,12,7,"british-literature,classics,family,fiction,historical,historical-fiction,literary-fiction,music,short-stories"
13567001,1453222340,"Paragon Walk (Charlotte & Thomas Pitt, #3)",9781453222348,,,,ES,2011/6/14,Open Road Media,,true,40,72741,9154,22447,5857,266,1981/1/1,Paragon Walk ,book,1363,2432,1806,230,26,3.83,248,ebook,,38,6,Anne Perry,,,,,,1280,19,307,"adult,adult-fiction,cozy-mystery,crime,detective,fiction,historical,historical-fiction,history,murder-mystery,mystery,mystery-thriller,romance,thriller,victorian"
13567501,145323103X,The Gymnastics Mystery,9781453231036,,,,ES,2011/9/6,Albert Whitman & Company,,true,16,242228,954,1555,385,13,1999/1/1,The Gymnastics Mystery (Boxcar Children Mysteries),book,160,113,85,21,6,4.04,134,ebook,,0,0,Gertrude Chandler Warner,,,,,,355,17,32,"childrens,fiction,middle-grade,mystery,school"
13568001,1453235175,Helen,9781453235171,,,,ES,2011/12/20,Open Road Media Mystery  Thriller,,true,5,13567943,25,20,5,0,1968/1/1,,book,1,3,1,0,0,4.00,188,ebook,,0,0,"E.V. Cunningham,Howard Fast",,,,,,13,1,,fiction
13568501,9044506005,De stenen kist,9789044506006,,,,ES,2005/1/18,De Geus,nl,false,24,10248324,1184,2034,612,97,2001/1/1,Stenkistan,book,52,212,256,66,26,3.32,414,Paperback,,43,5,Kjell Eriksson,,,,Tine P.G. Jorissen-Wedzinga,,283,13,55,"contemporary,crime,european-literature,fiction,mystery,mystery-thriller,novels,suspense,thriller"
13569001,,Lust for Life,,,,,ES,1939/1/1,Random House,eng,false,126,79834,37596,76837,18160,1037,1934/1/1,Lust for Life,book,8562,6225,2613,528,232,4.23,489,,,45,6,Irving Stone,,,,,,16493,10,641,"adult,adult-fiction,american,art,biography,biography-memoir,classics,fiction,france,historical,historical-fiction,history,literary-fiction,literature,memoir,mental-illness,non-fiction,novels"
13569501,,Sinful Wager,9781605217246,,,,ES,2011/1/1,Changeling Press,,true,2,13569501,17,21,5,3,2011/1/1,,book,3,0,2,0,0,4.20,70,ebook,,5,3,Alice Gaines,,,,,,12,3,,"paranormal,romance"
13570001,,Highway 90,,,,,ES,2012/1/1,,eng,true,3,13570001,1,0,0,0,2011/12/31,Highway 90,book,0,0,0,0,0,0.00,,ebook,,0,0,Heather  Ross,,,,,,,0,,
13570501,,The Depot Master,,,,,ES,1910/1/1,A.L. Burt Company,eng,false,34,1649092,22,46,11,1,1910/1/1,The Depot Master,book,5,3,3,0,0,4.18,379,Hardcover,,0,0,Joseph Crosby Lincoln,,,,,,3,0,3,
13571001,849953239X,La Niñez del Padre Roxas,9788499532394,,,,ES,2010/8/31,Linkgua,,false,5,1551172,0,0,0,0,1988/5/1,La Ninez del Padre Rojas,book,0,0,0,0,0,0.00,140,Hardcover,,0,0,Lope de Vega,,,,,,,0,,
13571501,0300092822,A Short History of Money,9780300092820,,,,ES,1959/12/11,Yale University Press,,false,1,13571501,4,6,2,0,1959/12/11,,book,0,0,2,0,0,3.00,256,Hardcover,,2,0,Michael North,,,,,,2,0,,
13572001,,poems by Edna St. Vincent Millay,,,,,ES,1923/1/1,Martin Secker,,true,11,6947803,1399,2353,534,31,1923/1/1,,book,294,171,61,8,0,4.41,43,ebook,,1,0,Edna St. Vincent Millay,,,,,,751,15,25,"american,british-literature,classics,feminism,lgbt,literature,non-fiction,plays,poetry,queer"
13572501,,Mysteries of the Ancient World,,,,,ES,,,,false,5,9722658,71,44,12,0,,Mysteries of the Ancient World Explored and Explained,book,2,5,4,1,0,3.67,,,,1,0,Judith Flanders,,,,,,50,1,1,"mystery,non-fiction"
13573001,0345803108,The Inferno,9780345803108,,,,ES,2012/7/11,Anchor,,true,1177,15645,270307,496396,124267,4195,1320/1/1,,book,46172,42712,26141,7023,2219,3.99,642,ebook,,2,0,Dante Alighieri,,,,,,113650,744,5968,"adult,adult-fiction,christian,christianity,classic-literature,classics,college,epic,european-literature,fantasy,fiction,high-school,historical,historical-fiction,history,horror,literature,medieval,mythology,novels,philosophy,poetry,religion,school,spirituality,theology,unfinished"
13573501,1416954201,Tea for Ruby,9781416954200,,,,ES,2012/8/28,Simon  Schuster/Paula Wiseman Books,,false,18,3002285,1485,4232,1016,99,2008/1/1,Tea for Ruby,book,499,262,192,50,13,4.17,40,Paperback,,8,2,Sarah Ferguson,,,,,,310,12,3,"adventure,childrens,family,fiction,food,picture-books,realistic-fiction"
13574001,,Fasung,,,,,ES,2002/1/1,Naklada MD,,false,1,13574001,44,67,18,1,2002/1/1,,book,3,9,4,2,0,3.72,200,Paperback,,18,1,Bekim Sejranović,,,,,,24,0,,
13574501,,Making the Grade,,B007HH86XM,,,ES,2012/3/5,melaniejameserotica.blogspot.com,eng,true,1,13574501,11,0,0,0,2012/3/5,,book,0,0,0,0,0,0.00,9,Kindle Edition,,0,0,Melanie   James,,,,,,11,0,,
13575001,1469188309,IT WAS 1975 (Rags to Riches and Sometimes Voices),9781469188300,,,,ES,2012/4/2,Xlibris,eng,false,1,13575001,3,15,3,0,2012/4/2,,book,3,0,0,0,0,5.00,314,Paperback,,3,0,David R. Keith,,,,,,,0,1,
13575501,142996412X,Pulse,9781429964128,,,,ES,2009/5/26,St. Martin's Griffin,,false,6,6405913,9549,17538,4425,248,2009/5/26,Pulse,book,1605,1486,999,237,98,3.96,,Paperback,Large Print,0,0,Jeremy Robinson,,,,,,4533,21,89,"action,adult,adventure,fantasy,fiction,horror,mystery,mystery-thriller,mythology,novels,paranormal,science,science-fiction,science-fiction-fantasy,supernatural,suspense,thriller,urban-fantasy"
13576001,9507822364,"Cartas, anécdotas y testimonios",,,,,ES,2002/1/1,Clarín,spa,false,1,13576001,5,10,3,1,2002/1/1,,book,1,0,1,1,0,3.33,62,,,3,1,José de San Martín,,,,,,1,0,,
13576501,,View Controller Programming Guide for iOS,,,,,ES,2012/2/16,Apple Inc.,eng,true,1,13576501,5,5,2,0,2012/2/16,,book,0,0,1,1,0,2.50,108,ebook,,2,0,Apple Inc.,,,,,,2,0,,
13577001,1453250328,"Thunder City (Detroit, #7)",9781453250327,,,,ES,2012/3/27,Open Road Media,,true,11,644284,199,311,81,14,1999/1/1,Thunder City: A Novel of Detroit (Detroit Series),book,23,29,24,3,2,3.84,248,ebook,,0,0,Loren D. Estleman,,,,,,82,2,12,"crime,fiction,historical,historical-fiction,history,mystery,mystery-thriller"
13577501,8466621342,"La confusión (Ciclo Barroco, #2, Parte #1)",9788466621342,,,,ES,2005/3/1,Ediciones B,spa,false,6,227967,1535,4141,932,14,2004/4/13,The confusion,book,544,281,87,16,4,4.44,496,Paperback,NOVA,4,0,Neal Stephenson,,,,,,195,9,6,"adventure,economics,epic,fantasy,fiction,historical,historical-fiction,history,magical-realism,novels,science,science-fiction,science-fiction-fantasy,speculative-fiction,urban-fantasy"
13578001,9791682291,Etika Hidup Orang Jawa,0780791682299,,,,ES,2010/1/1,Penerbit Narasi,ind,false,1,13578001,76,61,15,0,2010/1/1,Etika Hidup Orang Jawa,book,7,4,3,0,1,4.07,272,Paperback,,15,0,Suwardi Endraswara,,,,,,49,0,3,
13578501,146807234X,CROSSOVER II: Straight Men - Gay Encounters,9781468072341,,,,ES,2012/2/1,Icon Empire Press,eng,false,3,13578501,18,0,0,0,2012/1/1,,book,0,0,0,0,0,0.00,132,Paperback,,0,0,Robert Joseph Greene,,,,,,13,0,1,
13579001,,Под пологом пьяного леса,9785699486076,,,,ES,2011/1/1,Эксмо,rus,false,33,977388,2670,6614,1582,41,1956/1/1,The Drunken Forest,book,627,646,281,24,4,4.18,352,Paperback,Pocket Book,9,1,"Gerald Durrell,Джеральд Даррелл",,,,,,756,21,18,"adventure,animals,autobiography,biography,biography-memoir,fiction,funny,humor,literature,memoir,nature,non-fiction,science,travel"
13579501,,"Проект ""Дълголетие"" ",9789547692800,,,,ES,2012/1/1,Обсидиан ,eng,false,18,9664025,2259,2632,728,132,2011/1/13,,book,139,282,207,88,12,3.62,,Paperback,,2,0,"Howard S. Friedman,Leslie R. Martin",,,,,,387,13,60,"adult,business,contemporary,education,fiction,food,health,non-fiction,personal-development,philosophy,psychology,science,self-help,sociology,spirituality"
13580001,0310334748,The Guest Book (Sunset Beach #2),9780310334743,,,,ES,2012/7/3,Zondervan,eng,false,9,13580001,2387,3951,1064,147,2012/7/8,The Guest Book,book,253,379,327,84,21,3.71,352,Paperback,,767,126,Marybeth Mayhew Whalen,,,,,,376,28,66,"chick-lit,christian,christian-fiction,contemporary,drama,fiction,historical-fiction,romance"
13580501,9513007618,Avain,,,,,ES,1961/1/1,Tammi,fin,false,83,93839,7122,12009,3348,365,1956/1/1,鍵,book,654,1204,1061,311,118,3.59,139,Hardcover,,28,3,Jun'ichirō Tanizaki,,,,Tuomas Anhava,,3001,15,71,"adult-fiction,classics,contemporary,drama,erotica,fiction,historical-fiction,literary-fiction,literature,modern-classics,novella,novels,relationships,romance"
13581001,3822873578,Ciencia Ficción,9783822873571,,,,ES,1998/1/1,Evergreen,spa,false,4,780684,71,139,37,5,1997/11/1,Forrest J Ackerman's World of Science Fiction,book,7,17,11,1,1,3.76,240,Paperback,,4,1,,,,,,,16,2,,"biography,fiction,historical,history,non-fiction,reference,science,science-fiction"
13581501,,Os Defeitos de Maria,9789728835415,,,,ES,2007/5/1,Lucerna,por,false,1,13581501,5,13,3,0,2007/5/1,Os Defeitos de Maria,book,1,2,0,0,0,4.33,143,,,3,0,Gonçalo Portocarrero de Almada,,,,,,,0,,
13582001,,Gece Sirki,9786055289102,,,,ES,2012/4/1,Pegasus Yayıncılık,tur,false,132,9361589,1090172,2267472,561472,62146,2011/9/13,The Night Circus,book,228507,186621,99104,33901,13339,4.04,512,Paperback,,74,13,Erin Morgenstern,,,,Sevinç Tezcan Yanar,,15190,3629,545,"adult,adult-fiction,adventure,contemporary,fantasy,fiction,historical,historical-fiction,literary-fiction,love,magic,magical-realism,mystery,novels,paranormal,romance,supernatural,unfinished,urban-fantasy,young-adult"
13582501,0906393388,Lunardi,,,,,ES,1963/1/1,Airlife Publishing Ltd.,eng,false,1,13582501,1,3,1,0,1963/1/1,,book,0,0,1,0,0,3.00,192,Hardcover,,1,0,Leslie Gardiner,,,,,,,0,,historical
13583001,B006NZ4UUW,"An Italian Journey: A Harvest of Revelations in the Olive Groves of Tuscany: A Pretty Girl, Seven Tuscan Farmers, and a Roberto Rossellini Film",,,,,ES,2011/12/18,CAMPAGNA,,true,1,13583001,53,54,18,3,2011/12/18,,book,3,2,7,4,2,3.00,,Kindle Edition,No illustrations/Kindle format edition,18,3,James Shaw,,,,,,30,1,3,non-fiction
13583501,,The Mask of Jon Culon,,,,,ES,1970/1/1,,,false,2,13583501,4,10,3,0,1970/1/1,,book,0,1,2,0,0,3.33,,,,2,0,Edward W. Ludwig,,,,,,,0,,science-fiction
13584001,,"Gaudy Night (Lord Peter Wimsey Mysteries, #12)",,,,,ES,1978/1/1,New English Library,,false,131,93575,34858,87279,20606,1444,1935/1/1,Gaudy Night,book,10054,6609,2957,716,270,4.24,446,Paperback,,6,1,Dorothy L. Sayers,,,,,,10716,109,739,"adult,adult-fiction,british-literature,classics,college,cozy-mystery,crime,detective,feminism,fiction,historical,historical-fiction,literature,murder-mystery,mystery,mystery-thriller,novels,romance,thriller"
13584501,081304149X,Part of a Complete Breakfast: Cereal Characters of the Baby Boom Era,9780813041490,,,,ES,2012/9/2,University Press of Florida,,false,1,13584501,55,92,24,6,2012/9/21,,,4,13,6,1,0,3.83,256,Hardcover,,24,6,Tim Hollis,,,,,,24,3,,"business,cooking,food,health,history"
13585001,0890837139,Brannigan,9780890837139,,,,ES,1981/1/1,Zebra,,false,1,13585001,1,3,1,0,1981/1/1,,,0,0,1,0,0,3.00,206,Paperback,,1,0,"E. Newsome,Ed Newsom",,,,,,,0,,
13585501,0758269404,"The Chocolate Thief (Amour et Chocolat, #1)",9780758269409,,,,ES,2012/7/31,Kensington Publishing Corporation,eng,false,16,13585501,11143,14716,4067,683,2012/7/31,,book,838,1514,1194,367,154,3.62,303,Paperback,,3441,561,Laura Florand,,,,,,5931,114,279,"adult,adult-fiction,chick-lit,comedy,contemporary,cooking,fiction,food,france,funny,humor,new-adult,novels,realistic-fiction,romance,travel"
13586001,1550962604,The Kid from Simcoe Street: A Memoir and Poems,9781550962604,,,,ES,2012/6/1,Exile Editions,,false,2,13586001,4,2,1,0,2012/5/1,,,0,0,0,1,0,2.00,296,Paperback,,1,0,James Clarke,,,,,,2,0,,
13586501,1884733743,Talking About Naval History: A Collection of Essays: A Collection of Essays,9781884733741,,,,ES,2012/2/2,Dept. of the Navy,,false,1,13586501,0,0,0,0,2012/2/2,,,0,0,0,0,0,0.00,368,Paperback,,0,0,,,,"John B. Hattendorf,U.S. Naval War College",,,,0,,
13587001,1907317902,Central Line Series: Art on the Underground,9781907317903,,,,ES,2013/1/22,Black Dog Publishing,,false,1,13587001,7,10,3,0,2012/9/25,,,0,1,2,0,0,3.33,88,Hardcover,,3,0,,,,"Charlotte Bonham-Carter,Louise Coysh,Tamsin Dillon",,,3,0,,
13587501,8499170919,"Historia sangrienta de la iglesia: Las guerras sagradas que desencadenaron los papas, cardenales y obispos",9788499170916,,,,ES,2011/1/1,Redbook Ediciones,,false,1,13587501,2,0,0,0,2011/1/1,,,0,0,0,0,0,0.00,256,Paperback,,0,0,D. S. Chambers,,,,,,,0,,
13588001,8499530362,Cuentos de mi tiempo,9788499530369,,,,ES,2011/8/31,Linkgua,,false,13,18927514,27,20,6,0,2008/10/17,,,0,2,4,0,0,3.33,140,Paperback,,0,0,Jacinto Octavio Picón,,,,,,8,0,3,
13588501,1845844173,British and European Trucks of the 1980s,9781845844172,,,,ES,2013/10/1,Veloce Publishing,,false,1,13588501,1,5,1,1,2012/5/1,,,1,0,0,0,0,5.00,96,Paperback,,1,1,Colin Peck,,,,,,,0,,history
13589001,0762102144,Using the Band Saw,9780762102143,,,,ES,1999/1/1,Readers Digest,,false,3,6476786,1,0,0,1,1995/11/15,Using the Band Saw (The Workshop Companion),,0,0,0,0,0,0.00,128,Paperback,,0,0,Nick Engler,,,,,,1,0,,
13589501,0451612027,"Major American Poets, The Mentor Book of",9780451612021,,,,ES,1962/7/1,Signet,,false,13,266128,455,589,147,9,1962/7/1,The Mentor Book of Major American Poets,book,50,55,36,5,1,4.01,,Paperback,,0,0,,,,Oscar Williams,,,168,12,17,"classics,college,fiction,literature,non-fiction,poetry,reference"
13590001,0735668833,Security and Privacy for Microsoft Office 2010 Users,9780735668836,,,,ES,2012/3/16,Microsoft Press,,false,6,18692941,64,76,22,1,2012/3/9,,,3,6,11,2,0,3.45,100,Paperback,,1,0,Mitch Tulloch,,,,,,32,1,1,"non-fiction,reference,technology"
13590501,0806955953,Balloon: First Learning Games,9780806955957,,,,ES,2000/6/30,Balloon,,false,1,13590501,0,0,0,0,2000/6/30,,,0,0,0,0,0,0.00,16,Paperback,,0,0,,,,,,,,0,,
13591501,1616387912,Sanidad Cuando la Confianza Se Pierde: Cómo encontrar el perdón y la restauración,9781616387914,,,,ES,2012/8/7,Casa Creación,,false,6,11756718,401,647,145,22,2011/1/1,,,96,34,7,2,6,4.46,208,Paperback,,0,0,Cindy Beall,,,,,,121,3,76,"adult,leadership,marriage,non-fiction,self-help"
13592001,1849542155,Distilling the Frenzy: Writing the History of Our Times,9781849542159,,,,ES,2012/12/11,Biteback Publishing,,false,4,13592001,44,64,20,3,2012/5/29,,,1,5,11,3,0,3.20,304,Hardcover,,15,3,Peter Hennessy,,,,,,14,0,2,"history,politics"
13592501,0533165091,"Little Man in a Big Hurry: The Life of Joseph Hirshhorn, The Man Behind the Museum",9780533165094,,,,ES,2012/3/23,Vantage Press,,false,1,13592501,2,3,1,0,2012/3/23,,,0,0,1,0,0,3.00,352,Paperback,,1,0,Gene Hirshhorn Lepere,,,,,,1,0,,
13593001,0762780290,"The Devil's Causeway: The True Story of America's First Prisoners of War in the Philippines, and the Heroic Expedition Sent to Their Rescue",9780762780297,,,,ES,2012/9/18,Lyons Press,,false,3,13593001,695,285,70,24,2012/9/6,,,32,18,15,3,2,4.07,432,Hardcover,,70,24,Matthew Westfall,,,,,,22,22,2,"american-history,history,non-fiction,war"
13593501,3830410867,Illustrated Veterinary Anatomical Nomenclature,9783830410867,,,,ES,2011/12/14,Thieme,,false,2,13593501,2,0,0,0,2011/11/23,,,0,0,0,0,0,0.00,632,Hardcover,,0,0,,,,"Gheorghe Constantinescu,Oskar Schaller",,,1,0,1,
13594001,030017439X,"City of Gold: The Archaeology of Polis Chrysochous, Cyprus",9780300174397,,,,ES,2012/10/22,Princeton University Art Museum,,false,1,13594001,3,10,2,0,2012/11/27,,,2,0,0,0,0,5.00,360,Paperback,,2,0,,,,"J. Michael Padgett,Joanna S. Smith,William Childs",,,1,0,,
13594501,1453206337,"Haven: The Dramatic Story of 1,000 World War II Refugees and How They Came to America",9781453206331,,,,ES,2010/10/19,Open Road Media,,false,16,171587,2231,2924,705,87,1983/1/1,"Haven: The Dramatic Story of 1,000 World War II Refugees and How They Came to America",book,291,271,109,24,10,4.15,374,Paperback,,3,0,Ruth Gruber,,,,,,1319,20,76,"autobiography,biography,biography-memoir,historical,history,memoir,non-fiction,survival,war"
13595001,1935952692,The Mirror Effect: More Than Soul Mates; 6 Steps to Finding Your Magical Match Using Online Dating,9781935952695,,,,ES,2013/5/28,Confluence Books,,false,3,13595001,4,9,3,2,2012/11/13,,,1,0,1,0,1,3.00,128,Paperback,,2,2,"Judy Day,Troy Pummill",,,,,,1,0,,
13595501,2864245728,L'immense obscurité de la mort,,,,,ES,2006/3/9,Métailié,,false,15,505775,673,1288,335,65,2004/5/9,L'oscura immensità della morte,book,84,144,82,21,4,3.84,191,Paperback,,1,0,Massimo Carlotto,,,,Laurent Lombard,,204,6,3,"crime,fiction,mystery,novels,suspense,thriller"
13596001,,Prey,9780857876676,,,,ES,2012/4/10,Black Library,eng,true,1,13596001,37,34,10,0,2012/4/10,,book,0,4,6,0,0,3.40,11,ebook,,10,0,George Mann,,,,,,20,2,,science-fiction
13596501,281120704X,Doctor Who: Le Dragon du Roi,9782811207045,,,,ES,2012/4/20,Milady,fre,false,9,7670619,2534,3363,920,82,2010/1/1,,book,226,274,308,101,11,3.66,288,Mass Market Paperback,,9,1,Una McCormack,,,,Hervé Capaldi,,1270,23,21,"action,adventure,aliens,fantasy,fiction,film,juvenile,novels,science,science-fiction,time-travel,young-adult"
13597001,,The Darker Side: Short Stories,9781476306094,,,,ES,2012/4/20,Midnight Hour Publishing,eng,true,5,18222137,48,63,14,9,2012/1/5,,book,9,3,2,0,0,4.50,57,ebook,,3,3,"L.D. Hutchinson,Leah Diane",,,,,,21,0,4,"amazon,fantasy,horror,short-stories"
13597501,,Hagen von Tronje,,,,,ES,1997/1/1,Heyne,ger,false,3,97254,466,1202,316,12,1986/1/1,Hagen von Tronje,book,81,122,84,28,1,3.80,509,Paperback,,6,0,Wolfgang Hohlbein,,,,,,56,11,2,"fantasy,fiction,high-school,historical,historical-fiction,history,mythology,young-adult"
13598001,9049999131,Cash Express : zeven teams strijden om 1 miljoen in een reis rond de wereld,9789049999131,,,,ES,2007/6/13,Truth & Dare,nl,false,29,842582,7573,16151,4952,817,2006/1/1,Lost and Found,book,437,1481,2143,722,169,3.26,312,Paperback,,14,0,Carolyn Parkhurst,,,,Maya Denneman,,1605,62,61,"adult,adult-fiction,adventure,chick-lit,christianity,contemporary,drama,family,fiction,gay,humor,lgbt,literary-fiction,literature,novels,realistic-fiction,relationships,travel,young-adult"
13598501,,Berlitz Ireland Pocket Guide,9789812684981,,,,ES,2009/1/1,Berlitz,eng,false,1,13598501,3,7,2,0,2009/1/1,,book,0,1,1,0,0,3.50,,Paperback,,2,0,"Berlitz Publishing Company,Ken Berstein",,,,,,1,0,,
13599001,,O Livro de Areia,9788579490477,,,,ES,2012/4/15,Folha de S. Paulo,por,false,99,146422,19435,37413,9022,574,1975/1/1,El libro de arena,book,3793,3277,1528,332,92,4.15,104,Hardcover,,109,10,Jorge Luis Borges,,,,Davi Arrigucci Jr,,7996,22,322,"classics,fantasy,fiction,historical-fiction,horror,literary-fiction,literature,magical-realism,modern-classics,novels,philosophy,poetry,romance,short-stories,speculative-fiction"
13599501,,"Teatime Bliss: Celebrating Scones, Sweets & Savories",,B007JM2PXC,,,ES,2012/1/1,,eng,false,1,13599501,7,10,2,0,2012/1/1,,book,2,0,0,0,0,5.00,116,Paperback,,2,0,Victoria Magazine,,,,,,4,1,,cookbooks
13600001,,Quote Sport Unquote,9781466196414,,,,ES,2011/7/1,Smashwords,eng,true,2,13600001,0,0,0,0,2011/7/1,,book,0,0,0,0,0,0.00,,ebook,,0,0,John   Barber,,,,,,,0,,
13600501,1463748833,Iran's World: Breaking Out of the Mountain Fortress,9781463748838,,,,ES,2011/7/26,CreateSpace,eng,false,1,13600501,4,12,3,0,2011/7/26,,book,0,3,0,0,0,4.00,284,Paperback,,3,0,Stratfor,,,,,,1,0,,politics
13601001,0976997401,From Shaniko to Pearl Harbor,9780976997405,,,,ES,2005/4/30,Trinettes Books,eng,false,2,13601001,343,58,13,5,2005/4/30,,book,8,3,2,0,0,4.46,62,Paperback,,12,5,Bob   Weber,,,,,,327,1,,"biography,historical,history,non-fiction,war"
13601501,,L' écornifleur,,,,,ES,,,,false,23,1469684,101,181,54,4,1892/1/1,L'Écornifleur,book,6,17,22,8,1,3.35,,,,2,0,Jules Renard,,,,,,38,2,,"contemporary,fiction,funny,novella,social"
13602001,,Not Quite Dead Enough,,,,,ES,1963/2/1,Pyramid Books,eng,false,25,77612,3880,9992,2489,137,1944/9/7,Not Quite Dead Enough,book,779,1048,588,67,7,4.01,158,Mass Market Paperback,Pyramid R-822,4,0,Rex Stout,,,,,,425,16,137,"adult-fiction,american,classics,cozy-mystery,crime,detective,fiction,historical,humor,murder-mystery,mystery,mystery-thriller,novels,short-stories,thriller,war"
13602501,9790663145,L: Sebelas Celita,9789790663145,,,,ES,2010/1/1,DAR! Mizan,ind,false,1,13602501,15,25,9,3,2010/1/1,,book,1,1,3,3,1,2.78,192,Paperback,,9,3,Asa Mulchias,,,,,,5,0,,"comedy,fiction"
13603001,343902573X,Bienchen und Strolch,,,,,ES,1966/1/1,Fischer,ger,false,1,13603001,3,3,1,0,1966/1/1,,book,0,0,1,0,0,3.00,78,Hardcover,,1,0,Martha Schlinkert,,,,,,1,0,,
13603501,904176240X,Voor mijn zussen,9789041762405,,,,ES,2009/8/1,Muntinga Pockets,nl,false,23,700814,1029,1892,480,25,2005/1/1,All My Sisters,book,153,191,100,27,9,3.94,550,Paperback,,11,0,Judith Lennox,,,,Titia Ram,,393,12,32,"fiction,historical,historical-fiction,history,romance"
13604001,8817031860,Hamburger e miracoli sulle rive di Shell Beach,9788817031868,,,,ES,2000/1/1,BUR Biblioteca Univ. Rizzoli,ita,false,36,199531,20227,50820,12865,960,1981/1/1,Daisy Fay and the Miracle Man,book,4204,4735,3158,618,150,3.95,304,Paperback,,25,8,Fannie Flagg,,,,,,4720,27,384,"adult,adult-fiction,american,chick-lit,comedy,contemporary,drama,family,fiction,funny,historical,historical-fiction,humor,literary-fiction,literature,novels,realistic-fiction,young-adult"
13604501,,Strangers May Kiss,,,,,ES,1930/7/1,Jonathan Cape & Harrison Smith,eng,false,2,13604501,13,11,3,0,1930/1/1,,book,1,0,2,0,0,3.67,373,Hardcover,2nd Printing,3,0,Ursula Parrott,,,,,,9,0,,fiction
13605001,,O Alcaide de Santarém / A Dama Pé de Cabra,9789726806769,,,,ES,2006/1/1,Lisboa Editora,por,false,1,13605001,13,27,6,1,2006/1/1,O Alcaide de Santarém / A Dama Pé de Cabra,book,3,3,0,0,0,4.50,112,Paperback,,6,1,Alexandre Herculano,,,,,,4,0,1,
13605501,9789381836,Love Beyond Boundaries ,,,,,ES,2012/1/1,Leadstart Publishing Pvt. Ltd.,eng,false,2,13605501,3,6,2,0,2012/1/1,,book,1,0,0,0,1,3.00,70,Paperback,,2,0,Parikshit Rane,,,,,,1,0,,
13606001,1849899983,Working Out the Kinks,9781849899987,,,,ES,2012/1/25,House of Erotica,eng,true,4,13606001,12,6,2,2,2012/1/24,,book,0,0,2,0,0,3.00,29,ebook,,2,2,Angela R. Sargenti,,,,,,4,0,,erotica
13606501,,Poèmes érotiques,,,,,ES,1979/10/10,Éditions Jean-Claude Lattès,fre,false,3,1519731,26,68,17,0,1979/10/10,"Poèmes érotiques : Les amies, Femmes, Hombres, Filles",book,6,5,6,0,0,4.00,188,Paperback,,0,0,Paul Verlaine,,,,,,6,1,,"france,poetry"
13607001,1451269048,Christian Witch's Notebook,9781451269048,,,,ES,2011/1/1,PublishAmerica,eng,false,1,13607001,36,1,1,0,2011/1/1,Christian Witch's Notebook,book,0,0,0,0,1,1.00,113,Paperback,,1,0,"H. Fuller Hutchinson,Jade Dove",,,,,,33,0,,
13607501,9606006875,Νυχτερινό Τρένο,9789606006876,,,,ES,1999/1/1,Εκδόσεις Πατάκη,gre,false,49,23040,6559,13201,4071,367,1997/1/1,Night Train,book,397,1213,1609,685,167,3.24,166,Paperback,,2,0,Martin Amis,,,,,,1570,34,37,"adult-fiction,british-literature,class,classics,contemporary,crime,detective,english-literature,fiction,literary-fiction,literature,mystery,mystery-thriller,novels,suspense,thriller"
13608001,,نگران نباش,9789643625030,,,,ES,2008/3/1,نشر چشمه,per,false,7,6136770,1398,2310,790,72,2008/1/1,نگران نباش,book,81,163,265,177,104,2.92,147,,,29,1,مهسا محب علی,,,,,,371,2,14,"adult,fiction,literature,novella,novels,young-adult"
13608501,0231148097,Thinking Animals: Why Animal Studies Now?,9780231148092,,,,ES,2012/4/24,Columbia University Press,en-US,false,5,13608501,87,105,29,4,2012/4/24,,book,6,10,10,2,1,3.62,216,Paperback,,28,4,Kari Weil,,,,,,45,2,2,"animals,non-fiction,school"
13609001,8875211116,Creature ostinate,9788875211110,,,,ES,2006/10/1,Minimum Fax,ita,false,16,46205,11271,18459,4628,511,2005/8/16,Willful Creatures,book,1547,1841,941,238,61,3.99,158,Paperback,Sotterranei #105,42,8,Aimee Bender,,,,Martina Testa,,5860,48,85,"adult,adult-fiction,american,anthologies,collections,contemporary,fantasy,fiction,literary-fiction,literature,magic,magical-realism,short-stories,speculative-fiction,unfinished"
13609501,,Brain Pickings,,B0029U2MTG,,,ES,,,,true,1,13609501,248,211,45,4,,,periodical,36,4,5,0,0,4.69,,Kindle Edition,,45,4,Maria Popova,,,,,,189,1,6,"art,non-fiction,philosophy"
13610001,9085160871,De familie Onderweg,9789085160878,,,,ES,2006/9/1,B for Books,nl,false,1,13610001,105,149,52,3,2006/9/1,,book,0,12,24,13,3,2.87,61,Hardcover,Literaire juweeltjes,52,3,Tommy Wieringa,,,,,,33,3,,literature
13610501,2212549997,Les 11 lois du marketing créatif,9782212549997,,,,ES,2011/6/16,Eyrolles ,fre,false,1,13610501,3,9,2,1,2011/6/16,,book,1,1,0,0,0,4.50,,Paperback,,2,1,Katalin Berenyi,,,,,,,0,1,
13611001,,مافن بالخمس,,,,,ES,2011/10/1,self published,ara,true,1,13611001,24,15,4,1,2011/10/1,,book,1,1,2,0,0,3.75,101,ebook,1,4,1,لطيفة الحاج,,,,,,16,0,1,
13611501,,Monster Allergy #8,,,,,ES,2005/4/1,Summit Media,eng,false,2,13611501,23,37,9,1,2005/1/26,L'abriteur du phare,book,6,0,1,2,0,4.11,,Unknown Binding,Philippine Edition,8,0,,,,Katja Centomo,,,5,0,,comics
13612501,8852214232,Topolino! Un pieno di avventure,9788852214233,,,,ES,2012/1/1,Walt Disney Company Italia,ita,false,1,13612501,5,3,1,0,2012/1/1,,book,0,0,1,0,0,3.00,196,Paperback,Special Edition for &quot;Eni &amp; Agip&quot;,1,0,"Giorgio Cavazzano,Giorgio Pezzin,Walt Disney Company",,,,,,2,0,,comics
13613001,8187616075,"Unknown Women: Aged, Widowed, Tribals & Urbans",,,,,ES,2003/1/1,Classique Books,eng,false,1,13613001,1,0,0,0,2003/1/1,,book,0,0,0,0,0,0.00,240,,,0,0,Ranjana Ray,,,,,,1,0,,
13613501,,Monster Hunter - Le regole della caccia,9788864683898,,,,ES,2011/3/1,Preziosi Book,ita,false,1,13613501,2,2,1,0,2004/1/1,,book,0,0,0,1,0,2.00,150,Hardcover,,1,0,Rin Yuuki,,,,,,,0,,
13614001,9510164860,Protestanttinen etiikka ja kapitalismin henki,,,,,ES,1990/1/1,WSOY,fin,false,259,74176,22700,35960,9244,383,1904/11/1,Die protestantische Ethik und der Geist des Kapitalismus,book,2763,3502,2312,534,133,3.89,250,Paperback,,1,1,"Max Weber,Timo Kyntäjä",,,,,,10268,30,545,"academic,anthropology,business,christian,christianity,class,classics,college,economics,faith,grad-school,historical,history,non-fiction,philosophy,politics,psychology,religion,school,science,society,sociology,textbooks,theology,unfinished"
13614501,0953047350,"Dreamwalker (The Ballad of Sir Benfro, #1)",9780953047352,,,,ES,2012/3/8,DevilDog Publishing,eng,true,11,13614501,2853,3865,1020,127,2012/3/8,Dreamwalker,book,276,390,247,77,30,3.79,325,ebook,,499,38,James  Oswald,,,,,,451,23,16,"adult,adventure,epic-fantasy,fantasy,fiction,high-fantasy,magic,novels,science-fiction,unfinished,young-adult"
13615001,9775345405,الله و الإنسان,,,,,ES,,,ara,false,1,13615001,76,94,25,0,1997/4/1,الله و الإنسان,book,10,7,3,2,3,3.76,256,,,25,0,البابا شنودة الثالث,,,,,,42,1,2,religion
13615501,,قتل الإسلام وتقديس الجناة,,,,,ES,2011/1/1,الانتشار العربي,ara,false,1,13615501,297,240,63,18,2011/1/1,قتل الإسلام وتقديس الجناة,book,18,26,12,3,4,3.81,392,Paperback,,63,18,وضّاح صائب,,,,,,79,1,,"philosophy,religion"
13616001,1470116308,The Beauty of a Slow Death: Understanding Acceptance and Learning to Live Differently Can Lead to Peace,9781470116309,,,,ES,2012/3/27,CreateSpace,en-US,false,3,13616001,11,15,3,1,2012/3/27,,book,3,0,0,0,0,5.00,80,Paperback,,2,1,Michele DeMeo,,,,,,7,1,,non-fiction
13616501,,"De Woestijnprinses (Prinsessen van Fantasia, #3)",9789054617907,,,,ES,2011/1/1,"Baeckens Books nv, Uitgeverij Bakermat",nl,false,9,13616501,528,1012,252,7,2010/1/1,Principessa del deserto,book,92,89,58,9,4,4.02,271,Hardcover,,111,2,Thea Stilton,,,,,,73,9,7,"fantasy,middle-grade,novels,paranormal"
13617001,,A Different Kind of Forever,9731475159165,,,,ES,2012/4/17,,eng,false,5,15885691,1365,2446,649,71,2012/4/1,,book,169,237,177,56,10,3.77,200,Paperback,,256,46,Dee Ernst,,,,,,476,10,101,"chick-lit,contemporary,humor,music,romance,young-adult"
13617501,,Lokki,9789524598859,,,,ES,2008/1/1,Loisto,fin,false,2,79649,35220,82168,20958,615,1895/1/1,Чайка,book,6851,7586,4889,1270,362,3.92,101,Paperback,,83,2,Anton Chekhov,,,,,,10451,149,238,"classic-literature,classics,college,comedy,drama,fiction,literature,novels,plays,romance,school,short-stories,theatre,tragedy"
13618001,9984175901,Pifa piedzīvojumi,9789984175904,,,,ES,1999/1/1,Zvaigzne ABC,lav,false,1,13618001,151,492,113,1,1999/1/1,,book,63,32,13,5,0,4.35,56,Paperback,,113,1,José Cabrero Arnal,,,,,,6,1,,"adventure,animals,childrens,european-literature,fantasy,fiction,humor,literature,picture-books"
13618501,,herbal medicine,,,,,ES,,,eng,false,1,13618501,1,0,0,0,,,book,0,0,0,0,0,0.00,,,,0,0,zentrum publishing,,,,,,,0,,
13619001,0060814071,Persecution,9780060814076,,,,ES,2004/10/12,HarperAudio,,false,8,760715,687,1007,268,26,2003/8/1,Persecution: How Liberals are Waging War Against Christians,book,86,91,49,24,18,3.76,,Audio,,0,0,David Limbaugh,,,,,,319,6,16,"christian,education,faith,history,non-fiction,politics,religion,research,society"
13619501,0060893745,Fantastic Mr. Fox,9780060893743,,,,ES,2005/9/27,HarperCollins,,false,206,6693,143843,361318,89332,3465,1970/1/1,Fantastic Mr Fox,book,33900,31200,19481,3824,927,4.04,0,Audio,,0,0,Roald Dahl,,,,,,35674,518,789,"adventure,animals,chapter-books,childrens,classics,family,fantasy,fiction,funny,humor,juvenile,middle-grade,novels,picture-books,school,young-adult"
13620001,0061449520,Tao Te Ching,9780061449529,,,,ES,2007/4/17,HarperAudio,,false,1506,67896,219736,405177,93905,3891,-500/1/1,道德經 [dào dé jīng],book,51087,26336,12571,2774,1137,4.31,,Audiobook,,9,4,Lao Tzu,,,,,,84765,138,23812,"classic-literature,classics,college,cultural,fiction,history,inspirational,leadership,literature,mythology,non-fiction,personal-development,philosophy,poetry,politics,psychology,reference,religion,school,self-help,spirituality,theology"
13620501,0061803596,L.A. Candy,9780061803598,,,,ES,2009/6/16,HarperCollins,,false,34,4758093,41568,81660,24319,2108,2009/1/1,L.A. Candy,book,4272,6373,8704,3726,1244,3.36,,Audiobook,,0,0,Lauren Conrad,,,,,,10915,197,558,"chick-lit,contemporary,drama,fiction,high-school,new-adult,novels,realistic-fiction,romance,teen,unfinished,young-adult"
13621001,0062002619,Big Nate: In a Class by Himself,9780062002617,,,,ES,2010/3/23,HarperCollins,,false,46,7150178,43302,116297,27798,1119,2010/1/1,Big Nate: In a Class By Himself,book,14733,6483,4356,1406,820,4.18,,Audiobook,,0,0,Lincoln Peirce,,,,,,12375,8,987,"adventure,chapter-books,childrens,comedy,comics,contemporary,fantasy,fiction,funny,graphic-novels,graphic-novels-comics,humor,juvenile,middle-grade,novels,realistic-fiction,school,young-adult"
13621501,006209467X,Whatever You Love: A Novel,9780062094674,,,,ES,2012/3/27,Harper Perennial,,true,24,8009124,5121,8429,2392,307,2010/1/1,Whatever you love,book,373,885,828,234,72,3.52,384,ebook,,1,1,Louise Doughty,,,,,,2264,41,74,"adult-fiction,chick-lit,contemporary,crime,family,fiction,literary-fiction,mystery,mystery-thriller,novels,psychology,relationships,suspense,thriller"
13622001,0824834992,"Women's Movements and the Filipina, 1986-2008",9780824834999,,,,ES,2012/2/1,University of Hawai'i Press,,false,2,13622001,20,18,5,0,2012/2/1,,book,0,3,2,0,0,3.60,288,Hardcover,,5,0,Mina Roces,,,,,,13,1,,non-fiction
13622501,0435055070,The Frog,,,,,ES,1992/1/1,Rigby Education,eng,false,1,13622501,1,3,1,1,1992/1/1,,book,0,0,1,0,0,3.00,24,Paperback,,1,1,Peter Garland,Ron Pedder,,,,,,0,,"childrens,science"
13623001,9543360154,Крузо в Англия,,,,,ES,2006/1/1,Стигмати,bul,false,1,13623001,7,24,6,0,,,,2,2,2,0,0,4.00,134,Paperback,,6,0,Elizabeth Bishop,,,,Димитър Кенаров,,1,0,,poetry
13623501,1443407925,History Homework For Grown-Ups,9781443407922,,,,ES,2011/9/27,Collins,,true,2,13623501,3,0,0,0,2011/9/27,,,0,0,0,0,0,0.00,77,ebook,,0,0,"B. Coates,E. Foley",,,,,,3,0,,
13624001,006220498X,God: A Story of Revelation,9780062204981,,,,ES,2012/10/16,HarperAudio,,false,19,13623922,2033,1961,516,69,2012/1/1,,book,163,166,128,39,20,3.80,,Audio CD,,12,5,Deepak Chopra,,,,,,245,12,127,"christian,contemporary,education,faith,fiction,history,non-fiction,philosophy,religion,self-help,spirituality,theology"
13624501,,The World Without Women,,,,,ES,1971/1/1,The Dial Press,,false,2,13624501,14,10,3,0,1936/1/1,Il monde senza donne,book,0,1,2,0,0,3.33,125,Hardcover,,2,0,Virgilio Martini,,,,,,9,0,1,
13625001,,Bunny's Bikini Beauties,,,,,ES,2002/1/1,Bunny Yeager,eng,false,1,13625001,1,5,1,1,2002/1/1,,book,1,0,0,0,0,5.00,100,Paperback,,1,1,Bunny Yeager,,,,,,,0,,
13625501,,Julegleder: jul for hele familien,9788205251915,,,,ES,1998/1/1,Gyldendal,nor,false,1,13625501,0,0,0,0,1998/1/1,Julegleder: jul for hele familien,book,0,0,0,0,0,0.00,188,Hardcover,,0,0,"Anne-Lise Mellbye,Ingrid Espelid Hovig",,,,,,,0,,
13626001,,Holy Bible,,,,,ES,1972/1/1,Cokesbury,,false,4072,1923820,283603,864526,195581,5049,1611/1/1,,book,146178,16472,13466,7885,11580,4.42,,Hardcover,,0,0,Anonymous,,,,,,50056,202,23666,"adult,biography,christian,christianity,classic-literature,classics,faith,fantasy,fiction,historical,historical-fiction,history,horror,inspirational,literature,mythology,non-fiction,philosophy,poetry,politics,reference,religion,school,self-help,spirituality,theology,unfinished"
13626501,,Апокалипсис I - Кантата за Лейбовиц,,,,,ES,1993/1/1,"Издателска група „Неохрон""",bul,false,133,164154,147874,324390,81504,4130,1959/10/1,A Canticle for Leibowitz,book,29850,28555,16504,4813,1782,3.98,304,Paperback,,9,2,Walter M. Miller Jr.,,,,,,58292,107,1414,"adult,adult-fiction,american,christianity,classics,dystopia,fantasy,fiction,literature,novels,philosophy,post-apocalyptic,religion,science,science-fiction,science-fiction-fantasy,speculative-fiction,unfinished,war"
13627001,,Naples Through the Centuries,,,,,ES,1925/1/1,London,,false,1,13627001,3,0,0,0,1925/1/1,,book,0,0,0,0,0,0.00,,Hardcover,,0,0,Lacy Collison-Morley,,,,,,3,0,,history
13627501,9781469785,Awaken and Unleash your Victor,,,,,ES,2012/3/21,iUniverse,eng,false,1,13627501,9,15,3,0,2012/3/21,,book,3,0,0,0,0,5.00,196,Hardcover,,3,0,Ogor Winnie Okoye,,,,,,5,0,2,
13628001,903511888X,Karel ende Elegast,9789035118881,,,,ES,1998/1/1,Prometheus / Bert Bakker Amsterdam,nl,false,21,6304965,1967,3593,1277,33,1250/1/1,Karel ende Elegast,book,35,220,589,338,95,2.81,112,Hardcover,,34,3,Unknown,,,,Karel Eyckman,,84,25,5,"canon,classics,fiction,high-school,historical-fiction,history,literature,medieval,plays,poetry,school"
13628501,,Nikdo sem nepatří víc než ty,9788073633462,,,,ES,2011/1/1,Dokořán,cze,false,58,113429,57363,117464,30766,3438,2007/1/1,No One Belongs Here More Than You: Stories,book,9098,11151,7220,2413,884,3.82,216,Hardcover,,5,0,Miranda July,,,,,,20476,177,1251,"adult,adult-fiction,american,anthologies,art,collections,contemporary,essays,fiction,funny,humor,literary-fiction,literature,non-fiction,novels,poetry,queer,short-stories,unfinished"
13629001,9789871543,Los Condicionantes de la Crisis en América Latina,,,,,ES,2009/8/1,CLACSO,spa,false,1,13629001,2,5,1,0,2009/8/1,,book,1,0,0,0,0,5.00,384,Paperback,,1,0,"Eduardo Basualdo,Enrique Arceo",,,,,,1,0,,
13629501,,First Proof: The Penguin Book of New Writing from India 6,9780143415510,,,,ES,2010/1/1,Penguin India,eng,false,1,13629501,8,6,2,0,2010/1/1,,book,0,0,2,0,0,3.00,217,Paperback,,2,0,"Anindita Ghose,Anis Kidwai,Annu Jalais,Ashoke Bhattacherjee,Chatura Rao,D. Rege,Deven Sansare,K.R. Guruprasad,Kanchana Ugbabe,Kayur R. Patel,Makarand Sathe,Mayank Shekhar,Purnima Rao,Ranjan Nautiyal,Shri Gopal Kabra,Somnath Mukjerji,Sunanda Sikdar",,,,,,5,1,,
13630001,838653074X,"Upadek strzały (Cykl o Heroldach z Valdemaru, #3)",,,,,ES,1995/1/1,Zysk i S-ka,pol,false,26,14014,25347,81905,19550,326,1988/1/1,Arrow's Fall,book,8701,6631,3548,562,108,4.19,333,Paperback,,6,0,Mercedes Lackey,,,,,,2171,109,65,"adult,adult-fiction,adventure,animals,epic,epic-fantasy,fantasy,fiction,high-fantasy,lgbt,magic,medieval,novels,romance,science,science-fiction,science-fiction-fantasy,speculative-fiction,war,young-adult"
13630501,,"Angélica e o Príncipe das Trevas (Angélica, Marquesa dos Anjos, #3)",,,,,ES,,Nova Cultural,por,false,1,13630501,10,20,4,1,,,book,4,0,0,0,0,5.00,,,,4,1,Anne Golon,,,,,,5,0,,
13631001,,Touched by the Magic (The Academy #1),9781612173702,,,,ES,2012/5/1,The Wild Rose Press,eng,false,2,13631001,365,221,56,36,2012/5/1,,book,22,18,10,3,3,3.95,368,Paperback,First Scarlet ,54,36,Maxine Mansfield,,,,,,278,15,1,"erotica,paranormal"
13631501,,Missions Communities: The Rise of the Post Congregational Church,,,,,ES,,,,false,1,13631501,1,0,0,0,,,book,0,0,0,0,0,0.00,,,,0,0,Reggie McNeal,,,,,,1,0,,
13632001,,The Old Soul,,B007SNSIFQ,,,ES,2012/4/5,G Realist Ink,en-GB,true,1,13632001,309,796,219,17,2012/4/5,,book,46,76,73,19,5,3.63,18,Kindle Edition,Single,219,17,Joseph Wurtenbaugh,,,,,,57,1,9,"fiction,non-fiction,science-fiction,short-stories"
13632501,8423345823,Yo también tuve una novia bisexual,9788423345823,,,,ES,2012/1/12,Áncora & Delfin,spa,false,6,13632501,157,250,89,16,2011/1/1,Yo también tuve una novia bisexual,book,2,19,39,18,11,2.81,208,Paperback,,77,12,Guillermo Martínez,,,,,,52,1,,"contemporary,erotica,fiction,romance"
13633001,9723308711,Léah e Outras Histórias,,,,,ES,1981/1/1,Estampa,por,false,4,13633001,114,210,50,2,1958/1/1,Léah e Outras Histórias,book,18,27,3,1,1,4.20,286,Paperback,,50,2,José Rodrigues Miguéis,,,,,,52,0,3,"literature,novels,romance"
13633501,,Trouble for Mary,,,,,ES,,,eng,false,1,13633501,1,3,1,1,,,book,0,0,1,0,0,3.00,,Hardcover,,1,1,Jill Stevens,,,,,,,0,,
13634001,0984142177,Stir-Fried Memories,9780984142170,,,,ES,2012/1/1,Whispering Angel Books,eng,false,1,13634001,1,5,1,1,2012/1/1,,book,1,0,0,0,0,5.00,166,Paperback,First,1,1,Cherise Wyneken,,,,,,,0,,
13634501,,Astray,B007SPPGXQ,,,,ES,2012/4/8,,eng,true,4,13634501,3,0,0,0,2011/10/16,,book,0,0,0,0,0,0.00,115,Kindle Edition,,0,0,James Dixon,,,,,,3,0,,
13635001,,Wallflower,9781938076107,,,,ES,2012/4/23,Bradley Publishings,eng,true,5,13635001,19,32,8,3,2012/4/23,,book,2,4,2,0,0,4.00,,ebook,,8,3,Jennifer B. Fields,,,,,,9,0,,mystery-thriller
13635501,8846200195,Andromeda,9788846200198,,,,ES,1997/2/1,SuperPocket,ita,false,144,7670,274525,772353,198721,3119,1969/9/1,The Andromeda Strain,book,56115,77549,53214,10097,1746,3.89,338,Mass Market Paperback,,47,2,Michael Crichton,,,,,,57516,165,1059,"action,adult,adult-fiction,adventure,american,classics,contemporary,crime,drama,fantasy,fiction,horror,medical,mystery,mystery-thriller,novels,science,science-fiction,science-fiction-fantasy,speculative-fiction,suspense,thriller"
13636001,,El retrato de Dorian Gray,9788420666662,,,,ES,2007/1/1,Alianza Editorial,spa,false,3354,5297,1411607,3280353,806317,24148,1890/6/20,The Picture of Dorian Gray,book,313801,293816,150654,36076,11970,4.07,309,Paperback,,11,0,Oscar Wilde,,,,José Luis López Muñoz,,459397,3140,45517,"adult,adult-fiction,british-literature,classic-literature,classics,drama,english-literature,fantasy,fiction,gothic,high-school,historical,historical-fiction,horror,lgbt,literary-fiction,literature,magical-realism,mystery,novels,paranormal,philosophy,queer,school,supernatural,unfinished,victorian"
13636501,028563058X,Why Does My Dog...?,9780285630581,,,,ES,1991/1/1,Souvenir Press,en-GB,false,8,1161449,130,280,67,2,1991/1/1,Why Does My Dog...?,book,28,23,16,0,0,4.18,231,Hardcover,,1,0,John  Fisher,,,,,,30,3,3,"animals,non-fiction,reference"
13637001,0060233028,The Winter Day,9780060233020,,,,ES,1991/1/1,HarperCollinsPublishers,eng,false,2,13637001,7,15,4,0,1991/1/1,The Winter Day,,1,2,0,1,0,3.75,,Library Binding,,4,0,Beverly Komoda,,,,,,,1,,
13637501,3814424050,Wenn Bobby seine Zähne zeigt... (Die 2 + TKKG),,,,,ES,1993/1/1,Pelikan,ger,false,1,13637501,1,0,0,0,1993/1/1,,book,0,0,0,0,0,0.00,60,Hardcover,,0,0,Stefan Wolf,,,,,,,0,,
13638001,,La lampara roja,,,,,ES,,,spa,false,129,12881764,733,1084,285,22,1894/1/1,,book,69,117,76,20,3,3.80,,,,10,0,Arthur Conan Doyle,,,,,,259,7,25,"british-literature,classics,fiction,gothic,mystery,non-fiction,short-stories"
13638501,,The Man Who Rained,,B0073HNL7W,,,ES,2012/1/1,Atlantic Books,en-GB,true,7,12733708,2298,2604,713,112,2011/1/4,,book,154,268,203,65,23,3.65,,Kindle Edition,,44,0,Ali Shaw,,,,,,1404,20,20,"adult,contemporary,fairy-tales,family,fantasy,fiction,literary-fiction,love,magical-realism,novels,romance,unfinished,urban-fantasy,young-adult"
13639501,8006001227,Grécky zázrak,9788006001221,,,,ES,1990/1/1,Mladé letá,slo,false,9,13639501,53,117,25,1,1972/1/1,Řecký zázrak,book,19,4,2,0,0,4.68,605,Hardcover,,21,1,Vojtech Zamarovský,Otakar Pok,,,,,14,1,3,"history,non-fiction"
13640001,1615726675,Eyes of a Stranger,9781615726677,,,,ES,2012/5/7,Eternal Press,eng,false,4,13639999,26,41,10,1,2012/5/1,Eyes of a Stranger,book,4,4,1,1,0,4.10,200,Paperback,,0,0,Suzanne Brandyn,,,,,,14,0,,"contemporary,romance,suspense"
13640501,,"One Piece, Vol. 36",,,,,ES,2005/12/1,Star Comics,ita,false,22,371153,3136,9509,2125,39,2005/2/4,ONE PIECE 36,book,1303,563,230,23,6,4.47,208,Paperback,,7,0,Eiichiro Oda,,,,,,368,43,14,"action,adventure,comedy,comics,fantasy,fiction,funny,graphic-novels,humor,manga,mystery,supernatural,young-adult"
13641001,,The Water Thief,,,,,ES,2012/4/22,Smashwords,eng,true,5,13640917,1271,1265,339,80,2012/4/20,The Water Thief,book,91,118,87,34,9,3.73,209,ebook,,6,4,Nicholas Lamar Soutter,,,,,,823,15,49,"dystopia,education,fantasy,fiction,historical-fiction,mystery,mystery-thriller,novels,politics,science-fiction"
13641501,,My Dark Rosaleen,9780957074361,,,,ES,2017/3/3,Fidelis Morgan,,true,3,2993566,13,34,8,1,1994/8/8,My Dark Rosaleen,book,4,2,2,0,0,4.25,,ebook,,0,0,Fidelis Morgan,,,,,,4,0,,
13642001,1426210051,Radical Lincoln: Inside the Mind of America's Most Fascinating President,9781426210051,,,,ES,2012/11/6,National Geographic,,true,3,13642001,9,13,4,1,2012/1/1,,,0,1,3,0,0,3.25,55,ebook,,4,1,K.M. Kostyal,,,,,,2,0,1,history
13642501,0449015297,Odessa Again,9780449015292,,,,ES,2013/5/14,Listening Library (Audio),,false,9,13642501,599,971,278,73,2013/5/14,,book,46,85,112,30,5,3.49,,Audio,,237,55,Dana Reinhardt,,,,,,272,10,8,"amazon,childrens,contemporary,family,fantasy,fiction,juvenile,magic,magical-realism,middle-grade,paranormal,realistic-fiction,relationships,science-fiction,time-travel"
13643001,0812982177,A Partial History of Lost Causes,9780812982176,,,,ES,2012/8/21,Dial Press Trade Paperback,eng,false,16,12468712,7440,8698,2398,515,2012/3/20,A Partial History of Lost Causes,book,426,990,700,226,56,3.63,369,Paperback,,106,47,Jennifer duBois,,,,,,1898,87,108,"adult-fiction,americana,contemporary,death,drama,fiction,historical,historical-fiction,history,literary-fiction,novels,politics"
13643501,3257216408,Helen oder Die Wendeltreppe,9783257216400,,,,ES,1988/1/1,Diogenes,ger,false,46,64883,869,1457,397,79,1933/1/1,Some Must Watch,book,104,131,100,51,11,3.67,299,Paperback,,3,0,Ethel Lina White,,,,,,365,16,38,"classics,crime,fiction,gothic,horror,mystery,mystery-thriller,novels,suspense,thriller"
13644001,,The Naked Myopia And Other Poems,,,,,ES,2010/1/1,Lo & Behold!,eng,false,1,13644001,2,3,1,0,2010/1/1,,book,0,0,1,0,0,3.00,53,Paperback,,1,0,Drew Bardo,,,,,,,1,,
13644501,,"Micky der Meisterdetektiv (Lustiges Taschenbuch, #54)",,,,,ES,1978/6/1,Egmont Ehapa Verlag,ger,false,2,13644501,16,33,9,0,1978/6/1,,book,2,3,3,1,0,3.67,250,Paperback,,8,0,Walt Disney Company,,,,Alexandra Ardelt,,4,0,,comics
13645001,B00821E8ZW,Loving For War,,,,,ES,,,eng,true,1,13645001,95,61,13,9,,Loving For War,book,12,0,0,0,1,4.69,,ebook,,13,9,Carl Z. Weber,,,,,,71,0,4,
13645501,,Um Minuto,9788599275368,,,,ES,,BesouroBox,por,false,1,13645501,5,14,3,0,,,book,2,1,0,0,0,4.67,200,Paperback,,3,0,Newton César,,,,,,,0,,
13646001,,The Botox Diaries - Penggila Botoks,9789792279559,,,,ES,2012/1/1,PT Gramedia Pustaka Utama,ind,false,20,389631,2063,3540,1034,97,2004/1/1,The Botox Diaries,book,187,269,415,121,42,3.42,487,Paperback,,7,5,"Janice Kaplan,Lynn Edelman Schnurnberger",,,,,,789,22,10,"adult,adult-fiction,chick-lit,comedy,family,fiction,humor,realistic-fiction,relationships,romance"
13646501,,Nightmare Movies: A Critical Guide to Contemporary Horror Films,,,,,ES,1989/1/1,Harmony Books,eng,false,6,280021,782,867,208,6,1984/1/1,Nightmare Movies: A Critical Guide to Contemporary Horror Films,book,82,87,32,6,1,4.17,255,Hardcover,,3,0,Kim Newman,,,,,,508,14,16,"essays,film,history,horror,movies,non-fiction,reference"
13647001,,43 Crímenes Para Resolver,9788498672794,,,,ES,2008/7/1,RBA Bolsillo,spa,false,1,13647001,29,34,11,1,,,book,0,2,8,1,0,3.09,160,Mass Market Paperback,,11,1,Daniel Samoilovich,,,,,,13,0,1,
13647501,,Institut za namještanje satova,9789532663426,,,,ES,2011/1/1,Fraktura,,false,36,2040424,19626,35091,7930,432,1954/1/1,Saatleri Ayarlama Enstitüsü,book,4589,2403,713,170,55,4.43,486,Hardcover,,1,0,Ahmet Hamdi Tanpınar,,,,,,1827,25,693,"classics,cultural,fiction,historical-fiction,humor,literary-fiction,literature,modern-classics,novels,unfinished"
13648001,1469978571,Goal Play! Leadership Lessons from the Soccer Field,9781469978574,,,,ES,2012/1/1,Createspace Independent Publishing Platform,en-US,false,1,13648001,36,56,17,1,2012/1/1,,book,1,7,7,0,2,3.29,196,Paperback,,17,1,Paul F Levy,,,,,,17,0,1,
13648501,9783868732,Auf einen Blick,,,,,ES,2010/1/1,Knesebeck,ger,false,2,5149958,366,539,134,9,2008/1/1,"Visual Aid: Stuff You've Forgotten, Things You Never Thought You Knew and Lessons You Didn't Quite Get Around to Learning",,46,54,25,9,0,4.02,,Paperback,,1,0,Draught Associates,,,,,,157,5,8,"business,non-fiction,reference,science,travel"
13649001,9755705376,Özgürlük,9789755705378,,,,ES,2012/1/1,Sel Yayıncılık,tur,false,103,7905092,227151,528138,141114,13379,2010/8/1,Freedom,book,39083,51762,31525,12356,6388,3.74,596,Paperback,,43,2,Jonathan Franzen,,,,Sevin Okyay,,66768,435,4005,"adult,adult-fiction,american,americana,contemporary,drama,family,fiction,literary-fiction,literature,marriage,modern,novels,politics,realistic-fiction,relationships,unfinished"
13649501,0004974514,Easy Piano-Organ Duets,9780004974514,,,,ES,1982/8/31,Hope Publishing Company (IL),,false,1,13649501,0,0,0,0,1982/8/1,,book,0,0,0,0,0,0.00,,Paperback,,0,0,,,Tedd Smith,,,,,0,,
13650001,0007428391,The Tour de France: Band 18/Pearl (Collins Big Cat),9780007428397,,,,ES,2012/1/4,Collins,,false,1,13650001,1,0,0,0,2012/1/1,,,0,0,0,0,0,0.00,80,Paperback,,0,0,Sean Callery,,,,,,1,0,,
13650501,0007460619,"Writing. by Kirsten Campbell-Howes, Clare Dignall",9780007460618,,,,ES,2012/5/1,Collins Publishers,,false,1,13650501,2,4,1,0,2012/5/1,,,0,1,0,0,0,4.00,123,Paperback,,1,0,Kirsten Campbell-Howes,,,,,,1,0,,
13651001,0021532176,"Pierre Trudeau, Grade 6 Approaching Level: Canadian Leader",9780021532179,,,,ES,,,,false,1,13651001,0,0,0,0,2008/10/1,,,0,0,0,0,0,0.00,,,,0,0,Teri Crawford Jones,,,,,,,0,,
13651501,0030255961,Holt Science & Technology: Student Edition (Spanish) Grades 6-8 (E) Ciencias del Medio Ambiente 2005,9780030255960,,,,ES,2004/5/1,Holt McDougal,,false,1,13651501,0,0,0,0,2004/5/1,,,0,0,0,0,0,0.00,176,Hardcover,,0,0,"Holt, Rinehart, and Winston, Inc.",,,,,,,0,,
13652001,003038222X,CA Ch Res #15 Dechlth Grn 2005,9780030382222,,,,ES,2005/1/1,Holt McDougal,,false,1,13652001,0,0,0,0,2005/1/1,,,0,0,0,0,0,0.00,,Paperback,,0,0,"Holt, Rinehart, and Winston, Inc.",,,,,,,0,,
13652501,0030563267,Holt Elements of Language: Spelling Grade 6,9780030563263,,,,ES,2000/8/1,Holt McDougal,,false,1,13652501,0,0,0,0,2000/8/1,,,0,0,0,0,0,0.00,128,Paperback,,0,0,"Holt, Rinehart, and Winston, Inc.",,,,,,,0,,
13653001,003070037X,"Se HS&T Cust G, L, M, N",9780030700378,,,,ES,2002/5/1,Holt McDougal,,false,1,13653001,0,0,0,0,2002/5/1,,,0,0,0,0,0,0.00,,Hardcover,,0,0,"Holt, Rinehart, and Winston, Inc.",,,,,,,0,,
13653501,0030927900,Connecticut Holt Science & Technology Short Courses A-E Test Preparation Workbook: Help for the CMT,9780030927904,,,,ES,2007/1/1,Holt McDougal,,false,1,13653501,0,0,0,0,2007/1/1,,,0,0,0,0,0,0.00,58,Paperback,,0,0,,,,,,,,0,,
13654001,0070182884,Sentence Skills with Readings,9780070182882,,,,ES,2009/2/1,McGraw-Hill Europe,,false,14,5551704,66,68,15,1,1997/1/1,Sentence Skills With Readings & Allwrite Users Guide,book,10,4,0,1,0,4.53,,Paperback,,0,0,John Langan,,,,,,47,0,2,"education,writing"
13654501,0071599339,Forensic Image Processing,9780071599337,,,,ES,2016/1/22,McGraw-Hill Education,,false,2,13654501,6,9,2,0,2013/11/30,,,1,1,0,0,0,4.50,275,Hardcover,,2,0,Marcus Borengasser,,,,,,5,0,,
13655001,0072295198,Experiments with Economic Principles: I,9780072295191,,,,ES,2010/2/1,McGraw-Hill Europe,,false,1,13655001,0,0,0,0,2010/2/1,,,0,0,0,0,0,0.00,,Paperback,,0,0,Bergstrom,,,,,,,0,,
13655501,0073139688,Smart Kids 3: Workbook,9780073139685,,,,ES,2005/5/1,McGraw-Hill Europe,,false,1,13655501,0,0,0,0,2005/5/1,,,0,0,0,0,0,0.00,,Paperback,,0,0,Patricia Buere,,,,,,,0,,
13656001,0077504615,Dietary Guidelines for Americans: For a Healthier Life,9780077504618,,,,ES,2011/4/13,McGraw-Hill Science/Engineering/Math,,false,1,13656001,0,0,0,0,2011/4/13,,,0,0,0,0,0,0.00,,Paperback,,0,0,,,,,,,,0,,
13656501,0078607213,"Math Skills Maintenance Workbook, Course 1",9780078607219,,,,ES,2003/5/29,McGraw-Hill Education,,false,1,13656501,0,0,0,0,2003/5/29,,,0,0,0,0,0,0.00,95,Paperback,,0,0,,,,,,,,0,,
13657001,0080167721,Icrp 10a Assess Inter Con F,9780080167725,,,,ES,1971/1/1,Elsevier Science & Technology,,false,1,13657001,0,0,0,0,1971/1/1,,,0,0,0,0,0,0.00,48,Paperback,,0,0,"ICRP Publishing,Icrp,International Commission on Radiological Protectio",,,,,,,0,,
13659001,0130232793,Caught Reading Plus: Worktext Six 2000c,9780130232793,,,,ES,1999/3/15,Fearon,,false,1,13659001,0,0,0,0,1999/3/15,,,0,0,0,0,0,0.00,,Paperback,,0,0,,,,,,,,0,,
13659501,0131199234,Ohio Courts,9780131199231,,,,ES,2005/4/11,Prentice Hall,,false,1,13659501,0,0,0,0,2005/4/21,,,0,0,0,0,0,0.00,66,Paperback,,0,0,Janis L. Walter,,,,,,,0,,
13660001,0131941461,Tunes and Grooves for Music Education,9780131941465,,,,ES,2007/11/29,Pearson Prentice Hall,,false,1,13660001,3,3,1,0,2007/12/9,,,0,0,1,0,0,3.00,478,Spiral-bound,,1,0,Patricia Shehan Campbell,,,,,,2,0,,
13660501,0132361159,Engineering Mechanics Static&sp&eng&dynm Pk,9780132361156,,,,ES,2009/1/1,Pearson,,false,1,13660501,3,1,1,0,2009/1/1,,,0,0,0,0,1,1.00,,Paperback,,1,0,,,Prentice Hall Pearson,,,,2,0,,
13661001,0132665417,Using MIS [with MyMISLab],9780132665414,,,,ES,2012/5/23,Prentice Hall,,true,102,389602,154,169,55,3,2005/12/30,Using MIS,book,9,13,16,7,10,3.07,528,ebook,,0,0,David M. Kroenke,,,,,,47,1,6,"business,non-fiction,reference,school,textbooks"
13661501,0132860732,Emergency Care [With Workbook and Access Code],9780132860734,,,,ES,,,,false,71,56161,377,725,184,15,1997/7/31,Emergency Care,book,71,63,27,14,9,3.94,,,,0,0,"Daniel J. Limmer,Michael F. O'Keefe",,,,,,18,5,18,"adult,health,medical,non-fiction,reference,school,science,textbooks"
13662001,0135013224,Chinese Link Traditl L1p2&audio CDs WB Hmwk,9780135013229,,,,ES,2009/1/1,Pearson,,false,1,13662001,0,0,0,0,2009/1/1,,,0,0,0,0,0,0.00,,Paperback,,0,0,,,Prentice Hall Pearson,,,,,0,,
13662501,0135095395,Explg Microsft Offc7 V1&tec Actn&mil&180dy&,9780135095393,,,,ES,2009/1/1,Pearson,,false,1,13662501,0,0,0,0,2009/1/1,,,0,0,0,0,0,0.00,,Paperback,,0,0,,,Prentice Hall Pearson,,,,,0,,
13663001,0136017509,Music: A Social Experience,9780136017509,,,,ES,2011/9/21,Routledge,,false,14,13663001,14,14,4,1,2011/9/29,,,1,2,0,0,1,3.50,245,Paperback,,4,1,"Mary Natvig,Steven Cornelius",,,,,,2,0,6,
13663501,,荷塘月色,,,,,ES,,,,false,2,13663501,7,8,2,0,,,book,0,2,0,0,0,4.00,,,,2,0,朱自清,,,,,,2,0,,literature
13664001,0137131399,"Financial & Managerial Accounting: Managerial Chapters, Chapters 12-25 [with MyAccountingLab, Study Guide, CDs, & eText Access Card]",9780137131396,,,,ES,2009/1/1,Prentice Hall,,false,4,14796847,1,0,0,0,2007/3/2,,book,0,0,0,0,0,0.00,,Paperback,,0,0,"Charles T. Horngren,Walter T. Harrison Jr.",,,,,,1,0,,
13664501,0138148619,Foundations of Dual Language&cd&mls Sac Pkg,9780138148614,,,,ES,2009/1/1,Pearson,,false,1,13664501,0,0,0,0,2009/1/1,,,0,0,0,0,0,0.00,,Paperback,,0,0,,,Prentice Hall Pearson,,,,,0,,
13665001,0006544282,C.S. Lewis: A Biography,9780006544289,,,,ES,1991/1/1,Flamingo,eng,false,9,662143,1162,1660,461,54,1990/1/1,C.S. Lewis: A Biography,book,101,169,123,42,26,3.60,334,Paperback,,13,4,A.N. Wilson,,,,,,560,7,31,"biography,biography-memoir,christian,christianity,classics,faith,fantasy,history,non-fiction,reference,religion,romance"
13666001,0153111399,Harcourt School Publishers Math Advantage: School-Home Connection Grade K,9780153111396,,,,ES,1999/1/1,Harcourt School Publishers,,false,1,13666001,0,0,0,0,1999/1/1,,,0,0,0,0,0,0.00,8,Paperback,,0,0,Harcourt Brace,,,,,,,0,,
13666501,015314503X,Harcourt School Publishers Collections: Ltl Bk: People Working Grk People Working,9780153145032,,,,ES,2000/1/1,Harcourt School Publishers,,false,1,13666501,2,0,0,0,2000/1/1,,,0,0,0,0,0,0.00,32,Paperback,,0,0,Harcourt Brace,,,,,,,1,,
13667501,0153192496,Harcourt School Publishers Collections: LVL Lib(5): The Art Lesson Gr1,9780153192494,,,,ES,2000/1/1,Harcourt School Publishers,,false,1,13667501,0,0,0,0,2000/1/1,,,0,0,0,0,0,0.00,,Hardcover,,0,0,,,,,,,,0,,
13669001,0153234091,Harcourt School Publishers Trophies: Below Level Individual Reader Grade 6 Antarctca: Race to the South Pole,9780153234095,,,,ES,2002/1/1,Harcourt School Publishers,,false,1,13669001,0,0,0,0,2002/1/1,,,0,0,0,0,0,0.00,16,Paperback,,0,0,,,,,,,,0,,
13669501,0153242345,Harcourt School Publishers Trofeos: Below Level Individual Reader Grade 5 El Fantastico,9780153242342,,,,ES,2002/1/1,Harcourt School Publishers,,false,1,13669501,0,0,0,0,2002/1/1,,,0,0,0,0,0,0.00,16,Paperback,,0,0,,,,,,,,0,,
13670001,0153254432,Harcourt School Publishers Trophies: Big Book Grade K Warthogs/Kitchen,9780153254437,,,,ES,2002/1/1,Harcourt School Publishers,,false,1,13670001,1,0,0,0,2002/1/1,,,0,0,0,0,0,0.00,24,Paperback,,0,0,,,,,,,1,0,,
13670501,015326943X,Harcourt School Publishers Trophies: On Level Individual Reader 5-Pack Grade 2 Drums: The Beat Goes on,9780153269431,,,,ES,2002/1/1,Harcourt School Publishers,,false,1,13670501,0,0,0,0,2002/1/1,,,0,0,0,0,0,0.00,,Unknown Binding,,0,0,,,,,,,,0,,
13671001,0153278056,Harcourt School Publishers Trophies: Ell 5 Pack Grade 4 What Should I Be?,9780153278051,,,,ES,2002/1/1,Harcourt School Publishers,,false,1,13671001,0,0,0,0,2002/1/1,,,0,0,0,0,0,0.00,,Unknown Binding,,0,0,,,,,,,,0,,
13671501,0153287675,Harcourt School Publishers Trofeos: Advanced-Level Grade 4 Como Adoptar...,9780153287671,,,,ES,2002/1/1,Harcourt School Publishers,,false,1,13671501,0,0,0,0,2002/1/1,,,0,0,0,0,0,0.00,,Hardcover,,0,0,,,,,,,,0,,
13672001,0153313552,Harcourt School Publishers Trofeos: Individual Reader Grade K Que Hacen/Paps/Mams K,9780153313554,,,,ES,2002/1/1,Harcourt School Publishers,,false,1,13672001,0,0,0,0,2002/1/1,,,0,0,0,0,0,0.00,8,Paperback,,0,0,,,,,,,,0,,
13672501,0153334770,Harcourt School Publishers Horizons North Carolina: 5pk Tfk Rdrs: Tanglewood Park Tanglewood Park,9780153334771,,,,ES,2002/1/1,Harcourt School Publishers,,false,1,13672501,0,0,0,0,2002/1/1,,,0,0,0,0,0,0.00,,Unknown Binding,,0,0,,,,,,,,0,,
13673501,0153370734,"Delta-Journeys, Grade 10",9780153370731,,,,ES,1986/1/1,Houghton Mifflin Harcourt P,,false,1,13673501,0,0,0,0,1986/1/1,,book,0,0,0,0,0,0.00,,Hardcover,,0,0,"Max F. Schulz,Richard John Smith",,,,,,,0,,
13674001,0153394846,Harcourt School Publishers Horizons Florida: 5 Pack Time for Kids Reader Grade 4 Spring Training,9780153394843,,,,ES,2003/5/1,Harcourt School Publishers,,false,1,13674001,0,0,0,0,2003/5/1,,,0,0,0,0,0,0.00,,Unknown Binding,,0,0,,,,,,,,0,,
13674501,0153423374,Harcourt School Publishers Math Arizona: Student Edition Test Preparation Workbook Grade 4,9780153423376,,,,ES,2004/5/1,Harcourt School Publishers,,false,1,13674501,0,0,0,0,2004/5/1,,,0,0,0,0,0,0.00,120,Paperback,,0,0,,,,,,,,0,,
13675001,0153442972,Harcourt School Publishers Math Maryland: Test Preparation Student Edition Grade 6,9780153442971,,,,ES,2004/8/1,Harcourt School Publishers,,false,1,13675001,0,0,0,0,2004/8/1,,,0,0,0,0,0,0.00,192,Paperback,,0,0,,,,,,,,0,,
13675501,0153462728,Harcourt School Publishers Art Everywhere: Big Book Purchase Package Grade 4,9780153462726,,,,ES,2005/1/1,Harcourt School Publishers,,false,1,13675501,0,0,0,0,2005/1/1,,,0,0,0,0,0,0.00,,Hardcover,,0,0,,,,,,,,0,,
13676001,0153478934,Harcourt School Publishers Ciencias: Below Level Intervention Reader 6 Pack Grade 4 Trnsfrnc,9780153478932,,,,ES,2005/5/1,Harcourt School Publishers,,false,1,13676001,0,0,0,0,2005/5/1,,,0,0,0,0,0,0.00,,Hardcover,,0,0,,,,,,,,0,,
13676501,0153493194,Harcourt School Publishers Social Studies: LVLD Rdr Coll Us: Mkg..Ntn SS 07,9780153493195,,,,ES,2005/8/1,Harcourt School Publishers,,false,1,13676501,0,0,0,0,2005/8/1,,,0,0,0,0,0,0.00,,Hardcover,,0,0,,,,,,,,0,,
13677001,0153527161,Harcourt School Publishers Social Studies: Below-Level Reader Social Studies 2007 Grade 1 Red White&blue,9780153527166,,,,ES,2005/11/1,Harcourt School Publishers,,false,1,13677001,0,0,0,0,2005/11/1,,,0,0,0,0,0,0.00,16,Paperback,,0,0,,,,,,,,0,,
13677501,0153547588,Harcourt School Publishers Science: Below Level Reader 6 Pack Science Grade 3 Pattrns(3-4),9780153547584,,,,ES,2006/2/1,Harcourt School Publishers,,false,2,13677500,0,0,0,0,2006/2/1,,,0,0,0,0,0,0.00,,Hardcover,,0,0,,,,,,,,0,,
13678001,0153564296,Harcourt School Publishers Villa Cuentos: Little Book Villa 09 Grade 1 Dia de Mercado,9780153564291,,,,ES,2006/4/1,Harcourt School Publishers,,false,1,13678001,0,0,0,0,2006/4/1,,,0,0,0,0,0,0.00,36,Paperback,,0,0,,,,,,,,0,,
13678501,0153574518,Harcourt School Publishers Storytown: Below Level Reader 5-Pack Grade 2 the Penguin,9780153574511,,,,ES,,,,false,1,13678501,0,0,0,0,2006/5/1,,,0,0,0,0,0,0.00,,,,0,0,Harcourt School Publishers,,,,,,,0,,
13679001,0153586133,Harcourt School Publishers Ciencias Arizona: Intrv Rdr El Tiempo Gr 2,9780153586132,,,,ES,2009/6/18,Harcourt School Publishers,,false,1,13679001,0,0,0,0,2009/6/18,,,0,0,0,0,0,0.00,16,Paperback,,0,0,,,,,,,,0,,
13679501,0153606061,Harcourt School Publishers Storytown: Ell Reader 5-Pack Grade K Zoo Animals,9780153606069,,,,ES,2006/8/1,Harcourt School Publishers,,false,1,13679501,0,0,0,0,2006/8/1,,,0,0,0,0,0,0.00,,Unknown Binding,,0,0,,,,,,,,0,,
13680001,0153624167,Science Leveled Readers: AB-LV Rdr Easy Does It! G2 Sci 09,9780153624162,,,,ES,2006/9/1,Harcourt School Publishers,,false,1,13680001,0,0,0,0,2006/9/1,,,0,0,0,0,0,0.00,8,Paperback,,0,0,,,,,,,,0,,
13680501,0153642378,Harcourt School Publishers Storytown: Decodable Book 19 (5 Pack) Grade 2,9780153642371,,,,ES,2006/10/1,Harcourt School Publishers,,false,1,13680501,0,0,0,0,2006/10/1,,,0,0,0,0,0,0.00,,Unknown Binding,,0,0,,,,,,,,0,,
13681001,0153668563,Harcourt School Publishers Science: Below Level Reader Collection Grade 3,9780153668562,,,,ES,2006/12/1,Harcourt School Publishers,,false,1,13681001,0,0,0,0,2006/12/1,,,0,0,0,0,0,0.00,,Hardcover,,0,0,,,,,,,,0,,
13681501,0153680962,Harcourt School Publishers Storytown Florida: Intrvntn Station Intermedte Stry09,9780153680960,,,,ES,2007/1/1,Harcourt School Publishers,,false,1,13681501,0,0,0,0,2007/1/1,,,0,0,0,0,0,0.00,,Hardcover,,0,0,,,,,,,,0,,
13682001,0153692715,Harcourt School Publishers Spanish Math Texas: On-LV Rdr Haz Algo.Comn G3 Span Mth09,9780153692710,,,,ES,2007/3/1,Harcourt School Publishers,,false,1,13682001,0,0,0,0,2007/3/1,,,0,0,0,0,0,0.00,16,Paperback,,0,0,,,,,,,,0,,
13682501,0153702818,Harcourt School Publishers Villa Cuentos: Advanced Reader Grade K Que Le Pasa a Gogo?,9780153702815,,,,ES,2008/6/1,Harcourt School Publishers,,false,1,13682501,0,0,0,0,2008/6/1,,,0,0,0,0,0,0.00,8,Paperback,,0,0,,,,,,,,0,,
13683001,0153717092,Harcourt School Publishers Villa Cuentos: On Level Reader 5 Pack Grade 3 Confien En Rey,9780153717093,,,,ES,2007/3/1,Harcourt School Publishers,,false,1,13683001,0,0,0,0,2007/3/1,,,0,0,0,0,0,0.00,,Hardcover,,0,0,,,,,,,,0,,
13683501,0153742739,"Kentucky Core Content Science Test Preparation, Grade 4",9780153742736,,,,ES,2007/5/1,Houghton Mifflin,,false,1,13683501,0,0,0,0,2007/5/1,,,0,0,0,0,0,0.00,159,Paperback,,0,0,,,,,,,,0,,
13684001,0153757590,Harcourt Science: Teacher Resource Material Package Science 09 Grade 5,9780153757594,,,,ES,2008/8/1,Harcourt School Publishers,,false,1,13684001,0,0,0,0,2008/8/1,,,0,0,0,0,0,0.00,,Paperback,,0,0,,,,,,,,0,,
13684501,0153779950,Harcourt School Publishers Storytown: 5 Pack F Exc Book Ltrs&snds Exc10 Grade K RR,9780153779954,,,,ES,2007/8/1,Harcourt School Publishers,,false,1,13684501,0,0,0,0,2007/8/1,,,0,0,0,0,0,0.00,,Unknown Binding,,0,0,,,,,,,,0,,
13685001,0153789085,Harcourt School Publishers Storytown: 5 Pack Eld Concept Reader Exc 10 Grade 1 Animal..Planet,9780153789083,,,,ES,2007/8/1,Harcourt School Publishers,,false,1,13685001,2,0,0,0,2007/8/1,,,0,0,0,0,0,0.00,,Unknown Binding,,0,0,,,,,,,2,0,,
13685501,0153804475,Harcourt School Publishers Storytown California: A Exc Book Exc 10 Grade 4 World?pumpkin Ever,9780153804472,,,,ES,2007/10/1,Harcourt School Publishers,,false,1,13685501,0,0,0,0,2007/10/1,,,0,0,0,0,0,0.00,16,Paperback,,0,0,,,,,,,,0,,
13686001,015383160X,Harcourt School Publishers Storytown Georgia: 12 Pack Benchmark Assessment-Crct Student Edition Grade 5,9780153831607,,,,ES,2009/1/30,Harcourt School Publishers,,false,1,13686001,0,0,0,0,2009/1/30,,,0,0,0,0,0,0.00,,Paperback,,0,0,,,,,,,,0,,
13687501,0195670019,Linear Circuits: Analysis and Synthesis Includes CD-ROM,9780195670011,,,,ES,2005/1/6,"Oxford University Press, USA",,false,1,13687501,0,0,0,0,2005/1/1,,,0,0,0,0,0,0.00,656,Paperback,,0,0,A. Ramakalyan,,,,,,,0,,
13688001,0198476477,Pets,9780198476474,,,,ES,2009/9/1,"Oxford University Press, USA",,false,1,13688001,0,0,0,0,,,,0,0,0,0,0,0.00,8,Paperback,,0,0,Monica Hughes,,,,,,,0,,
13688501,0199154252,Nimo 2 A2. Wjec Self-Study Guide,9780199154258,,,,ES,2009/6/1,"Oxford University Press, USA",,false,1,13688501,2,5,1,0,2009/6/1,,,1,0,0,0,0,5.00,48,Paperback,,1,0,Isabel Alonso De Sudea,,,,,,1,0,,
13689001,019958656X,Tort,9780199586561,,,,ES,2011/7/15,"Oxford University Press, USA",,false,4,13689001,4,5,1,0,2005/2/17,Tort (Butterworths Core Texts),,1,0,0,0,0,5.00,390,Paperback,,1,0,Steve Hedley,,,Nicola Padfield,,,3,0,,
13689501,0199655154,The Nature and Value of Knowledge: Three Investigations,9780199655151,,,,ES,2012/6/18,Oxford University Press (UK),,false,4,7472825,10,10,3,0,2010/1/1,,,1,1,0,0,1,3.33,288,Paperback,,0,0,"Adrian Haddock,Alan Millar,Duncan Pritchard",,,,,,3,1,,
13690001,0199768234,Eyes on Labor: News Photograpy and America's Working Class,9780199768233,,,,ES,2012/8/13,"Oxford University Press, USA",,false,2,13690001,10,14,4,0,2012/7/31,,,0,2,2,0,0,3.50,358,Paperback,,4,0,Carol Quirke,,,,,,5,0,,history
13690501,0199933650,The Son of God in the Roman World: Divine Sonship in Its Social and Political Context,9780199933655,,,,ES,2012/9/1,"Oxford University Press, USA",,false,3,12408727,51,59,14,4,2011/8/29,,,5,8,0,1,0,4.21,289,Paperback,,2,1,Michael Peppard,,,,,,33,0,2,"faith,history,non-fiction,sociology,theology"
13691001,0205091520,Myspanishlab with Pearson Etext -- Access Card -- For Arriba!: Comunicacion y Cultura (One Semester Access),9780205091522,,,,ES,2011/6/7,Prentice Hall,,false,6,13691001,8,6,3,0,2007/7/30,,,0,0,1,1,1,2.00,624,Hardcover,,2,0,"Eduardo Zayas-Bazán,Holly Nibert,Susan M. Bacon",,,,,,3,0,,school
13691501,0205246311,"The Humanities: Culture, Continuity & Change [With Paperback Book and Access Code]",9780205246311,,,,ES,,,,false,1,13691501,0,0,0,0,2011/6/19,,,0,0,0,0,0,0.00,,,,0,0,Henry M. Sayre,,,,,,,0,,
13692001,0205630588,Understanding Research & SPSS 16.0cd SBS Pk,9780205630585,,,,ES,2009/1/1,Pearson,,false,1,13692001,0,0,0,0,2009/1/1,,,0,0,0,0,0,0.00,,Paperback,,0,0,,,Prentice Hall Pearson,,,,,0,,
13692501,0205679447,Social Problem Vangobks&global&lm Atlas Pkg,9780205679447,,,,ES,2009/1/1,Pearson,,false,1,13692501,0,0,0,0,2009/1/1,,,0,0,0,0,0,0.00,,Paperback,,0,0,,,Prentice Hall Pearson,,,,,0,,
13693001,0205713033,Pathways Writing Scenarios&msl Sac&dict Pkg,9780205713035,,,,ES,2009/1/1,Pearson,,false,1,13693001,0,0,0,0,2009/1/1,,,0,0,0,0,0,0.00,,Paperback,,0,0,,,Prentice Hall Pearson,,,,,0,,
13693501,0205738710,Writers World: Para&essays&acadmc Vocab&mwl,9780205738717,,,,ES,2009/1/1,Pearson,,false,1,13693501,1,0,0,0,2009/1/1,,,0,0,0,0,0,0.00,,Paperback,,0,0,,,Prentice Hall Pearson,,,,1,0,,
13694001,0205761291,Abnormal Psych Chang&case Studies&mypsychlb,9780205761296,,,,ES,2009/1/1,Pearson,,false,1,13694001,0,0,0,0,2009/1/1,,,0,0,0,0,0,0.00,,Paperback,,0,0,,,Prentice Hall Pearson,,,,,0,,
13694501,0205784771,Longmn Pockt Writ Companion & Mycomplb Acc,9780205784776,,,,ES,2009/1/1,Pearson,,false,1,13694501,0,0,0,0,2009/1/1,,,0,0,0,0,0,0.00,,Paperback,,0,0,,,Prentice Hall Pearson,,,,,0,,
13695001,0205831958,Issues in Aging,9780205831951,,,,ES,2011/10/11,Pearson Education,,false,17,8425369,53,66,19,1,1996/10/1,Issues in Aging,book,4,6,5,3,1,3.47,557,Paperback,,7,0,Mark Novak,,,,,,13,1,3,"psychology,school"
13695501,,The Remnants,,,,,ES,,,eng,true,1,13695501,1,0,0,0,,,book,0,0,0,0,0,0.00,,Kindle Edition,,0,0,Troy A. Skog,,,,,,,0,,
13696001,,Window Pains,,B007K3E50G,,,ES,2012/1/1,Celestial Press,en-US,true,1,13696001,7,7,2,0,2003/1/1,,book,1,0,0,1,0,3.50,14,Kindle Edition,2nd edition,2,0,Carol  McCormick,,,,,,4,0,,
13696501,0232526605,Doxa: A Discipleship Course,9780232526608,,,,ES,2007/3/1,Darton Longman and Todd,,false,1,13696501,0,0,0,0,2007/6/1,,,0,0,0,0,0,0.00,160,Paperback,,0,0,John Thomson,,,,,,,0,,
13697001,0241950872,Recipes from the White Hart Inn,9780241950876,,,,ES,2011/4/1,Penguin Books,,false,4,11890802,107,48,18,4,2011/4/1,,book,0,2,9,6,1,2.67,89,Paperback,,5,0,William Verrall,,,,,,78,7,1,"classics,cookbooks,cooking,food,france,historical,history,non-fiction"
13697501,0262182084,Social Mobility and Modernization: A Journal of Interdisciplinary History Reader,9780262182089,,,,ES,2000/10/10,Mit Press,,false,3,13697782,1,0,0,0,2000/10/10,,,0,0,0,0,0,0.00,368,Hardcover,,0,0,,,,Robert I. Rotberg,,,1,0,,
13698001,0263225542,Her Italian Soldier,9780263225549,,,,ES,2012/2/1,Mills & Boon,,false,16,12362249,85,140,34,5,2011/1/1,,book,13,13,7,1,0,4.12,288,Hardcover,Large Print,0,0,Rebecca Winters,,,,,,31,1,2,"fiction,harlequin,romance"
13698501,0271050675,"Making the Archives Talk: New and Selected Essays in Bibliography, Editing, and Book History",9780271050676,,,,ES,2011/12/15,Penn State University Press,,false,2,13698501,9,14,3,0,2011/2/3,,,2,1,0,0,0,4.67,150,Hardcover,,3,0,James L.W. West III,,,,,,6,0,,
13699001,0292725701,"Blue-Ribbon Babies and Labors of Love: Race, Class, and Gender in U.S. Adoption Practice",9780292725706,,,,ES,2010/11/15,University of Texas Press,,false,5,6404273,49,53,13,2,2009/12/7,"Blue-Ribbon Babies and Labors of Love: Race, Class, and Gender in U.S. Adoption Practice",,3,8,2,0,0,4.08,199,Paperback,,1,0,Christine Ward Gailey,,,,,,33,2,,"anthropology,history,non-fiction,sociology"
13699501,0300184182,After the Fires: The Ecology of Change in Yellowstone National Park,9780300184181,,,,ES,2011/11/30,Yale University Press,,false,4,325964,6,0,0,0,2004/7/1,After the Fires,,0,0,0,0,0,0.00,400,Paperback,,0,0,,,,Linda L. Wallace,,,5,0,,
13700001,0309083974,Understanding Marine Biodiversity,9780309083973,,,,ES,1995/2/1,National Academies Press,,false,1,13700001,0,0,0,0,1995/2/1,,,0,0,0,0,0,0.00,128,Paperback,,0,0,"Committee on Biological Diversity in Mar,National Research Council",,,,,,,0,,
13700501,0310443024,"NIV, Quilted Collection Bible, Compact, Imitation Leather, Green",9780310443025,,,,ES,2012/5/27,Zondervan,,false,1467,280111,82610,256218,55719,2086,1973/1/1,,book,45127,4433,2620,1452,2087,4.60,,Leather Bound,,0,0,Anonymous,,,,,,14052,72,8592,"adult,adventure,biography,christian,christianity,classic-literature,classics,faith,fantasy,fiction,historical,historical-fiction,history,inspirational,literature,mythology,non-fiction,philosophy,poetry,reference,religion,romance,self-help,spirituality,theology,unfinished,young-adult"
13701001,0313252793,Tax Credits and Intergovernmental Fiscal Relations.,9780313252792,,,,ES,1987/2/2,Greenwood Press,,false,1,13701001,0,0,0,0,1987/2/2,,book,0,0,0,0,0,0.00,216,Hardcover,,0,0,James Ackley Maxwell,,,,,,,0,,
13701501,0314275029,"Securities Regulation: Selected Statutes, Rules and Forms",9780314275028,,,,ES,2011/11/1,West Publishing Company,,false,1,13701501,2,6,2,0,2011/11/1,,,0,1,0,1,0,3.00,2021,Paperback,,2,0,,,,,,,,0,,
13702001,032146723X,"The West: Encounters and Transformations, Concise Edition, Single Volume Edition",9780321467232,,,,ES,2006/6/30,Pearson,,false,5,709034,5,4,1,0,2006/7/10,,book,0,1,0,0,0,4.00,,Unbound,,0,0,"Brian P. Levack,Edward Muir,Michael Maas",,,,,,2,0,,history
13702501,0321568621,Math Reasong for Elem&geomtry V4.02&actv MN,9780321568625,,,,ES,2009/1/1,Pearson,,false,1,13702501,0,0,0,0,2009/1/1,,,0,0,0,0,0,0.00,,Paperback,,0,0,,,Prentice Hall Pearson,,,,,0,,
13703001,0321613236,"Intermediate Algebra, 3rd Printing Value Package (Includes Mathxl 12-Month Student Access Kit)",9780321613233,,,,ES,2008/8/1,Addison Wesley Longman,,false,79,543653,91,135,38,3,1981/1/1,Intermediate Algebra,book,13,9,8,2,6,3.55,,Paperback,,0,0,"John Hornsby,Margaret L. Lial,Terry McGinnis",,,,,,27,0,3,"college,reference,school,textbooks"
13703501,0321648323,College Algbr & Student S/M&vid Lect&mxl Pk,9780321648327,,,,ES,2009/1/1,Pearson,,false,1,13703501,0,0,0,0,2009/1/1,,,0,0,0,0,0,0.00,,Paperback,,0,0,,,Prentice Hall Pearson,,,,,0,,
13704001,032166888X,Human Anatomy Lab Manual W/Cat&atlas&pal Pk,9780321668882,,,,ES,2009/1/1,Pearson,,false,1,13704001,0,0,0,0,2009/1/1,,,0,0,0,0,0,0.00,,Paperback,,0,0,,,Prentice Hall Pearson,,,,,0,,
13704501,0321696786,Essential Environment& Ecology Campus Elem,9780321696786,,,,ES,2009/1/1,Pearson,,false,1,13704501,0,0,0,0,2009/1/1,,,0,0,0,0,0,0.00,,Paperback,,0,0,,,Prentice Hall Pearson,,,,,0,,
13705001,0321763653,Nutrition: An Applied Approach [With Access Code],9780321763655,,,,ES,,,,false,59,1903859,103,166,48,0,2004/11/3,Nutrition: An Applied Approach,book,9,16,16,2,5,3.46,,,,0,0,"Janice   Thompson,Melinda Manore",,,,,,29,-1,3,"health,medical,non-fiction,reference,science,textbooks"
13705501,032182377X,Landscape Photography: From Snapshots to Great Shots,9780321823779,,,,ES,2012/5/19,Peachpit Press,,false,4,13705501,130,191,50,5,2012/5/10,,book,10,25,13,0,2,3.82,249,Paperback,,42,4,Rob Sheppard,,,,,,48,1,18,reference
13706001,0325037302,"Comprehension from the Ground Up Book Study Bundle: Simplified, Sensible Instruction for the K-3 Reading Workshop",9780325037301,,,,ES,2010/10/7,Heinemann Educational Books,,false,1,13706001,1,4,1,0,2010/10/7,,,0,1,0,0,0,4.00,,Unknown Binding,,1,0,Sharon Taberski,,,,,,,0,,
13706501,0335238270,Teaching Travel and Tourism 14+,9780335238279,,,,ES,2010/10/1,Open University Press,,false,3,11381380,1,0,0,0,2010/1/1,,,0,0,0,0,0,0.00,141,Hardcover,,0,0,"Cliff Huggett,Deborah Pownall",,,,,,1,0,,
13707001,0387208453,"Reviews of Environmental Contamination and Toxicology, Volume 182",9780387208459,,,,ES,2004/6/1,Springer,,false,1,13707001,0,0,0,0,2004/6/1,,book,0,0,0,0,0,0.00,195,Hardcover,,0,0,,,,George W. Ware,,,,0,,
13707501,0387984321,Prototyping and Software Development,9780387984322,,,,ES,2001/8/1,Springer,,false,1,13707501,2,1,1,0,2001/8/1,,,0,0,0,0,1,1.00,300,Hardcover,,1,0,Malcolm Harrison,,,,,,1,0,,
13708001,039550225X,Houghton Mifflin Practice Book,9780395502259,,,,ES,1990/6/1,Houghton Mifflin,,false,5,13708001,0,0,0,0,1990/5/1,,,0,0,0,0,0,0.00,,Paperback,,0,0,Houghton Mifflin,,,,,,,0,,
13708501,0412601206,Optical Network Technology,9780412601200,,,,ES,1994/11/30,Springer,,false,1,13708501,0,0,0,0,1994/11/30,,,0,0,0,0,0,0.00,330,Hardcover,,0,0,,,,D.W.  Smith,,,,0,,
13709001,0415174287,Towards a Classless Society?,9780415174282,,,,ES,1998/4/30,Taylor & Francis,,false,9,1394610,2,0,0,0,1997/4/9,Towards a Classless Society? (The State of Welfare),,0,0,0,0,0,0.00,304,Paperback,,0,0,,,,"Helen Jones,Susanne MacGregor",,,2,0,,
13709501,0415279771,Theory of Residues,9780415279772,,,,ES,2003/7/23,Routledge,,false,2,8393881,9,4,1,0,2003/7/23,,book,0,1,0,0,0,4.00,884,Hardcover,,0,0,Vilfredo Pareto,,,Kenneth Thompson,,,8,0,,sociology
13710001,0415392942,Education and Rural Development,9780415392945,,,,ES,2006/1/13,Routledge,,false,1,13710001,0,0,0,0,2006/1/13,,,0,0,0,0,0,0.00,417,Hardcover,,0,0,,,,"James R. Sheffield,Philip Foster",,,,0,,
13710501,0415464137,The University and Public Education: The Contribution of Oxford,9780415464130,,,,ES,2008/2/1,Routledge,,false,6,13710170,0,0,0,0,2006/9/19,,,0,0,0,0,0,0.00,184,Paperback,,0,0,,,,Harry Judge,,,,0,,
13711001,041550127X,Multinational Corporations and European Regional Systems of Innovation,9780415501279,,,,ES,2012/5/2,Routledge,,false,6,17015348,0,0,0,0,2003/7/23,,,0,0,0,0,0,0.00,216,Paperback,,0,0,John Cantwell,,,,,,,0,,
13711501,041550970X,Locating Gender in Modernism: The Outsider Female,9780415509701,,,,ES,2012/5/9,Routledge,,false,7,17537436,2,0,0,0,2012/1/1,,,0,0,0,0,0,0.00,204,Hardcover,,0,0,Geetha Ramanathan,,,,,,2,0,,
13712001,0415528542,Banks and Politics During the Progressive Era (Rle Banking & Finance),9780415528542,,,,ES,2012/5/25,Routledge,,false,5,2836188,6,8,2,1,1992/12/1,"Banks and Politics During the Progressive Era: The Origins of the Federal Reserve System, 1897-1913",book,1,0,1,0,0,4.00,342,Hardcover,,0,0,Richard T. McCulley,,,,,,4,1,,
13712501,0415545366,"Primary School in Japan: Self, Individuality and Learning in Elementary Education",9780415545365,,,,ES,2009/4/9,Routledge,,false,9,6701046,14,19,6,1,2007/1/1,,,0,2,3,1,0,3.17,248,Paperback,,0,0,Peter Cave,,,,,,5,0,,
13713001,0415574110,Ontology Revisited: Metaphysics in Social and Political Philosophy,9780415574112,,,,ES,2012/8/20,Routledge,,false,3,14840004,11,4,1,0,2012/7/1,,,0,1,0,0,0,4.00,152,Hardcover,,1,0,Ruth Groff,,,,,,7,0,1,
13713501,0415594715,Muslims in Britain: Making Social and Political Space,9780415594714,,,,ES,2012/6/22,Routledge,,false,8,13713501,8,4,1,0,2012/1/1,,book,0,1,0,0,0,4.00,208,Hardcover,,1,0,,,,"Waqar Ahmad,Ziauddin Sardar",,,6,0,,
13714001,0415613329,The Screenplay Business: Managing Creativity and Script Development in the Film Industry,9780415613323,,,,ES,2012/11/29,Routledge,,false,7,13714001,13,11,3,1,2012/1/1,,,0,2,1,0,0,3.67,350,Hardcover,,2,0,Peter Bloore,,,,,,8,0,,
13714501,0415626234,"The Orang Suku Laut of Riau, Indonesia: The Inalienable Gift of Territory",9780415626231,,,,ES,2012/3/31,Routledge,,false,8,17488838,8,5,1,0,2004/7/31,,,1,0,0,0,0,5.00,192,Paperback,,0,0,Cynthia Chou,,,,,,4,0,,
13715001,0415668905,Globalization; Today and Tomorrow,9780415668903,,,,ES,2011/8/11,Routledge,,false,8,14838675,8,10,2,0,2011/8/9,,,2,0,0,0,0,5.00,232,Hardcover,,1,0,F. Gerard Adams,,,,,,5,0,,
13715501,0415680131,Rle: Japan Mini-Set B: History (34 Vols),9780415680134,,,,ES,2010/11/2,Routledge,,false,4,13715501,1,0,0,0,2010/11/2,,,0,0,0,0,0,0.00,8768,Hardcover,,0,0,Various,,,,,,1,0,,
13716001,041568921X,Education and the Second World War: Studies in Schooling and Social Change,9780415689212,,,,ES,2011/12/8,Routledge,,false,9,4317282,1,0,0,0,2012/1/19,Education & the Second World War: Studies in Schooling & Social Change,,0,0,0,0,0,0.00,243,Hardcover,,0,0,,,,Roy Lowe,,,,0,1,
13716501,0415697441,Society and HRM in China,9780415697446,,,,ES,2012/4/26,Routledge,,false,5,13716501,1,0,0,0,2012/4/26,,,0,0,0,0,0,0.00,229,Hardcover,,0,0,,,,Malcolm Warner,,,1,0,,
13717001,0415807301,"Couples in Collusion: Short-Term, Assessment-Based Strategies for Helping Couples Disarm Their Defenses",9780415807302,,,,ES,2012/7/15,Routledge,,false,8,13717000,7,7,2,1,2012/7/13,,,0,1,1,0,0,3.50,180,Paperback,,1,1,Dennis A. Bagarozzi,,,,,,3,0,,
13717501,0415885949,"Career Counseling: Foundations, Perspectives, and Applications",9780415885942,,,,ES,2011/10/18,Routledge,,false,10,2982908,76,85,26,1,2005/8/15,Career Counseling,,5,4,11,5,1,3.27,592,Hardcover,,7,0,,,,"David Capuzzi,Mark Stauffer",,,29,1,4,
13718501,0431013993,Mountain Food Chains,9780431013992,,,,ES,2011/7/1,Raintree,,false,4,10383002,1,0,0,0,2010/7/1,,,0,0,0,0,0,0.00,48,Paperback,,0,0,Rachel Lynette,,,,,,1,0,,
13719001,0470006625,"Nutrition: Science and Applications, Second Edition Media Activepresentation CD-ROM for Mac/Windows with Lectureactive User's Guide, Pack",9780470006627,,,,ES,2002/1/29,Wiley,,false,1,13719001,0,0,0,0,2002/1/29,,,0,0,0,0,0,0.00,800,Audio CD,,0,0,Lori A. Smolin,,,,,,,0,,
13719501,047049882X,Finite Mathematics: An Applied Approach [With Iclicker Classroom Response System],9780470498828,,,,ES,,,,false,34,2604448,38,42,11,1,2003/10/24,Finite Mathematics: An Applied Approach,book,5,2,2,1,1,3.82,,,,0,0,Michael   Sullivan,,,,,,20,0,1,non-fiction
13720001,047065662X,Hydrogeology: Principles and Practice,9780470656624,,,,ES,2014/6/3,Wiley-Blackwell,,false,3,1209637,6,0,0,0,2004/12/15,Hydrogeology: Principles and Practice: Instructor's Manual,,0,0,0,0,0,0.00,519,Hardcover,,0,0,Kevin Hiscock,,,,,,4,0,,
13720501,047088908X,"System Dynamics: Modeling, Simulation, and Control of Mechatronic Systems",9780470889084,,,,ES,2012/2/28,Wiley,,false,5,13720501,13,18,5,0,2012/1/24,,,1,2,1,1,0,3.60,636,Hardcover,,5,0,"Dean C. Karnopp,Donald L. Margolis,Ronald C. Rosenberg",,,,,,4,0,1,"reference,research"
13721001,0471323713,"Rating Scales and Checklists: Evaluating Behavior, Personality, and Attitudes and Questionnaires and Inventories: Surveying Opinions and Accessing Personality and Tests and Examinations: Measuring Abilities and Performance",9780471323716,,,,ES,1999/7/9,John Wiley & Sons,,false,2,13721001,20,13,3,1,1996/1/1,,,1,2,0,0,0,4.33,932,Hardcover,,3,1,Lewis R. Aiken,,,,,,14,0,1,
13721501,1429954701,"Struck (Struck, #1)",9781429954709,,,,ES,2012/5/8,"Farrar, Straus and Giroux (BYR)",,true,22,12432229,31497,30088,8157,815,2012/4/26,Struck,book,2527,2247,2090,902,391,3.69,264,ebook,,7,4,Jennifer Bosworth,,,,,,22043,113,130,"action,adventure,dystopia,fantasy,fiction,magic,mystery,novels,paranormal,post-apocalyptic,romance,science-fiction,supernatural,survival,teen,thriller,urban-fantasy,young-adult"
13722001,1137273151,"The Earthy Nature of the Bible: Fleshly Readings of Sex, Masculinity, and Carnality",9781137273154,,,,ES,2012/11/13,Palgrave Macmillan,,false,2,13722001,1,0,0,0,2012/10/30,,,0,0,0,0,0,0.00,208,Paperback,,0,0,Roland T. Boer,,,,,,1,0,,theology
13722501,113709317X,Brain Gain: Technology and the Quest for Digital Wisdom,9781137093172,,,,ES,2012/8/7,St. Martin's Press,,true,3,13722501,126,125,36,6,2012/8/7,,book,5,14,11,5,1,3.47,288,ebook,,26,4,Marc Prensky,,,,,,76,0,2,"education,non-fiction,psychology,science,technology"
13723501,0497254239,Webster's English to German Crossword Puzzles: Level 19,9780497254230,,,,ES,2006/2/10,Icon Reference,,false,1,13723501,0,0,0,0,2006/2/1,,,0,0,0,0,0,0.00,120,Paperback,,0,0,ICON Reference,,,,,,,0,,
13724001,0520267788,Frontier Figures: American Music and the Mythology of the American West,9780520267787,,,,ES,2012/4/18,University of California Press,,false,5,13724000,24,43,10,2,2012/1/1,,,4,5,1,0,0,4.30,470,Paperback,,1,1,Beth E. Levy,,,,,,11,0,,"american-history,history,music"
13724501,0521102383,"Doctors and Slaves: A Medical and Demographic History of Slavery in the British West Indies, 1680 1834",9780521102384,,,,ES,2009/3/1,Cambridge University Press,,false,4,13724501,12,12,3,0,1985/1/25,,book,1,1,1,0,0,4.00,444,Paperback,,3,0,Richard B. Sheridan,,,,,,6,0,,history
13725001,0521135567,"The Rule of Moderation: Violence, Religion and the Politics of Restraint in Early Modern England",9780521135566,,,,ES,2011/9/29,Cambridge University Press,,false,7,13263177,26,27,7,1,2011/8/18,,book,3,1,2,1,0,3.86,381,Paperback,,0,0,Ethan H. Shagan,,,,,,11,0,3,"history,non-fiction"
13725501,0521175739,Stochastic Calculus for Finance,9780521175739,,,,ES,2012/8/23,Cambridge University Press,,false,5,15868258,3,3,1,0,2012/8/23,,,0,0,1,0,0,3.00,186,Paperback,,1,0,"Ekkehard Kopp,Janusz Traple,Marek J. Capinski",,,,,,1,0,1,
13726001,0521263662,SMP 11-16 Pie Chart Scales Pie Chart Scales Pack of 10,9780521263665,,,,ES,1984/5/10,Cambridge University Press,,false,1,13726001,0,0,0,0,1984/5/10,,,0,0,0,0,0,0.00,10,Hardcover,,0,0,School Mathematics Project,,,,,,,0,,
13726501,052146420X,International Law Reports,9780521464208,,,,ES,1987/1/1,Cambridge University Press,,false,16,15300552,0,0,0,0,1986/1/1,,book,0,0,0,0,0,0.00,788,Hardcover,,0,0,,,,"Christopher J. Greenwood,Elihu Lauterpacht",,,,0,,
13727001,1462111017,Happy Homemaking: An LDS Girl's Guide,9781462111015,,,,ES,2012/8/14,"Cedar Fort, Inc.",eng,false,2,13727001,46,63,20,8,2012/8/14,,book,4,2,8,5,1,3.15,224,Paperback,1st,17,8,"Elyssa Andrus,Natalie Hollingshead",,,,,,21,0,1,self-help
13727501,0521741858,Classroom Management Techniques,9780521741859,,,,ES,2014/9/5,Cambridge University Press,eng,false,4,13727501,416,236,53,4,2012/2/23,,book,38,9,1,2,3,4.45,316,Paperback,,53,4,Jim Scrivener,,,,,,306,4,16,"education,history,non-fiction,teaching"
13728001,0521826497,"Culture, Technology, and the Creation of America's National Parks",9780521826495,,,,ES,2006/10/31,Cambridge University Press,,false,2,5478075,27,31,8,1,2004/4/22,"Culture, Technology, and the Creation of America's National Parks (Cambridge Studies in American Literature and Culture)",,3,3,1,0,1,3.88,236,Hardcover,,1,1,"Richard Crusin,Richard Grusin",,,Albert Gelpi,,,17,1,,nature
13728501,0531164837,Personal Computer Communications,9780531164839,,,,ES,2000/9/1,Children's Press(CT),,false,3,13728501,2,0,0,0,2000/3/1,,book,0,0,0,0,0,0.00,64,Paperback,,0,0,Robert L. Perry,,,,,,1,1,,
13729001,0534362060,"Walk, Run, Jog",9780534362065,,,,ES,1999/10/1,Thomson Brooks/Cole,,false,1,13729001,0,0,0,0,1999/10/1,,book,0,0,0,0,0,0.00,250,Paperback,,0,0,Maeve  O'Connor,,,,,,,0,,
13729501,0545981271,Terreur Au Motel,9780545981279,,,,ES,2009/6/1,Scholastic,,false,3,2402553,158,233,62,12,2008/5/1,"The Haunted Road Trip (Scooby-Doo! Readers, #22)",book,17,21,16,8,0,3.76,32,Paperback,,0,0,Gail Herman,,,,,,54,8,,"childrens,fiction,humor,mystery"
13730001,0547175744,Houghton Mifflin Math Spanish Texas: Literature Library U2 LV 1,9780547175744,,,,ES,2009/7/15,Houghton Mifflin,,false,1,13730001,0,0,0,0,,,,0,0,0,0,0,0.00,28,Paperback,,0,0,,,,,,,,0,,
13731001,0557027799,The Last Battlecruiser,9780557027798,,,,ES,2011/5/29,Lulu.com,,false,1,13731001,0,0,0,0,2009/1/23,,,0,0,0,0,0,0.00,198,Hardcover,,0,0,Owen P. Hall Jr.,,,,,,,0,,
13731501,055748748X,The Key,9780557487486,,,,ES,2010/9/14,Lulu.com,,false,1,13731501,0,0,0,0,2010/9/14,,,0,0,0,0,0,0.00,168,Paperback,,0,0,"Al Perry,Liz Huck",,,,,,,0,,
13732001,0558216153,The Early Black Press in America: 1827 to 1860 and Beyond,9780558216153,,,,ES,2009/7/3,Pearson,,false,1,13732001,2,0,0,0,2009/7/3,,,0,0,0,0,0,0.00,202,Paperback,,0,0,Frankie Hutton,,,,,,1,0,,
13732501,0571274692,The Eddie Dickens Trilogy,9780571274697,,,,ES,2011/8/4,Faber  Faber,,false,7,3699995,139,288,70,8,2003/10/16,The Eddie Dickens Trilogy,book,30,23,14,1,2,4.11,,Paperback,,14,4,Philip Ardagh,,,,,,15,4,5,"childrens,fiction,middle-grade"
13733001,0571536239,Violin Grade 3: Violin Solo,9780571536238,,,,ES,2011/9/1,Faber Music Ltd,,false,1,13733001,1,0,0,0,2011/9/1,,book,0,0,0,0,0,0.00,24,Paperback,,0,0,Paul  Harris,,,,,,1,0,,
13733501,0578005662,Recetas Magicas 2009,9780578005669,,,,ES,2010/8/30,Marylin Ferreiro,,false,1,13733501,0,0,0,0,2010/8/30,,,0,0,0,0,0,0.00,,Paperback,,0,0,Marylin Ferreiro,,,,,,,0,,
13734001,057808001X,Live It Up,9780578080017,,,,ES,2011/5/1,Auxano Press,,false,1,13734001,1,0,0,0,2011/5/1,,,0,0,0,0,0,0.00,148,Paperback,,0,0,Kenneth S. Hemphill,,,,,,1,0,,
13734501,0595137377,Meditations in a Rubber Room,9780595137374,,,,ES,2000/10/1,Authors Choice Press,,false,2,13734501,0,0,0,0,2000/10/1,,,0,0,0,0,0,0.00,132,Paperback,,0,0,Carla Vendries,,,,,,,0,,
13735001,0595233155,...with the Light On...: (...and Other Life Strategies),9780595233151,,,,ES,2002/7/2,iUniverse,,false,3,13735001,0,0,0,0,2002/7/1,,,0,0,0,0,0,0.00,160,Paperback,,0,0,Carl L. Gould,,,,,,,0,,
13735501,0595314023,Journey of Discovery,9780595314027,,,,ES,2004/4/6,iUniverse,,false,1,13735501,1,0,0,0,2004/4/6,,,0,0,0,0,0,0.00,100,Paperback,,0,0,Paula Denise Johnson,,,,,,,0,,
13736001,059542953X,Planet Camp,9780595429530,,,,ES,2007/3/2,iUniverse,,false,2,13736001,0,0,0,0,2007/3/1,,,0,0,0,0,0,0.00,272,Paperback,,0,0,Lane McGwire,,,,,,,0,,
13736501,0595504914,"By Faith: A Century of Progress: A History of the Episcopal Church of Saint Mark, Jackson, Mississippi 1883-2003",9780595504916,,,,ES,2009/5/19,iUniverse,,false,2,13736501,0,0,0,0,2009/5/1,,,0,0,0,0,0,0.00,340,Paperback,,0,0,Barbara Beadle Barber,,,,,,,0,,
13737001,0595665551,Cesspool,9780595665556,,,,ES,2004/8/24,iUniverse,,false,2,13735559,2,0,0,0,2004/8/1,,,0,0,0,0,0,0.00,164,Hardcover,,0,0,K. E. Dohmen,,,,,,2,0,,
13737501,0595772951,The Islander,9780595772957,,,,ES,2001/11/1,Writers Club Press,,false,3,2899929,5,16,4,0,2001/11/1,The Islander,,1,2,1,0,0,4.00,179,Hardcover,,0,0,John     Allen,,,,,,1,0,,
13738001,0606235256,I Want a Pet!,9780606235259,,,,ES,2011/9/27,Turtleback Books,,false,10,539024,220,425,119,17,1999/1/1,I Want a Pet!,book,23,34,52,8,2,3.57,24,Hardcover,,0,0,Lauren Child,,,,,,51,13,2,"animals,childrens,fiction,humor,juvenile,picture-books"
13738501,0606251936,The Only Brother,9780606251938,,,,ES,2012/1/1,Turtleback Books,,false,3,7020214,57,74,20,5,2012/1/1,,,6,5,7,1,1,3.70,181,Hardcover,,0,0,Caias Ward,,,,,,27,1,1,"abuse,fiction,realistic-fiction"
13739001,061517809X,Finding the Strength,9780615178097,,,,ES,2008/2/22,Harvest Publications,,false,2,13442549,0,0,0,0,2008/2/1,,,0,0,0,0,0,0.00,60,Paperback,,0,0,Dave Powers,,,,,,,0,,
13739501,0615311490,The Secret Life of God,9780615311494,,,,ES,2009/9/21,Raymond Cullis,,false,1,13739501,2,0,0,0,2009/9/21,,,0,0,0,0,0,0.00,262,Paperback,,0,0,Raymond W. Cullis,,,,,,,0,,
13740001,0615452108,My Hagakure,9780615452104,,,,ES,2014/4/8,"Alphaomega Productions, LLC",,false,1,13740001,3,0,0,0,2011/3/31,,,0,0,0,0,0,0.00,240,Paperback,,0,0,Paul Askedall,,,,,,3,0,,
13740501,0615509215,The Callie Stories,9780615509211,,,,ES,2011/8/25,"Shapato Publishing, LLC",,false,2,13740501,10,0,0,0,2011/8/25,,,0,0,0,0,0,0.00,196,Paperback,,0,0,Karen Jones Schutt,,,,,,3,0,6,
13741001,061554729X,Teacher Trouble,9780615547299,,,,ES,2011/9/27,Rockywoodsfarm,,false,1,13741001,2,5,1,1,2011/9/27,,,1,0,0,0,0,5.00,26,Paperback,,1,1,Hollie McCurdy,Anne McCurdy,,,,,1,0,,
13741501,0615577814,An Italian Hand Story,9780615577814,,,,ES,2011/12/5,Betty and Al Books for Young Readers,,false,1,13741501,1,0,0,0,2011/12/5,,,0,0,0,0,0,0.00,34,Paperback,,0,0,Amanda L. Jenkins,Rebecca Reck,,,,,,0,,
13742001,0615606288,CFP Certification Exam Flashcard Review Book: Tax Planning,9780615606286,,,,ES,2012/3/1,Coventry House Publishing,,false,7,44541942,4,16,4,0,2012/3/1,,book,2,0,2,0,0,4.00,108,Paperback,,1,0,Matthew Brandeburg,,,,,,,0,,
13742501,0618062688,Children of the Wild West,9780618062683,,,,ES,2000/9/11,Houghton Mifflin,,false,7,695660,244,278,77,15,1983/1/1,Children of the Wild West,,11,40,14,9,3,3.61,112,Paperback,Theme Paperbacks on Level Theme 5 Grade 5,0,0,Russell Freedman,,,,,,33,7,4,"american-history,chapter-books,childrens,fiction,historical,history,juvenile,non-fiction,young-adult"
13743001,0618409564,Houghton Mifflin Math Steps Spanish: Student Edition Level 4 2003,9780618409563,,,,ES,2003/7/25,Houghton Mifflin Harcourt (HMH),,false,1,13743001,0,0,0,0,2003/7/25,,,0,0,0,0,0,0.00,320,Paperback,,0,0,,,,,,,,0,,
13743501,0618612823,"A History of Western Society, Volume A: From Antiquity to 1500 [With Web Access Passkey]",9780618612826,,,,ES,,,,false,1,13743501,0,0,0,0,2005/2/1,,book,0,0,0,0,0,0.00,,,,0,0,"Bennett D. Hill,John P. McKay",,,,,,,0,,
13744001,0618700358,Houghton Mifflin Math: Read Aloud Antholog L2 Set,9780618700356,,,,ES,2006/6/1,Houghton Mifflin,,false,1,13744001,1,0,0,0,2006/6/1,,,0,0,0,0,0,0.00,,Paperback,,0,0,,,,,,,1,0,,
13744501,0618778527,Houghton Mifflin Science: Science Support Reader (Set of 6) Chapter 5 Grade 5 Level 5 Life in Ecosystems,9780618778522,,,,ES,2006/9/1,Houghton Mifflin,,false,2,13744759,0,0,0,0,2006/8/25,,,0,0,0,0,0,0.00,,Paperback,,0,0,,,,,,,,0,,
13745001,0618931775,Houghton Mifflin Reading Intervention: Soar to Success Student Book Level 2 Wk 8 Our Dogs,9780618931774,,,,ES,2007/5/24,Houghton Mifflin,,false,1,13745001,0,0,0,0,2007/5/24,,,0,0,0,0,0,0.00,12,Paperback,,0,0,,,,,,,,0,,
13745501,0631231382,The German Language: A Linguistic Introduction,9780631231387,,,,ES,2003/1/27,Wiley-Blackwell,,false,7,4150986,16,4,1,0,2003/1/1,The German Language: A Linguistic Introduction,,0,1,0,0,0,4.00,272,Hardcover,,0,0,"Jean Boase-Beier,Ken R. Lodge",,,,,,9,0,,
13746501,0646571168,Weapons of Cash Destruction: Protect Your Fortune from Fraud!,9780646571164,,,,ES,2012/2/10,Trish Jenkins,,false,2,13746501,2,4,1,1,2012/2/10,,,0,1,0,0,0,4.00,204,Paperback,,1,1,Trish Jenkins,,,,,,1,0,,business
13748001,0691073678,Worlds Propositions,9780691073675,,,,ES,1999/12/1,Princeton University Press,,false,1,13748001,0,0,0,0,1999/12/1,,,0,0,0,0,0,0.00,,Hardcover,,0,0,Phillip Bricker,,,,,,,0,,
13752501,0700716106,The Politics of Egypt: State-Society Relationship,9780700716104,,,,ES,2002/6/27,Routledge,,false,1,13752501,10,0,0,0,2002/6/27,,,0,0,0,0,0,0.00,328,Hardcover,,0,0,"Ninette S. Fahmy,S. Fahmy Ninette",,,,,,5,0,2,
13753001,0711942226,Lennox Berkeley: O That I Once Past Changing Were,9780711942226,,,,ES,2008/12/1,Music Sales,,false,1,13753001,0,0,0,0,2008/12/1,,,0,0,0,0,0,0.00,4,Paperback,,0,0,,,,,,,,0,,
13753501,0715638955,"Emotion, Genre and Gender in Classical Antiquity",9780715638958,,,,ES,2011/7/21,Bristol Classical Press,,false,1,13753501,1,0,0,0,2011/7/15,,,0,0,0,0,0,0.00,280,Hardcover,,0,0,,,,Dana LaCourse Munteanu,,,1,0,,
13754001,0723433828,The Flesh and Bones of Medical Microbiology,9780723433828,,,,ES,2010/12/9,Mosby,,false,1,13754001,0,0,0,0,2010/12/9,,,0,0,0,0,0,0.00,132,Paperback,,0,0,"Andrea Guyot,Silke Schelenz,Steven H. Myint",,,,,,,0,,
13754501,0735406472,"Quantum Communication, Measurement and Computing (QCMC): The Ninth International Conference, Calgary, Canada, 19-24 August 2008",9780735406476,,,,ES,2009/5/1,American Institute of Physics,,false,1,13754501,0,0,0,0,2009/5/1,,,0,0,0,0,0,0.00,466,Hardcover,,0,0,,,,Alexander Lvovsky,,,,0,,
13755001,0736821392,North American Racer Snakes,9780736821391,,,,ES,2003/9/1,Capstone Press,,false,1,13755001,1,0,0,0,2003/8/1,,,0,0,0,0,0,0.00,48,Hardcover,,0,0,Adele D. Richardson,,,,,,1,0,,
13755501,0737716436,Mysterious Places - L,9780737716436,,,,ES,2003/11/7,Greenhaven Press,,false,1,13755501,1,0,0,0,2003/11/7,,,0,0,0,0,0,0.00,158,Hardcover,,0,0,Rick Gilbert,,,,,,,0,,
13756001,0737756861,Student Drug Testing,9780737756869,,,,ES,2011/12/9,Greenhaven Press,,false,2,13756001,1,0,0,0,2011/12/7,,,0,0,0,0,0,0.00,132,Hardcover,,0,0,,,,Lauri S. Friedman,,,1,0,,
13756501,0738587095,"Salem: Volume II Trolleys, Canobie Lake, and Rockingham Park (Images of America: New Hampshire)",9780738587097,,,,ES,1996/8/1,Arcadia Publishing,,false,2,13756501,4,12,3,0,1996/8/1,"Salem, NH: Volume II Trolleys, Canobie Lake, and Rockingham Park (Images of America: New Hampshire)",book,1,1,1,0,0,4.00,128,Paperback,,2,0,"Douglas W. Seed,Katherine Khalife",,,,,,1,0,,
13757001,0738610070,"Ftce - Florida Teacher Certification Examinations: Elementary Education K-6, 2nd Ed.",9780738610078,,,,ES,2011/11/15,Research & Education Association,,false,1,13757001,0,0,0,0,2011/11/15,,,0,0,0,0,0,0.00,,Paperback,,0,0,Anita Price Davis,,,,,,,0,,
13757501,0739034944,7 Psalms and Spiritual Songs for Solo Voice,9780739034941,,,,ES,2004/6/1,"Alfred Publishing Co., Inc.",,false,1,13757501,0,0,0,0,2004/6/1,,,0,0,0,0,0,0.00,,Audio CD,,0,0,,,,,,,,0,,
13758001,0739078895,Michael Jackson: Piano/Vocal/Guitar,9780739078891,,,,ES,2011/2/1,"Alfred Publishing Co., Inc.",,false,1,13758001,8,15,3,0,2011/2/1,,,3,0,0,0,0,5.00,76,Paperback,,3,0,,,,,,,7,0,,
13758501,073911073X,"Gramsci, Migration, and the Representation of Women's Work in Italy and the U.S.",9780739110737,,,,ES,2007/5/1,Lexington Books,,false,5,16959271,0,0,0,0,2007/1/1,,,0,0,0,0,0,0.00,160,Hardcover,,0,0,Laura E. Ruberto,,,,,,,0,,
13759001,0739705407,Belise Business and Investment Opportunities Yearbook,9780739705407,,,,ES,2004/10/1,"International Business Publications, USA",,false,1,13759001,0,0,0,0,2004/10/1,,,0,0,0,0,0,0.00,360,Paperback,,0,0,,,,,,,,0,,
13759501,0739750992,Bolivia Tax Guide,9780739750995,,,,ES,2005/2/11,"International Business Publications, USA",,false,1,13759501,0,0,0,0,2005/2/1,,,0,0,0,0,0,0.00,308,Paperback,,0,0,,,,,,,,0,,
13760001,0739786938,Us Business and Investment Opportunities Yearbook,9780739786932,,,,ES,2004/1/1,"International Business Publications, USA",,false,1,13760001,0,0,0,0,2004/1/1,,,0,0,0,0,0,0.00,412,Paperback,,0,0,,,,,,,,0,,
13762501,0743900480,Los Pastizales Africanos,9780743900485,,,,ES,2005/7/1,Teacher Created Materials,,false,7,13762719,2,4,1,0,2005/3/1,,,0,1,0,0,0,4.00,28,Paperback,,0,0,William B. Rice,,,,,,1,0,,
13763001,0745651100,The End of Finance,9780745651101,,,,ES,2011/11/21,Polity Press,,false,9,11461432,56,49,11,0,2009/8/1,,book,7,2,2,0,0,4.45,300,Hardcover,,0,0,"Luca Fantacci,Massimo Amato",,,,,,35,2,3,economics
13763501,0748645152,The Phantom of Chance: From Fortune to Randomness in Seventeenth-Century French Literature,9780748645152,,,,ES,2012/2/28,Edinburgh University Press,,false,2,13763501,3,4,1,0,2012/2/28,,,0,1,0,0,0,4.00,211,Hardcover,,1,0,John D. Lyons,,,,,,2,0,,
13764001,0750266015,Travel and Tourism (Development Or Destruction?),9780750266017,,,,ES,2011/10/1,Wayland,,false,7,14498849,1,4,1,0,2011/10/1,,book,0,1,0,0,0,4.00,48,Hardcover,,0,0,Louise Spilsbury,,,,,,,0,,
13765001,0753152606,The Killing of the Tinkers: A Jack Taylor Story,9780753152607,,,,ES,2012/5/1,ISIS Large Print Books,,false,25,952358,4097,9989,2494,189,2002/1/1,The Killing of the Tinkers,book,780,1103,481,104,26,4.01,264,Paperback,Large Print,2,0,Ken Bruen,,,,,,1209,18,49,"adult,crime,detective,fiction,mystery,mystery-thriller,suspense,thriller"
13765501,0755117565,Travelling Crimes,9780755117567,,,,ES,2010/9/24,House of Stratus,,false,14,3364819,83,166,44,6,1962/1/1,Gideon's Ride,book,8,19,16,1,0,3.77,202,Paperback,,0,0,"J.J. Marric,John Creasey",,,,,,26,1,2,"crime,detective,fiction,historical-fiction,mystery"
13766501,0756941784,Energy Works!: Electricity and Magnetism,9780756941789,,,,ES,2005/12/1,Perfection Learning,,false,2,13766501,0,0,0,0,2005/12/1,,,0,0,0,0,0,0.00,40,Hardcover,,0,0,Jenny Karpelenia,,,,,,,0,,
13767001,0756990335,Mama Day,9780756990336,,,,ES,2010/1/1,Perfection Learning,,false,20,33363,17491,36747,8812,551,1988/1/1,Mama Day,book,3879,3079,1444,294,116,4.17,312,Hardcover,,7,2,Gloria Naylor,,,,,,7349,20,255,"adult,adult-fiction,american,classics,college,contemporary,cultural,family,fantasy,feminism,fiction,historical-fiction,literary-fiction,literature,magic,magical-realism,novels,romance,school,speculative-fiction"
13771501,0757934439,High Maintenance,9780757934438,,,,ES,2002/12/1,Alfred Publishing Company,,false,1,13771501,0,0,0,0,2002/12/1,,,0,0,0,0,0,0.00,,Paperback,,0,0,,,,,,,,0,,
13772501,0759639612,My Life: From the Outhouse to the Computer,9780759639614,,,,ES,2001/8/1,Authorhouse,,false,2,13772501,1,3,1,0,2001/8/1,,,0,0,1,0,0,3.00,134,Paperback,,1,0,Edna Faulkner,,,,,,,0,,
13773501,0761422293,Submarines (Great Inventions),9780761422297,,,,ES,2006/9/1,Cavendish Square Publishing,,false,1,13773501,2,0,0,0,2006/9/1,,book,0,0,0,0,0,0.00,127,Hardcover,,0,0,Rebecca Stefoff,,,,,,1,0,,
13774001,0761813780,Let's Kill 'em: Understanding and Controlling Violence in Sports,9780761813781,,,,ES,1999/6/10,University Press of America,,false,2,13774001,0,0,0,0,1999/6/10,,,0,0,0,0,0,0.00,128,Paperback,,0,0,Jon Leizman,,,,,,,0,,
13774501,0761932240,AIDS in Asia: The Challenge Continues,9780761932246,,,,ES,2004/11/16,Sage Publications Pvt. Ltd,,false,2,13774501,1,3,1,0,2004/10/7,,,0,0,1,0,0,3.00,392,Hardcover,,1,0,,,,Jai P. Narain,,,,0,,
13777001,0763597813,The Big Yellow Castle,9780763597818,,,,ES,1999/9/1,Rigby,,false,1,13777001,2,0,0,0,1999/9/1,,book,0,0,0,0,0,0.00,,Paperback,,0,0,Annette Smith,Meredith Thomas,,,,,1,0,,
13777501,0763775894,J & B Clinical Card: Rheumatoid Arthritis,9780763775896,,,,ES,2009/8/26,Jones & Bartlett Publishers,,false,1,13777501,0,0,0,0,2009/8/26,,,0,0,0,0,0,0.00,,Hardcover,,0,0,Marc L. Miller,,,,,,,0,,
13778001,0764337289,Meteorites,9780764337284,,,,ES,2011/7/13,Schiffer Publishing,,false,1,13778001,4,9,2,0,2011/4/1,,,1,1,0,0,0,4.50,159,Paperback,,2,0,Bruce L. Stinchcomb,,,,,,3,0,,
13778501,0765208768,"Discoveries, Teacher Guide, First Chapters",9780765208767,,,,ES,1998/10/1,Modern Curriculum Press,,false,1,13778501,0,0,0,0,1998/10/1,,,0,0,0,0,0,0.00,,Hardcover,,0,0,,,,,,,,0,,
13779001,0765616599,Civil-Military Relations in Today's China: Swimming in a New Sea: Swimming in a New Sea,9780765616593,,,,ES,2006/10/1,Routledge,,false,2,13779001,0,0,0,0,2006/10/1,,,0,0,0,0,0,0.00,344,Hardcover,,0,0,,,,David Michael Finkelstein,,,,0,,
13779501,0766040739,Space Shuttle Disaster: The Tragic Mission of the Challenger,9780766040731,,,,ES,2012/8/1,Enslow Publishers,,false,4,13779501,16,19,5,0,2012/8/1,,,3,0,0,2,0,3.80,48,Hardcover,,4,0,Henry M. Holden,,,,,,4,0,,non-fiction
13781501,0769031307,Dale Seymour Products Math Motivator Pack Library Grade Seven 2003,9780769031309,,,,ES,2002/7/1,Dale Seymour Publications,,false,1,13781501,0,0,0,0,2002/7/1,,,0,0,0,0,0,0.00,,Hardcover,,0,0,,,,,,,,0,,
13782001,0778716961,Why We Need Proteins,9780778716969,,,,ES,2011/2/15,Crabtree Publishing Company,,false,3,13226986,3,8,2,1,2011/2/1,,,1,0,1,0,0,4.00,48,Paperback,,0,0,Angela Royston,,,,,,1,0,,
13782501,0778747050,Animal Rights Activist,9780778747055,,,,ES,2009/8/1,Crabtree Publishing Company,,false,3,10200443,2,6,2,1,2009/8/1,,book,0,1,0,1,0,3.00,32,Paperback,,0,0,Carrie Gleason,,,,,,,0,,
13783001,0778795276,Can It Fly?,9780778795278,,,,ES,2010/8/1,Crabtree Publishing Company,,false,6,13782993,1,0,0,0,2010/8/1,,,0,0,0,0,0,0.00,16,Paperback,,0,0,Bobbie Kalman,,,,,,,0,,
13783501,0780810023,Disease Management Sourcebook,9780780810020,,,,ES,2008/4/1,Omnigraphics,,false,1,13783501,0,0,0,0,2008/2/1,,,0,0,0,0,0,0.00,649,Hardcover,,0,0,,,,Joyce Brennfleck Shannon,,,,0,,
13784001,0785426345,"A Survey of World Cultures Europe, 2nd Edition Teachers Guide",9780785426349,,,,ES,2006/1/1,Ags Classic Short Stories,,false,1,13784001,0,0,0,0,2006/1/1,,,0,0,0,0,0,0.00,,Hardcover,,0,0,,,,,,,,0,,
13784501,0786171561,Bloomsday Dead,9780786171569,,,,ES,2007/3/1,Blackstone Audiobooks,,false,21,21287,2394,6561,1585,112,2007/3/1,The Bloomsday Dead,book,601,688,233,42,21,4.14,,Audio CD,,1,0,Adrian McKinty,,,,,Gerard Doyle,567,9,36,"action,adult,contemporary,crime,detective,fiction,historical,mystery,mystery-thriller,suspense,thriller"
13785001,0786467142,Our Sweetest Hours: Recreation and the Mental State of Absorption,9780786467143,,,,ES,2012/1/11,McFarland & Company,,false,2,367582,4,0,0,0,1989/3/1,Our Sweetest Hours: Recreation and the Mental State of Absorption,,0,0,0,0,0,0.00,246,Paperback,,0,0,Gene Quarrick,,,,,,3,0,,
13787001,0788435906,Tartans for the Irish!: Suggested Tartans for Irish and Ulster Scots Names,9780788435904,,,,ES,,,,false,1,13787001,1,4,1,0,2009/5/1,,,0,1,0,0,0,4.00,,,,1,0,"Philip D. Smith, Jr.",,,,,,,0,,
13788001,0791815137,Proceedings of the 31st National Heat Transfer Conference: Volume 9,9780791815137,,,,ES,1996/1/1,American Society of Mechanical Engineers,,false,1,13788001,0,0,0,0,1996/1/1,,,0,0,0,0,0,0.00,160,Paperback,,0,0,American Society of Mechanical Engineers,,,,,,,0,,
13788501,0792389727,"Immunoassay Kit Directory: Series A, Volume 1, Part 3",9780792389729,,,,ES,1992/4/7,Springer,,false,1,13788501,0,0,0,0,1992/4/7,,,0,0,0,0,0,0.00,,Paperback,,0,0,,,,Hugh Young,,,,0,,
13789001,0800699068,Clothing,9780800699062,,,,ES,2012/7/1,Fortress Press,,false,3,13789001,19,24,7,1,2012/7/1,,,1,3,1,2,0,3.43,124,Paperback,,7,1,Michele Saracino,,,,,,8,0,,theology
13789501,0802065627,"First People, First Voices",9780802065629,,,,ES,1984/12/1,University of Toronto Press,,false,2,5231125,8,8,2,0,1983/1/1,"First People, First Voices",book,1,0,1,0,0,4.00,221,Paperback,,1,0,,,,Penny Petrone,,,6,0,,
13790001,0805820302,Toward a Competitive Telecommunication Industry: Selected Papers from the 1994 Telecommunications Policy Research Conference,9780805820300,,,,ES,1995/10/1,Routledge,,false,2,13790001,0,0,0,0,1995/9/1,,,0,0,0,0,0,0.00,408,Hardcover,,0,0,,,,"Gerald W. Brock,Mario Brock",,,,0,,
13790501,0806354232,"Eastern Cherokee Census 1923-1929, Vol. III",9780806354231,,,,ES,2009/5/1,Clearfield,,false,1,13790501,2,0,0,0,2009/5/1,,,0,0,0,0,0,0.00,298,Paperback,,0,0,Jeff Bowen,,,,,,2,0,,
13791001,080785641X,New Ground: Western American Narrative and the Literary Canon,9780807856413,,,,ES,2011/8/1,University of North Carolina Press,,false,1,13791001,0,0,0,0,1989/10/20,,,0,0,0,0,0,0.00,195,Paperback,,0,0,A. Carl Bredahl Jr.,,,,,,,0,,
13791501,080914526X,Praying with Mother Teresa,9780809145263,,,,ES,2011/3/1,Paulist Press,,false,2,13791501,2,10,2,0,2011/3/1,,,2,0,0,0,0,5.00,47,Paperback,,0,0,,,,Roswitha Kornprobst,School Sisters of Notre Dame,,,0,,
13792001,0810843404,Constructing Multicultural Education in a Diverse Society,9780810843400,,,,ES,2003/4/21,R & L Education,,false,2,13792001,0,0,0,0,2003/4/21,,,0,0,0,0,0,0.00,272,Paperback,,0,0,Ilghiz M. Sinagatullin,,,,,,,0,,
13792501,0811703711,Guide to Personal Financial Planning for the Armed Forces,9780811703710,,,,ES,2012/10/1,Tradeselect,,false,2,13792501,2,9,2,0,2012/9/1,,,1,1,0,0,0,4.50,330,Paperback,,2,0,"S. Jamie Gayton,Scott P. Handler,Stephen Gayton",,,,,,,0,,
13793001,1444726234,Frisky Business,9781444726237,,,,ES,2012/6/1,Hachette Books Ireland,eng,false,8,13793001,2705,2886,767,103,2012/6/1,,book,228,254,190,65,30,3.76,456,Paperback,,438,68,Clodagh Murphy,,,,,,792,18,141,"adult,chick-lit,contemporary,drama,family,fiction,funny,humor,realistic-fiction,romance"
13793501,2844760317,"666 (Les Chroniques de l'Apocalypse, 3)",,,,,ES,,Multisim,fre,false,1,13793501,1,0,0,0,,,book,0,0,0,0,0,0.00,,Paperback,,0,0,"Jean-Rémy Lerin,Sebastien Celerin",,,,,,,0,,
13794001,0813658632,"Toni Morrison, 6 Pack, Softcover, Beginning Biographies",9780813658636,,,,ES,1997/10/17,Modern Curriculum Press,,false,1,13794001,0,0,0,0,1997/10/1,,,0,0,0,0,0,0.00,,Hardcover,,0,0,,,,,,,,0,,
13794501,0814680453,Living the Justice of the Triune God,9780814680452,,,,ES,2012/2/1,Michael Glazier,,false,3,13794501,5,10,3,0,2012/1/1,,,1,0,1,1,0,3.33,160,Paperback,,2,0,"David Noel Power,Michael Downey",,,,,,1,0,,
13795001,0816032696,In Vitro Fertilization: The A.R.T. of Making Babies,9780816032693,,,,ES,1995/1/1,Facts on File,,false,7,3449139,64,117,30,3,1995/1/1,In Vitro Fertilization: The A.R.T. of Making Babies,,9,11,8,2,0,3.90,233,Hardcover,,0,0,Geoffrey Sher,,,,,,15,1,7,"art,health,reference,self-help"
13796001,0820325643,Rethinking Social Realism,9780820325644,,,,ES,2004/11/22,University of Georgia Press,,false,1,13796001,1,0,0,0,2004/2/1,,,0,0,0,0,0,0.00,356,Hardcover,,0,0,Stacy I. Morgan,,,,,,1,0,,
13796501,0822446138,World Myths and Legends I & II Complete Set,9780822446132,,,,ES,,,,false,1,13796501,0,0,0,0,1999/1/1,,,0,0,0,0,0,0.00,,,,0,0,,,,,,,,0,,
13797001,0823423204,The Wing Wing Brothers Math Spectacular!,9780823423200,,,,ES,2012/8/1,Holiday House,,false,5,13797001,120,238,71,22,2012/8/1,,,10,16,34,11,0,3.35,,Hardcover,,71,22,Ethan Long,,,,,,19,11,,"animals,childrens,comedy,fiction,funny,humor,non-fiction,picture-books,school"
13797501,0823973867,Music Math,9780823973866,,,,ES,2004/1/1,Rosen Classroom,,false,5,10484050,11,8,3,4,2004/1/1,,book,0,0,2,1,0,2.67,32,Paperback,,0,0,Kathleen Collins,,,,,,6,0,,
13798001,0823995747,Galileo,9780823995745,,,,ES,2003/1/1,Rosen Classroom,,false,3,8322187,2,10,2,0,2003/1/1,,,2,0,0,0,0,5.00,24,Paperback,,0,0,Kerri O'Donnell,,,,,,,0,,
13798501,0824945212,Touched by Heaven: More Than Coincidence... True Stories of God's Miracles in Everyday Life,9780824945213,,,,ES,2012/2/7,GuidepostsBooks,,false,5,13798501,47,76,18,2,2012/2/7,,,8,6,4,0,0,4.22,184,Hardcover,,8,1,,,,,,,11,1,2,"inspirational,non-fiction"
13799001,0826107990,"Rural Mental Health: Issues, Policies, and Best Practices",9780826107992,,,,ES,2012/6/20,Springer Publishing Company,,false,4,13799001,9,12,3,1,2012/1/1,,,1,1,1,0,0,4.00,368,Paperback,,2,1,,,,"Jackson P. Rainer,Jacob C. Warren,K. Bryant Smalley",,,4,0,2,psychology
13799501,0826499147,Key Terms in Second Language Acquisition,9780826499141,,,,ES,2010/3/4,Bloomsbury Academic,,false,10,7909562,39,62,17,1,2010/1/4,,,4,7,3,2,1,3.65,192,Hardcover,,0,0,"Alessandro G. Benati,Bill VanPatten",,,,,,14,1,9,"education,language,non-fiction"
13800001,0830839755,A Little Book for New Theologians: Why and How to Study Theology (Little Books),9780830839759,,,,ES,2012/8/3,IVP Academic,eng,false,3,13800001,996,2169,532,77,2012/7/5,,book,188,228,90,21,5,4.08,126,Paperback,,437,69,Kelly M. Kapic,,,,,,276,15,59,"christian,christianity,non-fiction,religion,textbooks,theology,young-adult"
13800501,0834170272,The Wonder of Christmas: A Timeless Story,9780834170278,,,,ES,2000/3/15,Lillenas Publishing Company,,false,4,13800501,3,5,1,0,2000/3/15,,,1,0,0,0,0,5.00,136,Paperback,,1,0,Tom Fettke,,,,,,2,0,,
13801001,0835905101,Tpstry: A Multicultural Anthol Se 93c,9780835905107,,,,ES,1998/6/1,Globe Fearon,,false,1,13801001,1,0,0,0,1998/6/1,,,0,0,0,0,0,0.00,,Paperback,,0,0,,,,,,,,0,,teaching
13801501,0835954900,Reading in Content Area Level D Trm 00c,9780835954907,,,,ES,1999/3/1,Globe Fearon,,false,1,13801501,0,0,0,0,1999/3/1,,,0,0,0,0,0,0.00,,Paperback,,0,0,,,,,,,,0,,
13802001,0836878469,Cats Are Night Animals,9780836878462,,,,ES,2007/1/1,Weekly Reader Early Learning Library,,false,4,15393981,6,7,2,0,2007/1/1,,,0,1,1,0,0,3.50,24,Hardcover,,1,0,Joanne Mattern,,,,,,3,0,,picture-books
13802501,0837302226,Electrical Engineering Draftsman,9780837302225,,,,ES,2014/1/1,National Learning Corp,,false,1,13802501,1,0,0,0,1994/12/1,,,0,0,0,0,0,0.00,,Paperback,,0,0,Jack Rudman,,,National Learning Corporation,,,1,0,,
13803001,0837308186,Transcribing Typist,9780837308180,,,,ES,2011/1/1,National Learning Corp,,false,1,13803001,0,0,0,0,2005/10/1,,,0,0,0,0,0,0.00,,Paperback,,0,0,,,,National Learning Corporation,,,,0,,
13803501,0837313740,Museum Attendant: Test Preparation Study Guide,9780837313740,,,,ES,2011/1/1,National Learning Corp,,false,1,13803501,0,0,0,0,1994/12/1,,,0,0,0,0,0,0.00,,Spiral-bound,,0,0,,,,National Learning Corporation,,,,0,,
13804001,0837319455,Senior Microbiologist,9780837319452,,,,ES,2009/1/1,National Learning Corp,,false,1,13804001,0,0,0,0,2005/10/1,,,0,0,0,0,0,0.00,,Spiral-bound,,0,0,,,,,,,,0,,
13804501,0837325218,Highway Engineer,9780837325217,,,,ES,2014/1/1,National Learning Corp,,false,1,13804501,0,0,0,0,2005/10/1,,,0,0,0,0,0,0.00,,Paperback,,0,0,,,,National Learning Corporation,,,,0,,
13805001,083733084X,Forester Trainee,9780837330846,,,,ES,2014/1/1,National Learning Corp,,false,1,13805001,0,0,0,0,2005/10/1,,,0,0,0,0,0,0.00,,Paperback,,0,0,,,,National Learning Corporation,,,,0,,
13805501,083733652X,Econometrician,9780837336527,,,,ES,2014/1/1,National Learning Corp,,false,1,13805501,0,0,0,0,2005/10/1,,,0,0,0,0,0,0.00,,Paperback,,0,0,,,,National Learning Corporation,,,,0,,
13806001,0837353491,Dental Auxiliary Education Examination in Oral Radiography,9780837353494,,,,ES,2015/1/1,National Learning Corp,,false,1,13806001,0,0,0,0,2005/10/1,,,0,0,0,0,0,0.00,,Paperback,,0,0,,,,National Learning Corporation,,,,0,,
13806501,0837374855,Nursing,9780837374857,,,,ES,2004/1/1,National Learning Corp,,false,2,13806658,0,0,0,0,2005/10/1,,,0,0,0,0,0,0.00,,Paperback,,0,0,,,,National Learning Corporation,,,,0,,
13807001,0840029365,Introduction to Psychology,9780840029362,,,,ES,2012/2/1,Wadsworth Publishing Company,,false,52,10514920,1170,945,229,15,1986/1/1,,book,117,56,37,6,13,4.13,800,Paperback,International Edition,0,0,"Haig Kouyoumdjian,Rod Plotnik",,,,,,230,5,54,"academic,non-fiction,psychology,school,sociology,textbooks"
13807501,0849909996,The Secret of Happiness,9780849909993,,,,ES,2009/1/1,Thomas Nelson Publishers,,false,18,2331988,689,853,205,22,1955/1/1,The Secret of Happiness,book,96,59,40,7,3,4.16,209,Paperback,,2,1,Billy Graham,,,,,,355,13,42,"christian,christianity,classics,inspirational,non-fiction,religion,self-help,spirituality"
13808001,085244771X,A Biblical Search for the Church Christ Founded,9780852447710,,,,ES,2011/12/9,Gracewing,,false,1,13808001,1,0,0,0,2011/12/9,,,0,0,0,0,0,0.00,224,Paperback,,0,0,Linus F. Clovis,,,,,,1,0,,
13808501,0857020714,Forest School for All,9780857020710,,,,ES,2012/1/6,Sage Publications Ltd,,false,6,15505916,34,56,14,0,2011/5/12,,,6,4,3,0,1,4.00,272,Hardcover,,0,0,,,,Sara Knight,,,13,1,2,
13809001,0857067427,The Test of Scarlet: Experiences of an Artillery Officer During the First World War,9780857067425,,,,ES,2011/12/11,Leonaur Ltd,,false,15,17448922,3,0,0,0,1919/1/1,,book,0,0,0,0,0,0.00,224,Paperback,,0,0,Coningsby Dawson,,,,,,3,0,,
13809501,0857258761,New Directions in Social Work Practice,9780857258762,,,,ES,2016/2/15,Learning Matters,,false,8,6148785,4,2,1,0,2008/1/1,,,0,0,0,1,0,2.00,224,Hardcover,,0,0,Kieron Hatton,,,,,,2,0,,
13810001,0857510851,Puss in Boots: Bumper Colouring & Activity Book,9780857510853,,,,ES,2011/11/10,Bantam Children,,false,1,13810001,1,0,0,0,2011/11/1,,,0,0,0,0,0,0.00,96,Paperback,,0,0,Various,,,,,,1,0,,
13810501,0857922289,A Field Ornithology of the Birds of Eastern North America,9780857922281,,,,ES,2010/9/9,Yokai Publishing,,false,7,13810501,0,0,0,0,2010/9/9,,,0,0,0,0,0,0.00,554,Paperback,,0,0,Charles Johnson Maynard,,,,,,,0,,
13811001,0859539601,Spiders,9780859539609,,,,ES,1997/2/1,Child's Play International,,false,2,3483215,3,0,0,0,1997/2/1,"Misunderstood: Spiders (L'hommedieu, Arthur John. Misunderstood.)",,0,0,0,0,0,0.00,16,Hardcover,,0,0,Arthur John L'Hommedieu,,,,,,2,0,,
13811501,0865059934,What Are Wetlands?,9780865059931,,,,ES,2003/12/1,Crabtree Publishing Company,,false,5,2004531,10,14,3,0,2003/9/1,Les Terres Humides (Petit Monde Vivant),book,2,1,0,0,0,4.67,32,Hardcover,,0,0,Bobbie Kalman,,,,,,2,0,,science
13812001,086980894X,Bird Atlas of Botswana,9780869808948,,,,ES,1994/1/1,University Of KwaZulu-Natal Press,,false,2,13812002,1,5,1,0,1994/1/1,,,1,0,0,0,0,5.00,319,Hardcover,,1,0,Huw Penry,Andre Jahns,,,,,,0,,
13812501,0873527216,Approaches to Teaching the Works of Samuel Johnson,9780873527217,,,,ES,1993/1/1,Modern Language Association of America,,false,1,13812501,1,0,0,0,1993/1/1,,,0,0,0,0,0,0.00,152,Hardcover,,0,0,,,,"David Anderson,Gwin J. Kolb",,,1,0,,
13813001,9781468116,Belly Button Blues,,,,,ES,2012/3/20,createspace,eng,false,1,13813001,1,3,1,1,2012/3/20,,book,0,0,1,0,0,3.00,262,Paperback,First,1,1,Teresa Wendel,,,,,,,0,,
13813501,0880106603,Rudolf Steiner and Christian Rosenkreutz,9780880106603,,,,ES,2012/4/1,Steiner Books,,false,1,13813501,21,18,4,0,2012/9/3,,,3,0,1,0,0,4.50,172,Paperback,,4,0,Peter Selg,,,,Margot Saar,,16,0,,
13814001,0883855763,Beautiful Mathematics. Martin Erickson,9780883855768,,,,ES,2011/12/1,Mathematical Association of America (MAA),,false,1,13814001,7,5,1,1,2011/12/1,,,1,0,0,0,0,5.00,,Hardcover,,1,1,Martin J. Erickson,,,,,,3,0,1,
13814501,0890423490,Public Health Aspects of Diagnosis and Classification of Mental and Behavioral Disorders: Refining the Research Agenda for DSM-5 and ICD-10,9780890423493,,,,ES,2012/1/1,American Psychiatric Publishing,,false,1,13814501,2,0,0,0,2012/1/1,,book,0,0,0,0,0,0.00,303,Paperback,,0,0,"Darrel A. Regier,Patricia Esparza",,,Shekhar Saxena,,,1,0,,
13815001,0893285579,Tiger! Tiger!,9780893285579,,,,ES,2007/9/1,Heritage Music Press,,false,17,2902612,1150,2483,628,49,1789/1/1,The Tyger,book,240,193,135,46,14,3.95,12,Paperback,,20,1,,,,,,,340,30,17,"british-literature,classic-literature,classics,english-literature,literature,picture-books,poetry,school,short-stories"
13815501,0894874624,"Scott Standard Postage Stamp Catalogue, Volume 3: Countries of the World G-I",9780894874628,,,,ES,2011/6/6,Scott Publishing Company,,false,1,13815501,1,0,0,0,2011/6/6,,,0,0,0,0,0,0.00,,Paperback,,0,0,,,,James E. Kloetzel,,,1,0,,reference
13816001,0899427537,Saint Joseph First Mass Book,9780899427539,,,,ES,2011/11/1,Catholic Book Publishing Corp,,false,2,13816000,0,0,0,0,,,,0,0,0,0,0,0.00,,Paperback,,0,0,,,,,,,,0,,
13816501,0907791409,Far Out and Far Away: A Novel of Emergent Evolution,9780907791409,,,,ES,2011/5/14,Synergetic Press,,false,1,13816501,3,0,0,0,2011/5/14,,book,0,0,0,0,0,0.00,287,Paperback,,0,0,Johnny Dolphin,,,,,,3,0,,
13817001,0931993490,Addition: No Regrouping: Featuring Endangered Species,9780931993497,,,,ES,1992/12/1,Garlic Press,,false,1,13817001,0,0,0,0,1992/12/1,,,0,0,0,0,0,0.00,32,Paperback,,0,0,H.S. Lawrence,"Dahna Solar,Kathy Kifer",,,,,,0,,
13817501,0944473857,Vera Lex Volume 8,9780944473856,,,,ES,2007/12/21,Pace University Press,,false,1,13817501,0,0,0,0,2007/12/1,,book,0,0,0,0,0,0.00,132,Paperback,,0,0,,,,Robert  Chapman,,,,0,,
13818001,0955578167,Practical Stress Analysis with Finite Elements (2nd Edition),9780955578168,,,,ES,2011/5/23,Glasnevin Publishing,,false,3,13818001,128,84,20,1,2007/9/1,,,11,4,4,0,1,4.20,402,Paperback,,15,1,Bryan J. MacDonald,,,,,,41,0,4,
13818501,0956205216,The Mechanics of Songwriting: A Guitarist's Guide,9780956205216,,,,ES,2010/11/1,Siduri Books,eng,false,1,13818501,12,8,3,0,2010/11/1,,book,0,1,0,2,0,2.67,208,Hardcover,,3,0,Leo Coulter,,,,,,7,0,2,"music,reference"
13819001,0956766854,"Louie, the Au Pair Syndrome and Other Tales",9780956766854,,,,ES,2012/3/1,I2i,,false,1,13819001,0,0,0,0,2012/3/1,,,0,0,0,0,0,0.00,162,Paperback,,0,0,Leonard Sinclair,,,,,,,0,,
13819501,0963419641,Where Are the Men?,9780963419644,,,,ES,2011/8/31,Llumina Press,,false,1,13819501,0,0,0,0,2011/8/31,,,0,0,0,0,0,0.00,276,Paperback,,0,0,Jacqueline Flowers,,,,,,,0,,
13820001,0970671636,How to Succeed as an Indie Author,9780970671639,,,,ES,2011/9/1,Abdale Books,,false,3,14428055,13,17,4,0,2011/9/15,,,2,1,1,0,0,4.25,158,Paperback,,0,0,Susan Kiernan-Lewis,,,,,,9,0,,
13820501,0974317500,Secrets of a Woman's Heart in Love,9780974317502,,,,ES,2004/3/1,Lorna Chris Productions,,false,1,13820501,1,4,1,0,2004/3/1,,,0,1,0,0,0,4.00,94,Hardcover,,1,0,Lorna Chris,,,,,,,0,1,
13821001,0976770407,Melanated Rhapsody,9780976770404,,,,ES,,,,false,1,13821001,0,0,0,0,2006/5/1,,,0,0,0,0,0,0.00,,,,0,0,Anonymous Onyx,,,,,,,0,,
13821501,0978379314,Silent River,9780978379315,,,,ES,2007/1/10,Bookland Press,,false,1,13821501,0,0,0,0,2007/1/10,,,0,0,0,0,0,0.00,288,Paperback,,0,0,Jacques Lefebvre,,,,,,,0,,
13822001,0979497329,The Urban Educator's Guide to Instructional Management: Bridging the Gap to an Inclusive Setting for Special Education Teachers,9780979497322,,,,ES,,,,false,1,13822001,0,0,0,0,2011/6/1,,,0,0,0,0,0,0.00,,,,0,0,Rochelle Antionette Chatman,,,,,,,0,,
13822501,0980232767,Essays in Linear Algebra,9780980232769,,,,ES,2012/4/26,Wellesley College,,false,1,13822501,18,19,4,0,2012/4/1,,,3,1,0,0,0,4.75,340,Hardcover,,4,0,Gilbert Strang,,,,,,17,0,,
13823001,0981672442,Drumming Up Character: Teacher's Guide,9780981672441,,,,ES,2011/8/1,Dancing Drum,,false,1,13823001,1,5,1,0,2011/8/15,,,1,0,0,0,0,5.00,148,Paperback,,1,0,"Lindsay M. Rust,Stephen B. Campbell",,,,,,,0,,
13823501,0982118791,Greek Mythology's Adventures of Perseus: A Choose Your Path Book,9780982118795,,,,ES,2012/11/9,Lake 7 Creative,,false,2,13823501,25,65,16,4,2012/10/1,,,5,8,2,1,0,4.06,152,Paperback,,5,2,,,,,,,7,2,1,historical
13824001,0982537565,Polygamy and Monogamy,9780982537565,,,,ES,2009/9/18,"Born Again Publishing, Inc.",,false,1,13824001,9,12,3,0,2009/9/18,,,1,1,1,0,0,4.00,260,Paperback,,3,0,Don Milton,,,,,,7,0,,
13824501,0982760604,"Bridge Between Music, Art & Architecture",9780982760604,,,,ES,2011/3/1,E. L. Foster Publishing Inc.,,false,1,13824501,3,0,0,0,2011/3/1,,,0,0,0,0,0,0.00,,Paperback,,0,0,Owen Waldschlagel,,,,,,3,0,,
13825001,0982968728,I Recollect,9780982968727,,,,ES,2011/12/9,Steven A. Pate,,false,1,13825001,1,0,0,0,2011/12/1,,,0,0,0,0,0,0.00,198,Hardcover,,0,0,Shawn Everson,,,,,,1,1,,
13825501,0983182361,"Chip, Volume 1",9780983182368,,,,ES,2011/12/13,Antarctic Press,,false,2,13415788,18,32,9,2,2011/12/13,,book,1,3,5,0,0,3.56,128,Paperback,,2,0,Richard   Moore,,,,,,7,0,,"comics,fantasy"
13826001,0983360804,Vaporized,9780983360803,,,,ES,2011/5/1,Forcefield Studios,,false,3,13826001,2,6,2,0,2011/5/1,,,1,0,0,0,1,3.00,512,Paperback,,2,0,Victor Levine,,,,,,,0,,
13826501,098356230X,Not Against My Son: Hope and Healing for Desperate Parents,9780983562306,,,,ES,,,,false,1,13826501,0,0,0,0,2011/7/6,,,0,0,0,0,0,0.00,,,,0,0,Nicole Webb,,,,,,,0,,
13827001,0983756686,From Captivity to Freedom,9780983756682,,,,ES,2012/1/10,"Emerge Publishing Group, LLC",,false,1,13827001,3,0,0,0,2012/1/10,,,0,0,0,0,0,0.00,132,Paperback,,0,0,Wounder Kelly,,,,,,2,0,,
13827501,0983960240,Netplus Connections: Be the One Who Makes Everyone Else's World Bigger and Better,9780983960249,,,,ES,2012/1/17,Black Lake Press,,false,1,13827501,6,20,5,2,2012/1/17,,,1,3,1,0,0,4.00,198,Paperback,,5,2,Ken Fortier,,,,,,,0,1,
13828001,0984219536,Mester 39: General Topic - Andean Studies and Literatures Supplement,9780984219537,,,,ES,2010/10/1,UCLA Graduate Students Association,,false,1,13828001,0,0,0,0,2010/10/1,,,0,0,0,0,0,0.00,196,Paperback,,0,0,,,,Gabriela Venegas,,,,0,,
13828501,0984519718,"As Long as You Can See the Clock, You're Okay: South Brooklyn in the 1950s",9780984519712,,,,ES,2011/3/29,"Propress Books, Incorporated",,false,1,13828501,0,0,0,0,2011/3/29,,,0,0,0,0,0,0.00,198,Paperback,,0,0,Grace Zolla Protano,,,,,,,0,,
13829001,098472544X,Night Journey,9780984725441,,,,ES,2012/2/1,Storyteller Publishing,,false,7,13044955,492,342,76,26,2011/4/27,,book,51,17,4,3,1,4.50,342,Paperback,,0,0,Goldie Browning,,,,,,395,9,3,"contemporary,fantasy,fiction,ghosts,gothic,historical,historical-fiction,horror,mystery,paranormal,romance,supernatural,thriller,time-travel"
13829501,0984947205,Tax Sale Secrets Revealed: Little Known Tips and Tricks to Buy Real Estate at Tax Sales,9780984947201,,,,ES,2012/1/16,"Red Carnation Homes, LLC",,false,1,13829501,1,0,0,0,2012/1/16,,,0,0,0,0,0,0.00,134,Paperback,,0,0,R. Sam Price,,,,,,,0,,
13830001,0985334541,"A Second Chance (Keller Family, #2)",9780985334543,,,,ES,2012/4/17,5 Prince Publishing,,false,6,13830001,2800,6783,1639,87,2012/4/17,,book,669,601,306,53,10,4.14,240,Paperback,,1284,77,Bernadette Marie,,,,,,762,20,64,"adult,american,chick-lit,contemporary,drama,erotica,family,romance,short-stories"
13830501,0987292803,Something So Simple,9780987292803,,,,ES,2012/3/16,Publicious Pty Ltd,,false,3,13830501,0,0,0,0,2012/3/16,,,0,0,0,0,0,0.00,276,Paperback,,0,0,Ella Thorn,,,,,,,0,,
13831001,1105327426,Unsightly Beauty,9781105327421,,,,ES,2012/1/13,Lulu.com,,false,3,13831001,2,5,1,0,2012/1/13,,,1,0,0,0,0,5.00,160,Paperback,,1,0,Kit Kingston,,,,,,,0,,
13831501,1107014239,"Dissenting Voices in American Society: The Role of Judges, Lawyers, and Citizens",9781107014237,,,,ES,2012/1/31,Cambridge University Press,,false,7,22523312,0,0,0,0,2012/1/31,,,0,0,0,0,0,0.00,250,Hardcover,,0,0,,,,Austin Sarat,,,,0,,
13832001,110740472X,"Russia's Peasants in Revolution and Civil War: Citizenship, Identity, and the Creation of the Soviet State, 1914 1922",9781107404724,,,,ES,2012/1/31,Cambridge University Press,,false,2,13832001,11,7,2,0,2008/9/15,,,0,1,1,0,0,3.50,310,Paperback,,2,0,Aaron B. Retish,,,,,,8,0,,
13832501,1107669812,The Theory of Spectra and Atomic Constitution: Three Essays,9781107669819,,,,ES,2011/3/9,Cambridge University Press,,false,11,16072114,66,37,9,3,1922/5/1,The Theory of Spectra and Atomic Constitution,book,5,2,1,0,1,4.11,150,Paperback,,0,0,Niels Bohr,,,,,,11,1,2,
13833001,1108012868,"Letters of Amerigo Vespucci, and Other Documents Illustrative of His Career",9781108012867,,,,ES,2010/10/8,Cambridge University Press,,false,24,3042038,72,26,8,2,2005/1/1,The First Four Voyages Of Amerigo Vespucci (1885),book,1,1,5,1,0,3.25,121,Paperback,,1,0,,,,"Amerigo Vespucci,Clements Robert Markham",,,51,0,-1,"classics,history,non-fiction,novels,science,travel"
13833501,1108028624,Naturgeschichte Der Vulcane Und Der Damit in Verbindung Stehenden Erscheinungen - 2 Volume Set,9781108028622,,,,ES,2011/3/8,Cambridge University Press,,false,1,13833501,0,0,0,0,2011/3/8,,,0,0,0,0,0,0.00,974,Paperback,,0,0,Georg Landgrebe,,,,,,,0,,
13834001,1108037313,The Elements of Botany,9781108037310,,,,ES,2011/9/19,Cambridge University Press,,false,2,13834001,0,0,0,0,2011/12/15,,,0,0,0,0,0,0.00,790,Paperback,,0,0,Adrien De Jussieu,,,,James Hewetson Wilson,,,0,,
13834501,1108043739,Ioannis Cantacuzeni Eximperatoris Historiarum Libri IV - 3 Volume Set,9781108043731,,,,ES,2012/3/8,Cambridge University Press,,false,1,13834501,0,0,0,0,2012/3/8,,,0,0,0,0,0,0.00,1858,Paperback,,0,0,Ioannes Cantacuzenus,,,"Ludovicus Schopenus,Ludwig Schopen",,,,0,,
13835001,1108072984,"A Description of Active and Extinct Volcanos, of Earthquakes, and of Thermal Springs",9781108072984,,,,ES,2011/1/31,Cambridge University Press,,false,7,33250514,0,0,0,0,2011/6/2,,,0,0,0,0,0,0.00,796,Paperback,,0,0,Charles Daubeny,,,,,,,0,,
13835501,1111542007,Introductory Technical Mathematics,9781111542009,,,,ES,2012/9/13,Cengage Learning,eng,false,5,13835501,9,27,6,0,2006/6/6,Introductory Technical Math,,3,3,0,0,0,4.50,876,Paperback,,5,0,"John C. Peterson,Robert Donald Smith",,,,,,4,0,-1,
13838001,1118093747,Systems Analysis and Design.,9781118093740,,,,ES,2012/4/1,John Wiley & Sons,,false,21,7113051,365,335,93,5,2002/10/21,,book,23,30,24,12,4,3.60,,Hardcover,,3,0,Alan Dennis,,,,,,75,1,25,"education,non-fiction,reference,school"
13838501,1118188764,Video Marketing for Dummies,9781118188767,,,,ES,2012/5/8,For Dummies,,false,7,13838501,44,35,9,1,2012/1/1,,,3,3,2,1,0,3.89,386,Paperback,,9,1,"Andreas Goeldi,Bettina Hein,Kevin Daum,Matt Scott",,,,,,28,1,2,business
13839001,1118365984,Digital SLR Video & Filmmaking for Dummies,9781118365984,,,,ES,2013/2/18,For Dummies,,false,6,13839001,87,107,27,4,2013/1/23,,book,8,11,7,1,0,3.96,388,Paperback,,16,4,John Carucci,,,,,,33,-1,15,"art,film,non-fiction,reference"
13839501,1133434088,Student Course Guide for Writer's Circle,9781133434085,,,,ES,2012/9/12,Wadsworth Publishing Company,,false,3,13839501,6,3,1,0,2009/6/1,,,0,0,1,0,0,3.00,158,Paperback,,1,0,Diane Martin,,,,,,4,0,,
14033001,124105794X,"Primary Sources, Historical Collections: The Ottoman Convert, with a Foreword by T. S. Wentworth",9781241057947,,,,ES,2011/2/15,"Primary Sources, Historical Collections",,false,1,14033001,0,0,0,0,2011/2/15,,,0,0,0,0,0,0.00,80,Paperback,,0,0,Edward  Williams,,,,,,,0,,
14034001,1241070229,"Primary Sources, Historical Collections: Abused Russia, with a Foreword by T. S. Wentworth",9781241070229,,,,ES,2011/2/15,"Primary Sources, Historical Collections",,false,1,14034001,0,0,0,0,2011/2/15,,,0,0,0,0,0,0.00,212,Paperback,,0,0,Charles Christian Young,,,,,,,0,,
14034501,1241077185,"Doings in China, with a Foreword by T. S. Wentworth",9781241077181,,,,ES,2011/2/15,"Primary Sources, Historical Collections",,false,7,26994323,0,0,0,0,1843/1/1,,book,0,0,0,0,0,0.00,352,Paperback,,0,0,Alexander Murray,,,,,,,0,,
14036501,1241105510,"Primary Sources, Historical Collections: The United States and the War, the Mission to Russia, with a Foreword by T. S. Wentworth",9781241105518,,,,ES,2011/2/17,"Primary Sources, Historical Collections",,false,1,14036501,0,0,0,0,2011/2/17,,,0,0,0,0,0,0.00,402,Paperback,,0,0,Elihu Root,,,,,,,0,,
14044001,9721041947,O Hóspede de Drácula,9789721041943,,,,ES,1996/1/1,Publicações Europa-América,por,false,250,10511555,11811,18585,4961,230,1914/1/1,Dracula's Guest,book,1385,1607,1442,379,148,3.75,28,Unknown Binding,Mini-Biblioteca,4,0,Bram Stoker,,,,Paulo Ramos,,5837,22,412,"adult,amazon,british-literature,classic-literature,classics,european-literature,fantasy,fiction,gothic,historical-fiction,horror,literature,mystery,mystery-thriller,paranormal,short-stories,supernatural,vampires,victorian,werewolves"
14058501,0971661189,"Tess, Terrorists and the Tiara",9780971661189,,,,ES,2012/8/10,Middleton Books,eng,false,3,14058501,126,78,20,18,2012/3/24,,book,6,7,6,1,0,3.90,212,Paperback,,11,10,Terry Baldwin,,,,,,93,5,1,"contemporary,holiday,middle-grade,mystery,realistic-fiction"
14059001,0862436923,Ceri Grafu,9780862436926,,,,ES,2006/5/21,yLolfa,wel,false,1,14059001,7,11,6,0,2006/5/21,,book,0,0,1,3,2,1.83,56,Paperback,,6,0,Bethan Gwanas,,,,,,,0,,
14060001,0646509578,Two Dogs and a Garden,9780646509570,,,,ES,2009/7/21,Paradise Publishers,eng,false,1,14060001,9,29,7,3,2009/7/21,,book,3,2,2,0,0,4.14,240,Hardcover,,7,3,Cherry Derelie,,,,,,2,0,,"animals,non-fiction"
14060501,8249603370,Han hadde et flott liv....,,,,,ES,2002/1/1,N.W.Damm &søn as,nob,false,28,416889,1795,3503,989,66,1999/1/1,Fortune's Hand,book,190,313,361,93,32,3.54,328,Hardcover,,1,0,Belva Plain,,,,,,375,20,16,"chick-lit,contemporary,english-literature,fiction,novels,romance"
14061001,1466479086,Sapphic Planet,9781466479081,,,,ES,2012/2/19,Sapphic Planet,eng,true,2,14061001,4,7,2,1,2012/2/19,,book,0,1,1,0,0,3.50,282,Kindle Edition,,2,1,Sapphic Planet Authors,,,,,,2,0,,"anthologies,bdsm,erotica"
14061501,3404201671,Die Herrin der Flammen,,,,,ES,1991/1/1,Bastei-Lübbe,ger,false,1,14061501,8,11,3,0,1986/1/1,"Blood Ties, Part 1 (Thieves' World)",book,0,2,1,0,0,3.67,217,Paperback,,3,0,,,"C.J. Cherryh,Chris Morris,Robin Wayne Bailey","Diana L. Paxson,Lynn Abbey,Robert Lynn Asprin",Lore Straßl,,3,1,,fantasy
14062001,,"The Rise of the New Bloods,  From Dark Beginnings",,B0083LHB9Q,,,ES,2012/5/15,K A Hambly,en-GB,true,3,14062001,49,86,25,7,2012/5/15,,book,9,6,2,3,5,3.44,204,Kindle Edition,,23,7,K.A. Hambly,,,,,,23,0,1,"fantasy,horror,vampires"
14062501,,Amerikanetz,,,,,ES,1986/1/1,Faith and Freedom Forum,eng,false,2,14062501,4,8,2,0,1986/1/1,,book,0,2,0,0,0,4.00,117,,,2,0,John H.  Noble,,,,,,2,0,,
14078001,9044333577,Zap,9789044333572,,,,ES,2011/3/1,The House of Books,nl,false,29,7670154,3595,4407,1253,228,2009/9/1,Pod,book,253,417,377,137,69,3.52,288,Paperback,,37,5,Stephen Wallenfels,,,,Carla Hazewindus,,371,20,20,"adult,adventure,aliens,death,dystopia,fantasy,fiction,horror,mystery,novels,paranormal,post-apocalyptic,science,science-fiction,science-fiction-fantasy,supernatural,survival,suspense,teen,young-adult"
14142501,1257161172,"Petra, the Seventh City of Refuge",9781257161171,,,,ES,2011/8/16,Lulu.com,,false,1,14142501,1,0,0,0,2011/8/16,,,0,0,0,0,0,0.00,84,Paperback,,0,0,Stephen Volk,,,,,,1,0,,
14144001,1257963171,Perfect Practice Journal,9781257963171,,,,ES,2011/8/9,Lulu.com,,false,1,14144001,0,0,0,0,2011/8/9,,book,0,0,0,0,0,0.00,54,Paperback,,0,0,Heather Amlin Hamilton,,,,,,,0,,
14208001,1275607594,"Semi-Centennial Address: An Oration, Delivered Before the Washington Light Infantry, in the South-Carolina Infantry Hall ... in Commemoration of the One Hundred and Twenty-Fifth Anniversary of the Birth of Washington.",9781275607590,,,,ES,2012/2/21,"Gale, Sabin Americana",,false,1,14208001,0,0,0,0,2012/2/21,,,0,0,0,0,0,0.00,30,Paperback,,0,0,William D. Porter,,,,,,,0,,
14210001,1275622305,The African Trade: The Great Pillar and Support of the British Plantation Trade in America.,9781275622302,,,,ES,2012/2/1,"Gale Ecco, Sabin Americana",,false,1,14210001,0,0,0,0,2012/2/21,,,0,0,0,0,0,0.00,48,Paperback,,0,0,Malachy Postlethwayt,,,,,,,0,,
14211501,1275632807,"An Alphabetical Compendium of the Various Sects Which Have Appeared in the World from the Beginning of the Christian Aera to the Present Day: With an Appendix, Containing a Brief Account of the Different Schemes of Religion Now Embraced Among Mankind...",9781275632806,,,,ES,2012/2/1,"Gale Ecco, Sabin Americana",,false,1,14211501,0,0,0,0,2012/2/21,,,0,0,0,0,0,0.00,316,Paperback,,0,0,Hannah Adams,,,,,,,0,,
14213001,1275642225,Facts Relative to the Campaign on the Niagara in 1814.,9781275642225,,,,ES,2012/2/21,"Gale, Sabin Americana",,false,1,14213001,0,0,0,0,2012/2/21,,,0,0,0,0,0,0.00,64,Paperback,,0,0,Eleazer Wheelock Ripley,,,,,,,0,,
14215501,1275658628,"A Treatise on the Culture and Management of Fruit Trees: In Which a New Method of Pruning and Training Is Fully Described: Together with Observations on the Diseases, Defects and Injuries, in All Kinds of Fruit and Forest Trees, as Also, an Account...",9781275658622,,,,ES,2012/2/1,"Gale Ecco, Sabin Americana",,false,6,20473418,0,0,0,0,2010/1/1,,book,0,0,0,0,0,0.00,288,Paperback,,0,0,William  Forsyth,,,,,,,0,,
14216001,127566248X,Guide to Northern Archaeology.,9781275662483,,,,ES,2012/2/1,"Gale Ecco, Sabin Americana",,false,5,37369344,0,0,0,0,2012/2/22,,,0,0,0,0,0,0.00,146,Paperback,,0,0,,,,,,,,0,,
14216501,1275666493,Diary ... Volume 3 of 3,9781275666498,,,,ES,2012/2/1,"Gale Ecco, Sabin Americana",,false,2,14216501,3,0,0,0,2012/2/22,,book,0,0,0,0,0,0.00,412,Paperback,,0,0,,,,,,,3,0,,
14219001,1275685951,"Der Soldatenhandel Deutscher F Rsten Nach Amerika, 1775 Bis 1783.",9781275685956,,,,ES,2012/2/1,"Gale Ecco, Sabin Americana",,false,4,10184537,0,0,0,0,2012/2/22,,,0,0,0,0,0,0.00,322,Paperback,,0,0,Friedrich Kapp,,,,,,,0,,
14219501,1275689396,The Parliamentary Debates from the Year 1803 to the Present Time: Forming a Continuation of the Work Entitled the Parliamentary History of England from the Earliest Period to the Year 1803,9781275689398,,,,ES,2012/2/22,"Gale, Sabin Americana",,false,34,14219446,2,0,0,0,2012/2/22,,,0,0,0,0,0,0.00,726,Paperback,,0,0,T.C. Hansard,,,,,,1,0,,
14221501,1275704085,Reconstruction: Claims of the Inhabitants of the States Engaged in the Rebellion to Restoration of Political Rights and Privileges Under the Constitution.,9781275704084,,,,ES,2012/2/1,"Gale Ecco, Sabin Americana",,false,9,20476882,0,0,0,0,1866/1/1,,,0,0,0,0,0,0.00,132,Paperback,,0,0,Charles Greely Loring,,,,,,,0,,
14222001,1275706851,Relation de Ce Qui S'Est Pass En La Nouvelle France En L'Annee 1637: Envoy E Au R. Pere Provincial de La Compagnie de Jesus En La Province de France.,9781275706859,,,,ES,2012/2/1,"Gale Ecco, Sabin Americana",,false,1,14222001,0,0,0,0,2012/2/22,,,0,0,0,0,0,0.00,600,Paperback,,0,0,Jeune Paul Le,,,,,,,0,,
14223001,1275711855,"Three Letters from New-England, Relating to the Controversy of the Present Time.",9781275711853,,,,ES,2012/2/22,"Gale, Sabin Americana",,false,1,14223001,1,0,0,0,2010/5/29,,,0,0,0,0,0,0.00,34,Paperback,,0,0,Cotton Mather,,,,,,1,0,,
14224501,1275718981,"A Sermon Preached Before the General Assembly of the Presbyterian Church in the United States of America: By Appointment of Their Standing Committee of Missions, May 19, 1806.",9781275718982,,,,ES,2012/2/22,"Gale, Sabin Americana",,false,7,32264143,0,0,0,0,2012/2/22,,,0,0,0,0,0,0.00,40,Paperback,,0,0,Eliphalet Nott,,,,,,,0,,
14225001,1275721443,"Catalogue of the Natural Productions and Curiosities, Which Compose the Collections of the Cabinet of Natural History: Opened for Public Exhibition, a",9781275721449,,,,ES,2012/2/1,"Gale Ecco, Sabin Americana",,false,1,14225001,0,0,0,0,2012/2/22,,,0,0,0,0,0,0.00,88,Paperback,,0,0,J. B. Delacoste,,,,,,,0,,
14225501,127572406X,"A Sermon, Delivered October 22d, 1812, at the Interment of the REV. Thomas Thacher, A.M. A.A.S., Minister of the Third Parish in Dedham: Who Died October 19, 1812, in the Fifty-Sixth Year of His Age, and Thirty-Third of His Ministry.",9781275724068,,,,ES,2012/2/1,"Gale Ecco, Sabin Americana",,false,1,14225501,1,5,1,0,2012/2/22,,book,1,0,0,0,0,5.00,26,Paperback,,1,0,Stephen     Palmer,,,,,,,0,,
14226501,1275728812,"The Journal of the Pilgrims at Plymouth, in New England, in 1620: Reprinted from the Original Volume: With Historical and Local Illustrations of Providences, Principles, and Persons.",9781275728813,,,,ES,2012/2/22,"Gale, Sabin Americana",,false,5,28992713,3,8,2,0,2012/2/22,,,1,0,1,0,0,4.00,372,Paperback,,0,0,William Bradford,,,,,,,0,1,
14230001,1275752500,"The Conspiracy Against the Late Bishop of New-York: Unravelled by One of the Conspirators, Viz., James C. Richmond, Presbyter of Rhode Island.",9781275752504,,,,ES,2012/2/22,"Gale, Sabin Americana",,false,3,34787288,0,0,0,0,2012/2/22,,,0,0,0,0,0,0.00,20,Paperback,,0,0,James Cook Richmond,,,,,,,0,,
14233001,1275768490,"Pvrchas His Pilgrimes: In Five Bookes: The First, Contayning the Voyages and Peregrinations Made by Ancient Kings ... and Others, to and Thorow the Remoter Parts of the Knowne World ...: The Second, a Description of All The... Volume 1 of 4",9781275768499,,,,ES,2012/2/1,"Gale Ecco, Sabin Americana",,false,2,14233001,0,0,0,0,2012/2/22,,,0,0,0,0,0,0.00,990,Paperback,,0,0,Samuel Purchas,,,,,,,0,,
14234001,1275774822,The Political and Miscellaneous Works of Thomas Paine. Volume 1 of 2,9781275774827,,,,ES,2012/2/1,"Gale Ecco, Sabin Americana",,false,11,29272058,4,0,0,0,2012/2/21,,,0,0,0,0,0,0.00,578,Paperback,,0,0,Thomas Paine,,,,,,4,0,,
14234501,1275777236,"The Columbian Plutarch, Or, an Exemplification of Several Distinguished American Characters.",9781275777231,,,,ES,2012/2/1,"Gale Ecco, Sabin Americana",,false,1,14234501,0,0,0,0,2012/2/22,,,0,0,0,0,0,0.00,320,Paperback,,0,0,Thomas Woodward,,,,,,,0,,
14236001,1275785883,"A Discourse, Delivered Before the Officers and Members of the Humane Society of Massachusetts, 11 June, 1811.",9781275785885,,,,ES,2012/2/22,"Gale, Sabin Americana",,false,1,14236001,0,0,0,0,2012/2/22,,,0,0,0,0,0,0.00,24,Paperback,,0,0,Lemuel Shaw,,,,,,,0,,
14237001,1275791603,Speeches and Letters of Gerrit Smith on the Rebellion. Volume 1 of 2,9781275791602,,,,ES,2012/2/1,"Gale Ecco, Sabin Americana",,false,4,14236920,0,0,0,0,2012/2/22,,,0,0,0,0,0,0.00,72,Paperback,,0,0,Gerrit Smith,,,,,,,0,,
14237501,1275794270,"My Experience, Or, Foot-Prints of a Presbyterian to Spiritualism.",9781275794276,,,,ES,2012/2/1,"Gale Ecco, Sabin Americana",,false,2,29818989,0,0,0,0,2012/2/22,,,0,0,0,0,0,0.00,232,Paperback,,0,0,Francis H. Smith,,,,,,,0,,
14238001,1275797121,"Marie de Berniere: A Tale of the Crescent City, Etc., Etc., Etc.",9781275797123,,,,ES,2012/2/22,"Gale, Sabin Americana",,false,4,12277292,3,7,2,2,2009/12/28,,,0,1,1,0,0,3.50,416,Paperback,,0,0,William Gilmore Simms,,,,,,1,0,,fiction
14240501,1275809626,"The Answer of Mr. Sullivan, to the Letter and Mis-Statements of the Hon. Cadwallader D. Colden: As the Advocate of the Monopoly of Steam and Fire in Navigating the Rivers, Coasts, and Lakes of New York.",9781275809628,,,,ES,2012/2/22,"Gale, Sabin Americana",,false,1,14240501,0,0,0,0,2012/2/22,,,0,0,0,0,0,0.00,48,Paperback,,0,0,John L. Sullivan,,,,,,,0,,
14245001,127583096X,Fifteen Sermons Preached on Various Important Subjects.,9781275830967,,,,ES,2012/2/1,"Gale Ecco, Sabin Americana",,false,7,34494207,0,0,0,0,2010/5/29,,,0,0,0,0,0,0.00,322,Paperback,,0,0,George Whitefield,,,,,,,0,,
14245501,1275833764,Letters from Illinois.,9781275833760,,,,ES,2012/2/1,"Gale Ecco, Sabin Americana",,false,2,14245501,0,0,0,0,2012/2/22,,,0,0,0,0,0,0.00,152,Paperback,,0,0,Morris Birkbeck,,,,,,,0,,
14246001,1275835848,"A Discourse Pronounced Upon the Inauguration of the Author as Dane Professor of Law in Harvard University: On the Twenty-Fifth Day of August, 1829.",9781275835849,,,,ES,2012/2/22,"Gale, Sabin Americana",,false,8,8768672,1,5,1,1,2012/2/22,,,1,0,0,0,0,5.00,62,Paperback,,0,0,Joseph Story,,,,,,,0,,
14247001,1275840167,"Candid Reflections Upon the Judgment Lately Awarded by the Court of King's Bench, in Westminster-Hall, on What Is Commonly Called the Negroe-Cause.",9781275840164,,,,ES,2012/2/23,"Gale, Sabin Americana",,false,1,14247001,0,0,0,0,2010/5/1,,,0,0,0,0,0,0.00,82,Paperback,,0,0,Edward Long,,,,,,,0,,
14247501,1275841880,Journals of the Lives and Gospel Labours of William Caton and John Buryeat.,9781275841888,,,,ES,2012/2/1,"Gale Ecco, Sabin Americana",,false,1,14247501,0,0,0,0,2012/2/23,,,0,0,0,0,0,0.00,346,Paperback,,0,0,William Caton,,,,,,,0,,
14250501,1275851657,The Spy: A Tale of the Neutral Ground Referring to Some Particular Occurrences During the American War,9781275851658,,,,ES,2012/2/1,"Gale Ecco, Sabin Americana",,false,234,455411,2468,3452,961,86,1821/1/1,The spy,book,220,313,281,110,37,3.59,288,Paperback,,0,0,James Fenimore Cooper,,,,,,1169,14,143,"adventure,american,american-history,childrens,classic-literature,classics,fiction,historical,historical-fiction,history,literature,mystery,novels,school,unfinished,war,young-adult"
14253001,1275859429,History of the United States: From Their First Settlement as Colonies to the Close of the War with Great Britain in 1815: To Which Are Added Questions Adapted to the Use of Schools.,9781275859425,,,,ES,2012/2/1,"Gale Ecco, Sabin Americana",,false,18,37083839,0,0,0,0,2012/2/23,,,0,0,0,0,0,0.00,326,Paperback,,0,0,Salma Hale,,,,,,,0,,
14253501,1275861024,"An Oration Delivered Before the Washington Benevolent Society in the City of New-York: On the Twenty-Second of February, 1810.",9781275861022,,,,ES,2012/2/23,"Gale, Sabin Americana",,false,1,14253501,0,0,0,0,2012/2/23,,,0,0,0,0,0,0.00,24,Paperback,,0,0,Peter A. Jay,,,,,,,0,,
14267501,1290357706,Rosemary and Rue,9781290357708,,,,ES,2012/1/10,Hardpress Publishing,,false,15,11197690,8,5,1,1,1896/1/1,,book,1,0,0,0,0,5.00,314,Paperback,,0,0,Martha Everts Holden,,,,,,4,1,,
14287501,0747591253,"Small Steps (Holes, #2)",9780747591252,,,,ES,2007/1/1,Bloomsbury,eng,false,44,38703,28121,54602,14735,1516,2006/1/1,Small Steps,book,3627,5014,4515,1287,292,3.71,272,Paperback,,16,1,Louis Sachar,,,,,,9063,42,536,"adventure,american,chapter-books,childrens,contemporary,crime,fiction,funny,humor,juvenile,middle-grade,mystery,novels,realistic-fiction,romance,school,teen,young-adult"
14288001,,The Hollow of Mont Noir,9781470103019,,,,ES,,,eng,false,1,14288001,1,4,1,0,,,book,0,1,0,0,0,4.00,222,Paperback,,1,0,Jennifer Krey,,,,,,,0,,
14288501,,Salsa,,,,,ES,2009/9/12,Mladinska knjiga,slv,false,1,14288501,17,39,10,0,,,book,4,2,3,1,0,3.90,154,Paperback,Nova slovenska knjiga,10,0,Alojz Ihan,,,,,,3,0,,"literature,poetry"
14289001,1469927233,Twelfth Night: A Wendover House Mystery,9781469927237,,,,ES,2012/1/1,,en-US,false,3,13420194,165,318,86,9,2012/1/1,,book,21,30,25,8,2,3.70,74,Paperback,,1,0,Melanie Jackson,,,,,,52,2,9,"christmas,cozy-mystery,fiction,mystery"
14289501,,Never Say Just,,,,,ES,2012/6/12,Decadent Publishing,eng,true,4,14289501,39,81,18,7,2012/6/12,,book,11,6,0,1,0,4.50,,ebook,,16,7,Katie Harper,,,,,,18,1,2,"chick-lit,funny,romance,suspense"
14290501,,Kirakira เป็นประกาย,9789749899090,,,,ES,2007/1/1,JBOOK,tha,false,18,697446,2784,4367,1199,159,1991/1/1,きらきらひかる,book,247,429,388,117,18,3.64,172,Paperback,,23,4,Kaori Ekuni,,,,น้ำทิพย์ เมธเศรษฐ,,1334,18,20,"adult,adult-fiction,contemporary,fiction,gay,international,lgbt,literature,marriage,novels,queer,romance,young-adult"
14291001,9789774241,مهمل تستدلون عليه بظل,,,,,ES,,,ara,false,1,14291001,42,52,18,6,,,book,1,5,6,3,3,2.89,210,Paperback,,18,6,علاء عبد الهادي,,,,,,15,0,1,poetry
14291501,1418402281,Vindication,9781418402280,,,,ES,,,,false,7,14398677,2,6,2,0,2004/4/1,,,0,0,2,0,0,3.00,,,,0,0,E.H. Clark,,,,,,,0,,
14292001,1406729787,Letters to the People of India on Responsible Government,9781406729788,,,,ES,2007/3/15,Lowrie Press,,false,1,14292001,0,0,0,0,2007/3/1,,,0,0,0,0,0,0.00,208,Paperback,,0,0,Lione Curtis,,,,,,,0,,
14292501,1418429236,Celestial Discharge and Other Poems,9781418429232,,,,ES,,,,false,1,14292501,0,0,0,0,2004/7/1,,,0,0,0,0,0,0.00,,,,0,0,Ken                   Smith,,,,,,,0,,
14293001,1402007671,Soil Formation,9781402007675,,,,ES,2002/9/30,Springer,,false,6,14293001,2,4,1,0,1998/8/31,,,0,1,0,0,0,4.00,408,Paperback,,1,0,"Nico van Breemen,Peter Buurman",,,,,,,0,1,
14293501,1409950956,Visions and Revisions: A Book of Literary Devotions,9781409950950,,,,ES,2008/11/28,Dodo Press,,false,22,3549988,61,92,22,2,1915/1/1,Visions and Revisions: A Book of Literary Devotions,book,9,9,3,1,0,4.18,164,Paperback,,2,0,John Cowper Powys,,,,,,30,1,,"essays,fiction,non-fiction"
14294001,1418483222,He Touched Me,9781418483227,,,,ES,,,,false,2,14294001,0,0,0,0,2004/9/1,,book,0,0,0,0,0,0.00,,,,0,0,Elizabeth Rhodes,,,,,,,0,,
14294501,1409964825,Lessons of the War (Dodo Press),9781409964827,,,,ES,2009/7/10,Dodo Press,,false,8,8502724,4,0,0,0,2007/12/19,,,0,0,0,0,0,0.00,106,Paperback,,0,0,Spenser Wilkinson,,,,,,2,0,,history
14295001,1418548448,Ultraslim Bible-KJV-Classic,9781418548445,,,,ES,2012/3/13,Thomas Nelson Publishers,,false,4072,1923820,283605,864531,195582,5049,1611/1/1,,book,146179,16472,13466,7885,11580,4.42,856,Leather Bound,,0,0,,,,,,,50056,202,23666,"adult,biography,christian,christianity,classic-literature,classics,faith,fantasy,fiction,historical,historical-fiction,history,horror,inspirational,literature,mythology,non-fiction,philosophy,poetry,politics,reference,religion,school,self-help,spirituality,theology,unfinished"
14296001,1406772194,"The Student Library Assistant - A Workbook, Bibliography and Manual of Suggestions",9781406772197,,,,ES,2007/3/15,Husband Press,,false,1,14296001,0,0,0,0,2007/3/1,,,0,0,0,0,0,0.00,276,Paperback,,0,0,Wilma Bennett,,,,,,,0,,
14296501,1418909645,The Spider Plant,9781418909642,,,,ES,,,,false,1,14296501,0,0,0,0,2005/8/1,,,0,0,0,0,0,0.00,,,,0,0,Annette Smith,,,,,,,0,,
14297001,1402275900,Before Versailles: Before the History You Know... a Novel of Louis XIV,9781402275906,,,,ES,2012/9/1,Sourcebooks Landmark,,false,16,9572751,7743,9622,2534,304,2011/6/28,Before Versailles: A Novel of Louis XIV,book,685,943,678,163,65,3.80,373,Paperback,,55,20,Karleen Koen,,,,,,4703,43,106,"adult,adult-fiction,biography,fiction,france,historical,historical-fiction,history,novels,romance"
14298001,1406792497,Doctor Thorne,9781406792492,,,,ES,2006/1/1,Pomona Press,,false,252,414295,11292,19574,4787,484,1858/1/1,Doctor Thorne,book,1719,2000,885,141,42,4.09,580,Paperback,,1,0,Anthony Trollope,,,,,,5165,46,382,"adult,adult-fiction,british-literature,classic-literature,classics,english-literature,family,fiction,historical,historical-fiction,literary-fiction,literature,novels,relationships,romance,victorian"
14298501,1403302200,Final Authority,9781403302205,,,,ES,2002/6/1,Authorhouse,,false,5,22073912,235,657,153,11,2002/6/1,,,77,52,17,6,1,4.29,256,Hardcover,,2,0,"Joseph S. Dobransky,Robert J. Dobransky",,,,,,7,0,31,"drama,fiction"
14299001,1403315876,With Every Wind,9781403315878,,,,ES,2002/7/20,Authorhouse,,false,3,17628983,0,0,0,0,2002/7/1,,,0,0,0,0,0,0.00,240,Hardcover,,0,0,Katherine Dane,,,,,,,0,,
14299501,1403328870,Journey Into the Realm of Consciousness: How the Brain Produces the Mind,9781403328878,,,,ES,2002/11/1,Authorhouse,,false,2,14299503,1,4,1,0,2002/11/1,,,0,1,0,0,0,4.00,260,Paperback,,0,0,Eugene M. Brooks,,,,,,,0,,
14300001,1403337411,Bury Them at the Crossroads: Book One and Two,9781403337412,,,,ES,,,,false,3,11046377,3,0,0,0,2002/6/1,,,0,0,0,0,0,0.00,,,,0,0,Erik D. Kiessling,,,,,,,0,,"fantasy,ghosts,vampires,werewolves"
14300501,1403351872,To Dance with Destiny,9781403351876,,,,ES,2002/10/1,Authorhouse,,false,2,14300505,0,0,0,0,2002/10/1,,,0,0,0,0,0,0.00,264,Paperback,,0,0,Lillian Delaney,,,,,,,0,,
14301001,1424124239,Albert and His Journey Through the Mountains,9781424124237,,,,ES,2006/8/21,PublishAmerica,,false,1,14301001,0,0,0,0,2006/8/21,,,0,0,0,0,0,0.00,76,Paperback,,0,0,David Myron Alvord,,,,,,,0,,
14302001,1424135400,A Trial of the Heart: Finding Hope in a Strange World,9781424135400,,,,ES,2007/1/29,Publish America,,false,1,14302001,0,0,0,0,2007/1/29,,,0,0,0,0,0,0.00,204,Paperback,,0,0,Matthew B. Roberts,,,,,,,0,,
14303001,1424145341,Ansel Crow,9781424145348,,,,ES,2006/7/3,Publish America,,false,1,14303001,0,0,0,0,2006/7/3,,,0,0,0,0,0,0.00,210,Paperback,,0,0,Victor Lee Howard,,,,,,,0,,
14303501,1424149665,Slide,9781424149667,,,,ES,2006/8/21,Publish America,,false,1,14303501,0,0,0,0,2006/8/21,,,0,0,0,0,0,0.00,118,Paperback,,0,0,Monica Noland,,,,,,,0,,
14304001,1403477019,Guinea Pigs,9781403477019,,,,ES,2006/4/20,Heinemann Educational Books,,false,3,15499500,2,4,1,1,2006/6/1,,,0,1,0,0,0,4.00,48,Hardcover,,0,0,Tristan Boyer Binns,,,,,,1,0,,childrens
14304501,1424159741,"Outward Strength, Inward Delicacy",9781424159741,,,,ES,2007/12/10,America Star Books,,false,2,14304501,0,0,0,0,2007/12/10,,,0,0,0,0,0,0.00,124,Paperback,,0,0,Debi Eve Burge,,,,,,,0,,
14305001,1410448061,"God Don't Make No Mistakes (God Don't Like Ugly, #6)",9781410448064,,,,ES,2012/6/15,Thorndike Press,,false,10,13097196,2341,3498,812,60,2012/5/1,,book,434,235,112,21,10,4.31,581,Hardcover,Large Print,1,0,Mary Monroe,,,,,,974,11,54,"adult-fiction,fiction"
14306501,142417855X,Life in Motion,9781424178551,,,,ES,2007/6/18,America Star Books,,false,1,14306501,0,0,0,0,2007/6/18,,,0,0,0,0,0,0.00,164,Paperback,,0,0,Karen Fay,,,,,,,0,,
14307501,1419613707,Just Truckin',9781419613708,,,,ES,2005/9/22,Booksurge Publishing,,false,1,14307501,0,0,0,0,2005/9/22,,,0,0,0,0,0,0.00,170,Paperback,,0,0,Bruce Peters,,,,,,,0,,
14308001,1424197198,Remembered Days,9781424197194,,,,ES,2007/10/8,America Star Books,,false,1,14308001,0,0,0,0,2007/10/8,,,0,0,0,0,0,0.00,154,Paperback,,0,0,Barbara Dantzler Ardis,,,,,,,0,,
14308501,1425106196,The Ultimate Challenge,9781425106195,,,,ES,2007/2/12,Trafford Publishing,,false,1,14308501,0,0,0,0,2007/2/1,,,0,0,0,0,0,0.00,212,Paperback,,0,0,Tony My-Then,,,,,,,0,,
14309001,140689950X,The Life and Adventures of Maj. Roger Sherman Potter,9781406899504,,,,ES,,,,false,9,7242091,1,0,0,0,2006/1/1,,,0,0,0,0,0,0.00,,,,0,0,F. Colburn Adams,,,,,,1,0,,
14309501,1425167020,Forever Bluebirds,9781425167028,,,,ES,2007/2/14,Trafford Publishing,,false,1,14309501,0,0,0,0,2007/2/1,,,0,0,0,0,0,0.00,380,Hardcover,,0,0,D. E. Worsdell,,,,,,,0,,
14310001,1410920550,A Painful History of Crime Set,9781410920553,,,,ES,2005/11/1,Raintree,,false,3,14310002,0,0,0,0,2005/10/1,,book,0,0,0,0,0,0.00,192,Hardcover,,0,0,John  Townsend,,,,,,,0,,
14310501,1425700519,Who Are We,9781425700515,,,,ES,2009/5/7,Xlibris Corporation,,false,2,14310504,0,0,0,0,2009/5/7,,,0,0,0,0,0,0.00,180,Paperback,,0,0,"Jansenius T. Lange, Jr.",,,,,,,0,,
14311001,1425723616,"Terror in America: One Man's Story, 1963-2005",9781425723613,,,,ES,2008/6/5,Xlibris Corporation,,false,2,14311001,0,0,0,0,2008/6/5,,,0,0,0,0,0,0.00,404,Paperback,,0,0,Leslie Herzberger,,,,,,,0,,
14311501,1410941027,Surviving Tsunamis,9781410941022,,,,ES,2011/8/1,Raintree,,false,5,15942816,3,14,3,0,2011/5/1,,,2,1,0,0,0,4.67,32,Paperback,,1,0,Kevin Cunningham,,,,,,,0,,
14312001,1410944220,101 Ways to Be a Great Role Model,9781410944221,,,,ES,2011/7/1,Raintree,,false,3,14312001,4,6,2,1,2011/7/1,,,0,0,2,0,0,3.00,56,Hardcover,,1,0,Charlotte Guillain,,,,,,1,0,,
14312501,1410947513,Amazing Animal Communicators,9781410947512,,,,ES,2012/7/1,Raintree,,false,5,14312477,3,5,2,0,2012/7/1,,book,0,0,1,1,0,2.50,32,Paperback,,0,0,John  Townsend,,,,,,,0,,non-fiction
14313001,1408229471,Technical English 3 Course Book,9781408229477,,,,ES,2013/4/4,Pearson Education ESL,,false,1,14313001,383,169,41,1,2011/1/1,,,22,10,3,4,2,4.12,126,Paperback,,41,1,David Bonamy,,,,,,276,0,18,non-fiction
14313501,1404280251,Experiments W/Electricity & Ma,9781404280250,,,,ES,2009/1/1,PowerKids Press,,false,6,6994684,1,0,0,1,2009/1/1,,book,0,0,0,0,0,0.00,,Paperback,,0,0,Trevor Cook,,,,,,1,0,,
14314001,1404297103,The Big Dipper,9781404297104,,,,ES,2006/1/1,Rosen Classroom,,false,3,14314001,8,8,2,0,2003/8/1,,,1,0,1,0,0,4.00,24,Paperback,,2,0,Stephanie True Peters,,,,,,1,0,,
14314501,1408517841,Bond English Assessment Papers 8-9 Years,9781408517840,,,,ES,2012/3/1,Nelson Thornes,,false,1,14314501,4,15,3,0,2012/3/1,,,3,0,0,0,0,5.00,80,Paperback,,3,0,J.M. Bond,,,,,,,0,,
14315001,1420816357,September Sound,9781420816358,,,,ES,2005/4/8,Authorhouse,,false,2,14315001,0,0,0,0,2005/4/1,,,0,0,0,0,0,0.00,392,Paperback,,0,0,Philip R. Clark,,,,,,,0,,
14315501,1420826506,Restoring Honor to an Honorable Vocation,9781420826500,,,,ES,,,,false,3,14315503,0,0,0,0,2005/5/1,,,0,0,0,0,0,0.00,,,,0,0,Dieuner Joseph,,,,,,,0,,
14316001,1412201365,The Rift,9781412201360,,,,ES,2004/3/1,Trafford Publishing,,false,2,14316001,0,0,0,0,2004/3/1,,,0,0,0,0,0,0.00,364,Hardcover,,0,0,Heimo Von Hardung,,,,,,,0,,
14316501,1408623404,Industrial Chemistry,9781408623404,,,,ES,2007/10/29,Pringle Press,,false,5,14316501,9,3,1,0,2007/10/1,,,0,0,1,0,0,3.00,132,Paperback,,1,0,M.D. Ranken,,,,,,5,0,1,"non-fiction,science"
14317001,1412842301,"Music and Solidarity: Questions of Universality, Consciousness, and Connection",9781412842303,,,,ES,2014/4/16,Taylor & Francis,,false,1,14317001,0,0,0,0,2011/5/6,,,0,0,0,0,0,0.00,206,Paperback,,0,0,,,,"Felicity Laurence,Olivier Urbain",,,,0,,
14317501,1405145277,Treloar Bundle Special Waterstones Edition,9781405145275,,,,ES,1991/1/1,Wiley-Blackwell,,false,1,14317501,0,0,0,0,1991/1/1,,,0,0,0,0,0,0.00,320,Paperback,,0,0,Roy Treloar,,,,,,,0,,
14318001,1408640767,Riverby,9781408640760,,,,ES,2008/2/28,Holmes Press,,false,30,7833562,5,5,1,0,1894/1/1,,book,1,0,0,0,0,5.00,332,Paperback,,0,0,John Burroughs,,,,,,4,0,,nature
14318501,142596365X,The River Flip,9781425963651,,,,ES,2007/3/9,Authorhouse UK,,false,2,14318501,0,0,0,0,2007/3/1,,,0,0,0,0,0,0.00,64,Paperback,,0,0,Farida Amin,,,,,,,0,,
14319001,1412937833,Strategies for Successful Classroom Management: Helping Students Succeed Without Losing Your Dignity or Sanity,9781412937832,,,,ES,2007/12/1,Corwin Publishers,,false,6,1510878,11,5,1,0,2007/12/1,Strategies for Successful Classroom Management: Helping Students Succeed Without Losing Your Dignity or Sanity,book,1,0,0,0,0,5.00,155,Hardcover,,0,0,"Allen N. Mendler,Brian D. Mendler,Richard L. Curwin",,,,,,9,0,1,education
14319501,1412947758,Entrepreneurship for Everyone: A Student Textbook,9781412947756,,,,ES,2008/11/26,Sage Publications Ltd,,false,4,7843412,8,12,4,0,2008/11/11,,book,0,1,2,1,0,3.00,242,Paperback,,0,0,"Alan Fisher,Antonia Bifulco,Robert Mellor",,,,,,2,0,2,
14320501,1406216240,Sea Monsters,9781406216240,,,,ES,2011/5/4,Raintree,,false,4,12145721,1,5,1,1,2010/7/1,,,1,0,0,0,0,5.00,32,Paperback,,0,0,Catherine Veitch,,,,,,,0,,
14321001,1426021798,"CompTIA A+ Certification, Comprehensive, Volume 1 [With Paperback Book]",9781426021794,,,,ES,,,,false,1,14321001,0,0,0,0,2011/1/14,,,0,0,0,0,0,0.00,,,,0,0,,,,,,,,0,,
14322001,1408684640,Liturgical Studies,9781408684641,,,,ES,2008/7/8,Streeter Press,,false,8,14322001,4,0,0,0,2008/7/1,,,0,0,0,0,0,0.00,240,Paperback,,0,0,Vernon Staley,,,,,,4,0,,
14322501,1426707592,Living in Faith - Esther Korean,9781426707599,,,,ES,2005/10/1,Cokesbury,,false,1,14322501,0,0,0,0,2005/10/1,,,0,0,0,0,0,0.00,68,Paperback,,0,0,Sung Ho Lee,,,,,,,0,,
14323001,142674353X,Committed to Christ: Small-Group Leader Guide: Six Steps to a Generous Life,9781426743535,,,,ES,2012/5/1,Abingdon Press,,false,1,14323001,1,4,1,0,2012/5/1,,,0,1,0,0,0,4.00,64,Paperback,,1,0,Bob Crossman,,,,,,,0,,
14323501,1406330647,Cowboy Baby,9781406330649,,,,ES,,,,false,8,439842,78,144,42,12,1997/1/1,Cowboy Baby,book,8,10,16,8,0,3.43,,,,2,0,Sue Heap,,,,,,15,7,,"anthologies,family,fantasy,fiction,juvenile,picture-books"
14324001,1406337749,Utterly Lovely One,9781406337747,,,,ES,2012/2/1,Walker & Company,,false,3,12720139,118,252,84,23,2011/8/1,,book,8,18,29,24,5,3.00,26,Paperback,,2,0,Mary Murphy,,,,,,14,6,,"animals,childrens,family,fiction,love,picture-books"
14324501,1421404966,Wavelets: A Concise Guide,9781421404967,,,,ES,2012/2/24,Johns Hopkins University Press,,false,4,14324501,7,4,1,0,2012/1/1,,,0,1,0,0,0,4.00,304,Paperback,,0,0,Amir-Homayoon Najmi,,,,,,3,0,2,
14325001,1413724353,The Dancer,9781413724356,,,,ES,2004/9/12,America Star Books,,false,1,14325001,0,0,0,0,2004/9/12,,,0,0,0,0,0,0.00,208,Paperback,,0,0,Jim Keil,,,,,,,0,,
14325501,1409120805,All That Glitters,9781409120803,,,,ES,2012/2/1,Orion Publishing Group,,false,4,10313315,195,367,101,18,2012/2/1,,book,21,39,27,11,3,3.63,328,Paperback,,8,5,Ilana Fox,,,,,,67,12,3,"chick-lit,fiction,lgbt,romance"
14326001,1406517607,Tales and Novels - Volume VIII,9781406517606,,,,ES,2007/2/23,Dodo Press,,false,25,20362716,16,12,3,2,2005/11/1,,book,1,1,1,0,0,4.00,372,Paperback,,0,0,Maria Edgeworth,,,,,,9,1,,"british-literature,classics,collections,comedy,drama,english-literature,fiction,historical-fiction,novels,plays"
14326501,1426953402,Tick Tock Boom Boom!: A Poetic Journey Through Life,9781426953408,,,,ES,2011/3/3,Trafford Publishing,,false,3,14326501,1,0,0,0,2011/3/1,,,0,0,0,0,0,0.00,140,Hardcover,,0,0,Michela Wolfe McGhee,,,,,,1,0,,poetry
14327001,141401774X,The Journey: A Venture Into the Heart of God,9781414017747,,,,ES,2003/12/25,1st Book Library,,false,2,14327001,0,0,0,0,2003/12/1,,,0,0,0,0,0,0.00,368,Hardcover,,0,0,,,Blain Markham,,,,,0,,
14327501,1409535096,"Eat Up, Max and Millie",9781409535096,,,,ES,2012/1/1,Usborne Books,eng,false,2,14327501,9,6,3,0,2012/1/1,"Eat Up, Max and Millie",book,0,0,1,1,1,2.00,23,Hardcover,,3,0,Felicity Brooks,,,,,,2,1,,picture-books
14328001,1421814250,Aunt Jane's Nieces Out West,9781421814254,,,,ES,2006/1/1,1st World Library,,false,44,7506565,153,209,55,4,1914/1/1,,book,18,15,15,7,0,3.80,212,Hardcover,,0,0,,,,,,,75,2,2,"american,classics,fiction,historical-fiction,novels,young-adult"
14328501,1409702561,Evelina's Garden,9781409702566,,,,ES,2008/5/1,Martindell Press,,false,20,199370,67,105,29,8,1899/1/1,Evelina's Garden,book,4,13,9,3,0,3.62,128,Paperback,,1,1,Mary E. Wilkins Freeman,,,,,,25,4,2,"american,classics,fiction,love,love-story,romance,short-stories,tragedy"
14329001,1421823632,The House of Whispers,9781421823638,,,,ES,2006/11/2,1st World Library,,false,40,7716745,150,133,43,6,1909/1/1,The House of Whispers,book,6,10,13,10,4,3.09,312,Hardcover,,0,0,William Le Queux,,,,,,82,9,3,"classics,english-literature,fiction,mystery,mystery-thriller,thriller"
14329501,1409707229,Science for Beginners; A First Book in General Science for Intermediate Schools and Junior High Schools,9781409707226,,,,ES,2008/5/19,McMaster Press,,false,1,14329501,0,0,0,0,2008/5/1,,,0,0,0,0,0,0.00,404,Paperback,,0,0,Delos Fall,,,,,,,0,,
14330001,140970923X,A Statement in Respect to the United States Naval Observatory and Its Organization,9781409709237,,,,ES,2008/5/19,Barber Press,,false,5,14330001,0,0,0,0,2008/5/1,,,0,0,0,0,0,0.00,72,Paperback,,0,0,Lewis Boss,,,,,,,0,,
14330501,140655510X,The Chaplet of Pearls,9781406555103,,,,ES,2007/9/14,Dodo Press,,false,40,307227,32,38,10,1,1868/1/1,The Chaplet of Pearls or the White And Black Ribaumont,book,2,5,2,1,0,3.80,544,Paperback,,0,0,Charlotte Mary Yonge,,,,,,18,0,2,fiction
14331001,1409715442,History of the United States Marine Corps,9781409715443,,,,ES,2008/7/8,Nash Press,,false,11,14331001,1,0,0,0,2008/7/1,,book,0,0,0,0,0,0.00,324,Paperback,,0,0,Richard Strader Collum,,,,,,1,0,,history
14332001,1409723860,Without the Pale,9781409723868,,,,ES,2008/5/18,Ferrero Press,,false,1,14332001,0,0,0,0,2008/5/1,,,0,0,0,0,0,0.00,112,Paperback,,0,0,Margeret Sinclair Stevenson,,,,,,,0,,
14332501,1409725286,Military French,9781409725282,,,,ES,2008/5/18,Mayo Press,,false,2,14332501,1,0,0,0,2008/5/1,,,0,0,0,0,0,0.00,356,Paperback,,0,0,Francois Denoue,,,,,,1,0,,
14333001,1406579920,The Trapper's Son (Dodo Press),9781406579925,,,,ES,2007/11/1,Dodo Press,,false,18,21244634,1,0,0,0,1870/1/1,,book,0,0,0,0,0,0.00,88,Paperback,,0,0,W.H.G. Kingston,,,,,,1,0,,
14334001,1428415335,Developing Mathematical Ideas Making Meaning for Operations Facilitator's Package 2000c,9781428415331,,,,ES,2007/8/1,Dale Seymour Publications,,false,1,14334001,0,0,0,0,2007/8/1,,,0,0,0,0,0,0.00,,Hardcover,,0,0,,,,,,,,0,,
14334501,1416208488,Dumped: A Grown-Up Guide to Gettin' Off Your Ass and Over Your Ex in Record Time,9781416208488,,,,ES,2012/9/15,Sellers Publishing,,false,2,14334501,125,184,48,19,2012/1/1,,,21,8,12,4,3,3.83,144,Paperback,,48,19,"Caryn Beth Rosenthal,Maryjane Fahey",,,,,,58,4,,"humor,non-fiction,relationships,self-help"
14335001,1409769593,Our Debt to the Red Man - The French-Indians in the Development of the United States,9781409769590,,,,ES,2008/6/30,Martin Press,,false,17,26982693,2,5,1,0,2008/6/1,,,1,0,0,0,0,5.00,256,Paperback,,0,0,Louise Seymour Houghton,,,,,,1,0,,
14335501,1422205630,A History of the FBI,9781422205631,,,,ES,2009/9/1,Mason Crest Publishers,,false,5,14335501,11,24,7,0,2009/9/1,,,2,0,4,1,0,3.43,64,Hardcover,,6,0,Sabrina Crewe,,,,,,2,3,,
14336001,1422217833,"Reviving the Spirit, Reforming Society: Religion in the 1800s",9781422217832,,,,ES,2010/9/1,Mason Crest Publishers,,false,3,14336001,0,0,0,0,2009/9/28,,book,0,0,0,0,0,0.00,64,Hardcover,,0,0,Kenneth McIntosh,,,,,,,0,,
14336501,1409784401,"Athletes All Training, Organization, and Play",9781409784401,,,,ES,2008/6/30,Alofsin Press,,false,2,14398273,0,0,0,0,2008/6/1,,,0,0,0,0,0,0.00,324,Paperback,,0,0,Walter Chauncey Camp,,,,,,,0,,
14337001,1409788644,Uncle Samuel's Whistle and What It Costs - 1864,9781409788645,,,,ES,2008/7/1,Addison Press,,false,1,14337001,0,0,0,0,2008/7/1,,,0,0,0,0,0,0.00,48,Paperback,,0,0,Anonymous,,,,,,,0,,
14338001,1418019453,"Lab Manual for Graves' the Complete Guide to Networking and Network+, 2nd",9781418019457,,,,ES,2005/6/30,Cengage Learning,,false,1,14338001,0,0,0,0,2005/6/30,,,0,0,0,0,0,0.00,144,Paperback,,0,0,Michael Graves,,,,,,,0,,
14338501,1409902641,"Twenty Years After, Volume II",9781409902645,,,,ES,2008/4/11,Dodo Press,,false,41,596830,189,435,100,7,1845/1/1,,book,55,28,15,1,1,4.35,496,Paperback,,3,1,Alexandre Dumas,,,,,,45,4,2,"adventure,classics,fiction,historical-fiction,history"
14339501,1428870857,"Exam Prep for Macroeconomics Explore and Apply by Ayers, Collinge, 1st Ed",9781428870857,,,,ES,,,,false,1,14339501,0,0,0,0,2009/8/1,,,0,0,0,0,0,0.00,,,,0,0,MznLnx,,,,,,,0,,
14340501,1423381742,"Transformational Speaking: If You Want to Change the World, Tell a Better Story",9781423381747,,,,ES,2009/4/1,Brilliance Audio,,false,7,6627573,525,451,112,14,2009/3/3,Transformational Speaking,book,43,40,18,11,0,4.03,,Audio CD,,0,0,Gail Larsen,,,,,,351,7,13,"business,leadership,non-fiction,psychology,reference,relationships,self-help,writing"
14341001,142341358X,Christmas Carols: Trumpet [With CD],9781423413585,,,,ES,,,,false,1,14341001,0,0,0,0,2006/9/1,,,0,0,0,0,0,0.00,,,,0,0,,,,,,,,0,,
14341501,142348942X,"Practicing the Piano: How Students, Parents, and Teachers Can Make Practicing More Effective",9781423489429,,,,ES,2012/4/1,Hal Leonard Publishing Corporation,,false,1,14341501,17,29,6,0,2012/4/1,,,5,1,0,0,0,4.83,112,Paperback,,6,0,Nancy Breth,,,,,,10,1,,
14342001,1424044340,Afghanistan's Heroic Artists: Footprint Reading Library 8,9781424044344,,,,ES,2009/5/1,National Geographic Society,,false,3,14342001,2,3,1,0,2009/5/1,,,0,0,1,0,0,3.00,32,Paperback,,1,0,Rob Waring,,,,,,,0,,
14342501,1456013858,"I Am Beautiful, for All the Children of the World",9781456013851,,,,ES,2010/3/3,America Star Books,,false,2,15009764,0,0,0,0,2010/3/1,,,0,0,0,0,0,0.00,20,Paperback,,0,0,Ayanna Brown,,,,,,,0,,
14343001,1600763200,Indian Nation,9781600763205,,,,ES,2011/10/1,Stonegarden.Net Publishing,,false,2,22255282,6,0,0,0,2011/10/1,,,0,0,0,0,0,0.00,252,Paperback,,0,0,Donovan Galway,,,,,,5,0,1,
14343501,1429105801,Winter Wind,9781429105804,,,,ES,2009/9/1,Heritage Music Press,,false,3,14343501,0,0,0,0,2009/9/1,,,0,0,0,0,0,0.00,8,Paperback,,0,0,,,,,,,,0,,
14344001,1456023314,Preacher Killer,9781456023317,,,,ES,2011/6/21,America Star Books,,false,1,14344001,0,0,0,0,2011/6/21,,,0,0,0,0,0,0.00,90,Paperback,,0,0,Charles Douglas Taylor,,,,,,,0,,
14344501,142911553X,I Got a Home In-A That Rock,9781429115537,,,,ES,2010/9/1,Roger Dean Publishing Company,,false,1,14344501,0,0,0,0,2010/9/1,,,0,0,0,0,0,0.00,12,Paperback,,0,0,,,,,,,,0,,
14345001,1456034065,"Caretakers, Keepers of the Cursed",9781456034061,,,,ES,2010/12/3,America Star Books,,false,1,14345001,1,0,0,0,2010/12/3,,,0,0,0,0,0,0.00,212,Paperback,,0,0,Gracie Hatchet,,,,,,1,0,,
14345501,1456038907,Rose Marie vs. Devil Lynn,9781456038908,,,,ES,2011/2/24,America Star Books,,false,2,14345501,0,0,0,0,2011/2/24,,,0,0,0,0,0,0.00,118,Paperback,,0,0,Bonnie Conway,,,,,,,0,,
14346001,1572586907,God Makes a Way,9781572586901,,,,ES,2011/11/30,Teach Services,,false,4,17433188,1,0,0,0,2011/11/29,,,0,0,0,0,0,0.00,150,Hardcover,,0,0,Susan Mbaluka,,,,,,,0,1,
14346501,1429124792,Echo Christmas Joy: SATB with Opt. Orchestra or Instrumental Ensemble,9781429124799,,,,ES,2011/9/1,Lorenz Publishing Company,,false,2,14346506,0,0,0,0,2011/3/11,,,0,0,0,0,0,0.00,11,Paperback,,0,0,,,,,,,,0,,
14347001,1573125350,Sessions with John & Jude: God's Abiding Words for an Active Faith,9781573125352,,,,ES,2013/11/13,"Publisher: Smyth & Helwys Publishing, Incorpor",,false,2,14347001,1,0,0,0,2009/4/1,,,0,0,0,0,0,0.00,102,Paperback,,0,0,Charles Qualls,,,,,,,0,,
14347501,1601459335,Tempest on Board the Sugarcane,9781601459336,,,,ES,,,,false,1,14347501,2,4,1,1,2009/8/1,,,0,1,0,0,0,4.00,,,,1,1,Mike Connole,,,,,,1,0,,
14348001,1601515391,"Medicare Desk Reference for Hospitals: An Interpretation of Medicare Billing, Reimbursement and Compliance Rules",9781601515391,,,,ES,2011/3/1,Ingenix,,false,1,14348001,0,0,0,0,2011/3/1,,,0,0,0,0,0,0.00,,Hardcover,,0,0,,,,,,,,0,,
14348501,1456080903,The Muddy Little Piggy's,9781456080907,,,,ES,2011/4/15,America Star Books,,false,1,14348501,1,0,0,0,2011/4/15,,,0,0,0,0,0,0.00,16,Paperback,,0,0,Cynthia Anne Young,,,,,,,0,,
14349001,1441720243,Thrilling Days in Army Life,9781441720245,,,,ES,2011/3/1,Blackstone Audiobooks,,false,11,13094188,6,12,3,0,1900/1/1,,,1,1,1,0,0,4.00,,Audio CD,,0,0,George A. Forsyth,,,,,Erik Sandvold,1,0,,
14349501,1429631236,Frozen World: Polar Meltdown,9781429631235,,,,ES,2009/3/1,Capstone Press,,false,4,11055915,1,0,0,1,2008/9/30,,book,0,0,0,0,0,0.00,32,Hardcover,,0,0,Sean Callery,,,,,,,0,,
14350001,1456329324,A Mamarazzi's Guide to Creativity: A Guide to Unleashing Creativity on Demand,9781456329327,,,,ES,2010/11/1,Createspace Independent Publishing Platform,,false,1,14350001,0,0,0,0,2010/11/1,,,0,0,0,0,0,0.00,108,Paperback,,0,0,Tim O'Neill,,,,,,,0,,
14350501,1429654414,The Kids' Guide to Mummies,9781429654418,,,,ES,2010/12/1,Capstone Press,,false,1,14350501,5,17,5,1,2011/1/1,,,0,3,1,1,0,3.40,32,Hardcover,,5,1,Joan Axelrod-Contrada,,,,,,1,0,,
14351001,1602352720,Composition Studies 39.2 (Fall 2011),9781602352728,,,,ES,2011/11/1,Parlor Press,,false,1,14351001,0,0,0,0,2011/11/1,,,0,0,0,0,0,0.00,192,Paperback,,0,0,,,,Jennifer Clary-Lemon,,,,0,,
14351501,1456422618,We're All Dead Here in Limbo: Burnt Thoughts and Bent Bottlecaps,9781456422615,,,,ES,2011/1/21,Createspace Independent Publishing Platform,,false,1,14351501,0,0,0,0,2011/1/21,,,0,0,0,0,0,0.00,104,Paperback,,0,0,J. Huch,,,,,,,0,,
14352001,1456454854,The Wonderful Wind,9781456454852,,,,ES,2011/12/1,Createspace Independent Publishing Platform,,false,1,14352001,0,0,0,0,2011/12/1,,,0,0,0,0,0,0.00,58,Paperback,,0,0,Maria Dorothy King,,,,,,,0,,
14352501,1429686111,Life Under the Pirate Code,9781429686112,,,,ES,2012/7/1,Capstone Press,,false,3,14352501,16,37,10,5,2012/8/1,,book,2,3,5,0,0,3.70,32,Hardcover,,10,5,Cindy Jenson-Elliott,,,,,,3,2,,"adventure,history,young-adult"
14353001,1429693509,Hours,9781429693509,,,,ES,2012/7/1,Capstone Press,,false,2,14352417,2,0,0,0,2012/8/1,,,0,0,0,0,0,0.00,24,Paperback,,0,0,Kimberly M. Hutmacher,,,,,,,1,,
14353501,1576858960,ACT Flash Review,9781576858967,,,,ES,2012/4/16,Learning Express (NY),,false,3,14353501,1,0,0,0,2012/4/16,,,0,0,0,0,0,0.00,320,Paperback,,0,0,LearningExpress,,,,,,1,0,,
14354001,1456541641,The New Intimacy: Discovering the Magic at the Heart of Your Differences,9781456541644,,,,ES,2011/8/3,Createspace Independent Publishing Platform,,false,3,2820027,15,19,5,1,1997/10/1,The New Intimacy: Discovering the Magic at the Heart of Your Differences,,1,2,2,0,0,3.80,336,Paperback,,0,0,"James Sneichowski,Judith Sherven",,,,,,5,0,,personal-development
14354501,1430303085,The ABC's of Successful Managers (According to Mikey),9781430303084,,,,ES,2007/1/16,Lulu.com,,false,1,14354501,0,0,0,0,2007/1/1,,,0,0,0,0,0,0.00,,Paperback,,0,0,Mike Lewis,,,,,,,0,,
14355001,1602709629,Science Rocks! Set 2 CD,9781602709621,,,,ES,,,,false,6,14355016,0,0,0,0,2008/7/1,,,0,0,0,0,0,0.00,,,,0,0,Nadia Higgins,,,,,,,0,,
14355501,1602793190,Trustworthiness,9781602793194,,,,ES,2009/1/1,Cherry Lake Publishing,,false,12,17592749,3,3,1,1,2009/1/1,,,0,0,1,0,0,3.00,24,Hardcover,,0,0,Lucia Raatma,,,,,,,0,,
14356001,1432101641,101 Words That Matter Most for Dads,9781432101640,,,,ES,2012/2/1,Christian Art Gifts,,false,1,14356001,1,0,0,0,,,,0,0,0,0,0,0.00,,Paperback,,0,0,Anonymous,,,,,,1,0,,
14356501,1602902917,Watched!,9781602902916,,,,ES,2012/3/1,OakTara Publishers,,false,2,14356501,10,10,2,1,2012/3/1,,,2,0,0,0,0,5.00,272,Paperback,,2,1,Patricia L. Stebelton,,,,,,6,1,,
14357001,1456728806,Visionary Leadership: A Proven Pathway to Visionary Change,9781456728809,,,,ES,2011/1/11,Authorhouse,,false,3,14357003,0,0,0,0,2011/1/11,,,0,0,0,0,0,0.00,116,Hardcover,,0,0,William A. Ihlenfeldt,,,,,,,0,,
14357501,1432725831,"Voodoo Intersection: Poverty, Crime and Disease in Haiti",9781432725839,,,,ES,2011/12/28,Outskirts Press,,false,2,14357501,9,19,6,2,2011/12/28,,,0,2,3,1,0,3.17,88,Paperback,,4,2,Yonie Richard,,,,,,2,0,1,
14358001,1579227422,Learner-Centered Teaching: Putting the Research on Learning Into Practice,9781579227425,,,,ES,2011/10/24,Stylus Publishing (VA),,false,4,12979110,79,123,30,5,2011/10/1,,,12,12,4,1,1,4.10,224,Hardcover,,0,0,Terry Doyle,,,,,,39,0,5,"education,non-fiction,teaching"
14358501,1456746081,18 Wheels and Bill,9781456746087,,,,ES,2011/7/6,Authorhouse,,false,3,17642254,0,0,0,0,2011/3/7,,,0,0,0,0,0,0.00,116,Hardcover,,0,0,Juanita Gill-Schoen,,,,,,,0,,
14359001,1579807577,Statistical Abstract of the United States,9781579807573,,,,ES,2002/3/1,Claitor's Law Books and Publishing Division,,false,31,1969654,30,28,6,2,1991/1/1,Statistical Abstract of the United States 2007 (Hardcover): The National Data Book (Statistical Abstract of the United States),book,4,2,0,0,0,4.67,,Paperback,,0,0,,,,,,,15,0,-1,"non-fiction,reference"
14359501,1603592490,CPT Changes Archives: An Insider's View 2000-2011: 2-5 Users,9781603592499,,,,ES,2011/4/1,American Medical Association Press,,false,1,14359501,0,0,0,0,2011/4/1,,,0,0,0,0,0,0.00,,Hardcover,,0,0,American Medical Association,,,,,,,0,,
14360001,1456761579,"Memories, Past and Present",9781456761578,,,,ES,2011/9/27,Authorhouse,,false,4,17642580,0,0,0,0,2011/9/27,,,0,0,0,0,0,0.00,108,Paperback,,0,0,Ron Palmer,,,,,,,0,,
14360501,1603847367,"Andromache, Hecuba, Trojan Women",9781603847360,,,,ES,2012/3/15,"Hackett Publishing Company, Inc.",,false,4,14360497,41,98,24,3,,,,11,6,5,2,0,4.08,240,Hardcover,,0,0,Euripides,,,,,,8,3,1,"classics,college,plays"
14361001,1603968830,Nuevo Siglo de Espaol: Language 2 (Classroom Library 6-Pack),9781603968836,,,,ES,2009/8/1,Santillana USA Publishing Company,,false,1,14361001,1,0,0,0,2009/8/1,,,0,0,0,0,0,0.00,,Paperback,,0,0,Various,,,,,,1,0,,
14361501,1604136758,The Curie Family: Exploring Radioactivity,9781604136753,,,,ES,2012/5/1,Chelsea House Publications,,false,1,14361501,0,0,0,0,2012/5/1,,,0,0,0,0,0,0.00,128,Hardcover,,0,0,Harry Henderson,,,,,,,0,,
14362001,1441936114,Snapshots of Hemodynamics: An Aid for Clinical Research and Graduate Education,9781441936110,,,,ES,2010/12/6,Springer,,false,2,159231,3,0,0,0,2004/10/29,Snapshots of Hemodynamics,,0,0,0,0,0,0.00,192,Paperback,,0,0,"Mark I.M. Noble,Nico Westerhof,Nikos Stergiopulos",,,,,,2,0,,
14362501,1441939660,Fundamentals of Food Process Engineering,9781441939661,,,,ES,2010/11/19,Springer,,false,14,354907,73,30,7,0,1980/1/1,Fundamentals of Food Process Engineering (Food Science Texts Series),,4,1,2,0,0,4.29,570,Paperback,,0,0,Romeo T. Toledo,,,,,,48,0,3,
14363001,1604411260,A Kidney Through Faith,9781604411263,,,,ES,2008/1/7,America Star Books,,false,2,14363001,0,0,0,0,2008/1/7,,,0,0,0,0,0,0.00,58,Paperback,,0,0,Deborah Rich,,,,,,,0,,
14363501,1604417153,Reclaiming Aztlan,9781604417159,,,,ES,2007/12/17,America Star Books,,false,1,14363501,0,0,0,0,2007/12/17,,,0,0,0,0,0,0.00,366,Paperback,,0,0,Dave Arendt,,,,,,,0,,
14364001,1456811002,Rising & Setting,9781456811006,,,,ES,2010/12/29,Xlibris Corporation,,false,2,14364002,0,0,0,0,2010/12/29,,,0,0,0,0,0,0.00,124,Paperback,,0,0,Carlos M. Lopez Garcia,,,,,,,0,,
14364501,1456821555,I Never Knew Love,9781456821555,,,,ES,2010/12/13,Xlibris Corporation,,false,2,14364501,0,0,0,0,2010/12/13,,,0,0,0,0,0,0.00,50,Paperback,,0,0,Amber Charlene Brown,,,,,,,0,,
14365001,145683049X,See the Cane?,9781456830496,,,,ES,2010/12/22,Xlibris Corporation,,false,3,14365001,0,0,0,0,2010/12/22,,,0,0,0,0,0,0.00,110,Hardcover,,0,0,Karen Murphy Anderson,,,,,,,0,,
14365501,1583408363,What Moves Fast?,9781583408360,,,,ES,2006/8/1,Smart Apple Media,,false,2,15262354,2,0,0,0,2006/8/1,,,0,0,0,0,0,0.00,16,Paperback,,0,0,Josephine Selwyn,,,,,,2,0,,science
14366001,1583481427,Case Studies in Increased Sales,9781583481424,,,,ES,1999/2/1,iUniverse,,false,1,14366001,0,0,0,0,1999/2/1,,,0,0,0,0,0,0.00,436,Paperback,,0,0,"Susumu Miura,Susumu Mura",,,,,,,0,,
14366501,1456853724,The Four Elizabeths,9781456853723,,,,ES,2011/1/21,Xlibris Corporation,,false,2,14366501,2,4,2,2,2011/1/21,,,0,0,0,2,0,2.00,284,Paperback,,2,2,Mary MacLaren,,,,,,,0,,
14367501,1442641649,Debating Dissent: Canada and the Sixties,9781442641648,,,,ES,2012/10/9,University of Toronto Press,,false,1,14367501,0,0,0,0,2012/6/30,,,0,0,0,0,0,0.00,370,Hardcover,,0,0,"Gregory S. Kealey,Lara A. Campbell",,,Dominique Clement,,,,0,,
14368001,1443700959,The Works of Alexander Hamilton; Vol VII,9781443700955,,,,ES,2008/7/12,Tobey Press,,false,7,14368001,2,0,0,0,2008/7/1,,,0,0,0,0,0,0.00,492,Paperback,,0,0,Henry Cabot Lodge,,,,,,2,0,,
14368501,1456886908,Steps for Starting New Churches: A Manual for Starting New Churches and Redeveloping Old Ones,9781456886905,,,,ES,2011/3/25,Xlibris Corporation,,false,5,14368501,0,0,0,0,2011/3/11,,,0,0,0,0,0,0.00,190,Hardcover,,0,0,Henry Vernon,,,,,,,0,,
14369001,1443710032,"Catherine; Major Gahagan, Etc",9781443710039,,,,ES,2008/8/1,Martin Press,,false,7,14471639,2,0,0,0,2008/8/1,,,0,0,0,0,0,0.00,,Paperback,,0,0,William Makepeace Thackeray,,,,,,2,0,,
14369501,,Politikens bog om den lille barn,,,,,ES,,Politiken,dan,false,1,14369501,1,3,1,0,,,book,0,0,1,0,0,3.00,,,,1,0,Benedikte Hertel,,,,,,,0,,
14370001,1457610620,Successful College Writing 5e & E-Book,9781457610622,,,,ES,2012/4/15,Bedford/St. Martin's,,false,117,12420062,437,267,76,7,1999/9/1,,book,18,20,25,9,4,3.51,,,,0,0,Kathleen T. McWhorter,,,,,,240,0,25,"education,school,writing"
14370501,1458201910,Clemmie,9781458201911,,,,ES,2012/3/15,Abbott Press,,false,4,14370501,12,39,9,1,2012/3/15,,,3,6,0,0,0,4.33,236,Paperback,,8,1,Bili Morrow Shelburne,,,,,,1,0,,
14371001,144372789X,Are You Considering Psychoanalysis?,9781443727891,,,,ES,2008/11/4,Horney Press,,false,5,11982865,85,76,19,1,1962/4/17,,book,7,7,4,0,1,4.00,268,Hardcover,,0,0,Karen Horney,,,,,,61,1,3,psychology
14371501,1458756858,The Fox in the Henhouse,9781458756855,,,,ES,2010/5/1,ReadHowYouWant,,false,5,357607,94,103,31,5,2005/10/10,The Fox in the Henhouse: How Privatization Threatens Democracy (BK Currents),,5,9,11,3,3,3.32,,Paperback,Large 16pt Print,0,0,"Elizabeth Minnich,Si Kahn",,,,,,49,0,3,"business,history,non-fiction,politics"
14372001,1459613333,Below the Styx (Large Print 16pt),9781459613331,,,,ES,2011/3/1,ReadHowYouWant,,false,6,7721981,39,43,20,6,2010/1/1,,book,1,1,4,8,6,2.15,316,Paperback,Large Print,1,0,Michael Meehan,,,,,,13,1,,"crime,fiction,literary-fiction"
14372501,144374736X,"Manual of Home-Made Apparatus with Reference to Chemistry, Physics, and Physiology",9781443747363,,,,ES,2008/10/6,Higgins Press,,false,5,14372501,0,0,0,0,2008/10/1,,,0,0,0,0,0,0.00,84,Paperback,,0,0,John Francis Woodhull,,,,,,,0,,
14373001,144375191X,Practical Pattern Making,9781443751919,,,,ES,2008/10/7,King Press,,false,9,14373001,13,4,1,0,2008/6/1,,,0,1,0,0,0,4.00,160,Paperback,,1,0,Paul N. Hasluck,,,,,,11,0,,
14373501,1443756520,The Cattle - Baron's Daughter,9781443756525,,,,ES,2008/10/7,Gleed Press,,false,1,14373501,3,10,3,1,2008/10/1,,,0,1,2,0,0,3.33,396,Paperback,,3,1,Harold Blindloss,,,,,,,0,,"american-history,historical-fiction"
14374001,1460991699,"Dear Mary, the Lost Love Letters",9781460991695,,,,ES,2011/3/9,Createspace Independent Publishing Platform,,false,1,14374001,0,0,0,0,2011/3/9,,,0,0,0,0,0,0.00,246,Paperback,,0,0,Greg Pierce,,,,,,,0,,
14374501,1443769304,Granite and Clay,9781443769303,,,,ES,2008/10/27,Blumenfeld Press,,false,9,8026475,0,0,0,0,2008/10/1,,,0,0,0,0,0,0.00,312,Paperback,,0,0,Sara Ware Bassett,,,,,,,0,,
14375001,1461048893,Local Marketing Consultant Hiring Guide for Dumbassess: What to Know Before Hiring a Local Marketing Consultant,9781461048893,,,,ES,2011/3/29,Createspace Independent Publishing Platform,,false,1,14375001,0,0,0,0,2011/3/29,,,0,0,0,0,0,0.00,40,Paperback,,0,0,Bobby Beaulieu,,,,,,,0,,
14375501,1443779822,"The Time, the Place, and the Girl",9781443779821,,,,ES,2008/11/20,Delany Press,,false,4,14375501,2,0,0,0,1908/1/1,,book,0,0,0,0,0,0.00,180,Paperback,,0,0,John W. Harding,,,,,,1,0,,
14376001,1461101131,What You Mind Always Matters: The Law of Attraction Made Easy,9781461101130,,,,ES,2011/1/1,Createspace,,false,1,14376001,0,0,0,0,2011/1/3,,,0,0,0,0,0,0.00,132,Paperback,,0,0,DeCarlo A. Eskridge,,,,,,,0,,
14376501,1443788686,Collections Towards a Bibliography of the Universities of Aberdeen,9781443788687,,,,ES,2009/2/5,Mackaye Press,,false,3,14376501,0,0,0,0,2009/2/5,,,0,0,0,0,0,0.00,180,Paperback,,0,0,P. J. Anderson,,,,,,,0,,
14377001,1443792934,Good Recipes,9781443792936,,,,ES,2009/2/5,Horney Press,,false,1,14377001,1,0,0,0,2009/2/5,,,0,0,0,0,0,0.00,56,Paperback,,0,0,Various,,,,,,1,0,,
14377501,1443819034,Joseph Andrews and a Journey from This World to the Next,9781443819039,,,,ES,2010/3/1,Cambridge Scholars Publishing,,false,5,14377501,0,0,0,0,2010/3/1,,,0,0,0,0,0,0.00,500,Paperback,,0,0,Henry Fielding,,,,,,,0,,
14378001,1461414954,"On the Periphery of the Periphery: Household Archaeology at Hacienda San Juan Bautista Tabi, Yucat�n, Mexico",9781461414957,,,,ES,2011/11/30,Springer,,false,1,14378001,0,0,0,0,2011/11/30,,,0,0,0,0,0,0.00,266,Hardcover,,0,0,Sam R. Sweitz,,,,,,,0,,
14378501,1444123211,Mathematics Made Easy,9781444123210,,,,ES,2011/6/1,Hodder Education,,false,2,14378501,3,0,0,0,2011/6/1,,book,0,0,0,0,0,0.00,96,Paperback,,0,0,"Hugh Neil,Trevor   Johnson",,,,,,2,0,,
14379001,1462000282,Mission Possible,9781462000289,,,,ES,2011/4/25,iUniverse.com,,false,4,11620853,1,5,1,0,2011/4/1,,,1,0,0,0,0,5.00,108,Hardcover,,0,0,Matt Steiner,,,,,,,0,,
14379501,144433932X,First-Year Maternal Employment and Child Development in the First 7 Years,9781444339321,,,,ES,2010/8/24,Wiley-Blackwell,,false,1,14379501,1,0,0,0,2010/8/24,,,0,0,0,0,0,0.00,200,Paperback,,0,0,"Jane Waldfogel,Jeanne Brooks-Gunn,Wen-Jui Han",,,,,,1,0,,psychology
14380001,1444603396,Lessons in French Syntax and Composition,9781444603392,,,,ES,,,,false,1,14380001,0,0,0,0,2009/3/4,,,0,0,0,0,0,0.00,,,,0,0,W. U. Vreeland,,,,,,,0,,
14380501,1444607499,Violin Playing,9781444607499,,,,ES,,,,false,2,14380501,0,0,0,0,2009/3/4,,,0,0,0,0,0,0.00,,,,0,0,John Dunn,,,,,,,0,,
14381001,1462038565,Miracles of End Times,9781462038565,,,,ES,2011/7/25,iUniverse,,false,3,14381001,0,0,0,0,2011/7/1,,,0,0,0,0,0,0.00,52,Paperback,,0,0,George McCalman,,,,,,,0,,
14381501,146204624X,Beyond Desire: Rediscovering Health and Wellness,9781462046249,,,,ES,2011/9/6,iUniverse.com,,false,4,22219043,0,0,0,0,2011/9/1,,,0,0,0,0,0,0.00,112,Paperback,,0,0,Mark W. Hatcher,,,,,,,0,,
14382001,1462054455,Exodus Into Evil: A Collection of Short Horror Stories,9781462054459,,,,ES,2011/12/12,iUniverse.com,,false,6,14382001,3,0,0,0,2011/12/12,,,0,0,0,0,0,0.00,128,Hardcover,,0,0,Stanley J. Brzycki,,,,,,3,0,,
14382501,146206048X,Teddy Bear Murders: The Four Deadly Hellos,9781462060481,,,,ES,2011/10/24,iUniverse.com,,false,5,14382503,4,8,2,1,2011/10/1,,,0,2,0,0,0,4.00,344,Paperback,,0,0,Jack   Fitzgerald,,,,,,2,0,-1,
14383001,1462067808,The Final Doctrine,9781462067800,,,,ES,2012/2/23,iUniverse,,false,1,14383001,1,0,0,0,2012/2/23,,,0,0,0,0,0,0.00,476,Hardcover,,0,0,Ian Murray,,,,,,1,0,,
14383501,1462076319,Lies Told Under Oath: The Puzzling Story of the Pfanschmidt Murders and of the Surviving Son-Victim or Villain?,9781462076314,,,,ES,2012/2/3,iUniverse,,false,4,15723724,52,79,19,7,2012/2/1,,book,9,6,2,2,0,4.16,428,Hardcover,,3,1,Beth Lane,,,,,,25,2,2,science
14384001,1444645110,"Arts and Life and the Building and Decoration of Cities - A Series of Lectures by Members of the Arts and Crafts Exhibition Society, Delivered at the Fifth Exhibition of the Society in 1896",9781444645118,,,,ES,2009/5/27,Detzer Press,,false,1,14384001,0,0,0,0,2009/5/27,,,0,0,0,0,0,0.00,266,Paperback,,0,0,Various,,,,,,,0,,
14384501,1462619495,The Elk & the Sword,9781462619498,,,,ES,2011/6/23,America Star Books,,false,1,14384501,0,0,0,0,2011/6/23,,,0,0,0,0,0,0.00,78,Paperback,,0,0,Carla Cy Thurston,,,,,,,0,,
14385001,1462629962,Grateful Ambitions,9781462629961,,,,ES,2011/8/31,America Star Books,,false,1,14385001,0,0,0,0,2011/8/31,,,0,0,0,0,0,0.00,48,Paperback,,0,0,Tracy Rena,,,,,,,0,,
14385501,1444657704,Fifty-Six Waterloo Cups - Greyhounds and Coursers,9781444657708,,,,ES,2010/2/18,Vintage Dog Books,,false,3,17198071,0,0,0,0,2010/2/18,,,0,0,0,0,0,0.00,238,Paperback,,0,0,Lowie Hall,,,,,,,0,,
14386001,1444663704,With Pizarro in Peru,9781444663709,,,,ES,2009/11/27,Bradley Press,,false,6,14386001,-2,0,0,0,,,book,0,0,0,0,0,0.00,312,Paperback,,0,0,C. Falkenhorst,,,,,,,0,,
14386501,1444666916,The Owl Sacred Pack of the Fox Indians,9781444666915,,,,ES,2009/11/27,Coss Press,,false,10,14386501,0,0,0,0,2007/1/1,,,0,0,0,0,0,0.00,84,Paperback,,0,0,Truman Michelson,,,,,,,0,,
14387001,1462652980,"Zombies, Angels, and Time Travel",9781462652983,,,,ES,2011/11/17,America Star Books,,false,1,14387001,0,0,0,0,2011/11/17,,,0,0,0,0,0,0.00,80,Paperback,,0,0,Mae Wolf,,,,,,,0,,
14387501,1462658717,Wadi Dogs,9781462658718,,,,ES,2011/12/19,America Star Books,,false,3,13272275,31,31,8,0,2011/12/17,Wadi Dogs,book,3,2,2,1,0,3.88,220,Paperback,,0,0,Richard Shehane,,,,,,12,1,,
14388001,1444676245,Religion and Life,9781444676242,,,,ES,,,,false,9,14388001,4,4,2,0,2009/12/9,,,0,0,0,2,0,2.00,,,,2,0,Rudolf Christoph Eucken,,,,,,2,0,,
14388501,1462673740,Bible Baby: Colors,9781462673742,,,,ES,2011/11/21,America Star Books,,false,2,14388501,0,0,0,0,2011/11/21,,,0,0,0,0,0,0.00,28,Hardcover,,0,0,Angi Napier,,,,,,,0,,
14389001,1444683586,Handbook of the European War,9781444683585,,,,ES,,,,false,1,14389001,2,0,0,0,2009/12/9,,,0,0,0,0,0,0.00,,,,0,0,Various,,,,,,2,0,,
14389501,1462846629,Tecumseh's Curse,9781462846627,,,,ES,2011/7/14,Xlibris Corporation,,false,3,14389502,387,18,7,4,2011/7/14,,,1,0,3,1,2,2.57,196,Paperback,,3,3,W. C. Madden,,,,,,377,1,,"historical-fiction,mystery"
14390001,1444691961,A Far Journey,9781444691962,,,,ES,,,,false,6,10411395,1,0,0,0,2009/4/4,,,0,0,0,0,0,0.00,,,,0,0,Abraham Mitrie Rihbany,,,,,,1,0,,
14390501,1462863086,Bloom Where You're Planted,9781462863082,,,,ES,2011/5/6,Xlibris Corporation,,false,1,14390501,0,0,0,0,2011/5/6,,,0,0,0,0,0,0.00,142,Paperback,,0,0,Laurie Hoffman,,,,,,,0,,
14391001,1444703455,NIV Adventure Bible,9781444703450,,,,ES,2011/9/1,Hodder & Stoughton,,false,72,820819,739,1856,404,22,1920/1/1,,book,300,61,31,7,5,4.59,1472,Hardcover,,2,0,Anonymous,,,,,,65,6,19,"childrens,christianity,non-fiction,religion,spirituality,young-adult"
14391501,1462881416,Gypsy,9781462881413,,,,ES,2011/6/23,Xlibris Corporation,,false,3,12697493,2,5,1,0,2011/6/23,,,1,0,0,0,0,5.00,108,Hardcover,,0,0,Anita Kulkarni,,,,,,1,0,,
14392001,1462889387,Impressions: Photos and Thoughts,9781462889389,,,,ES,2011/6/15,Xlibris,,false,1,14392001,0,0,0,0,2011/6/15,,,0,0,0,0,0,0.00,60,Paperback,,0,0,Rene Thibault,,,,,,,0,,
14393001,1463303556,La Ni a de La Calle,9781463303556,,,,ES,2011/9/16,Palibrio,,false,2,14393002,0,0,0,0,2011/9/16,,,0,0,0,0,0,0.00,110,Hardcover,,0,0,María de Jesús Jurado,,,,,,,0,,
14394501,1463317484,El Profeso: Una Epopeya de Un Heroe En La Edad Media,9781463317485,,,,ES,2012/4/9,Palibrio,,false,2,14394503,0,0,0,0,2012/4/9,,,0,0,0,0,0,0.00,714,Paperback,,0,0,Carlo Emanuele Ruspoli,,,,,,,0,,
14395001,1445509296,Casserole - Cook Book Casserole - Cook Book,9781445509297,,,,ES,,,,false,2,14395001,1,0,0,0,2010/7/27,,,0,0,0,0,0,0.00,,,,0,0,Various,,,,,,1,0,,
14395501,1445513277,Make Some New Puddings - 270 Recipes for War-Time Make Some New Puddings - 270 Recipes for War-Time,9781445513270,,,,ES,2010/7/27,Kronenberger Press,,false,2,14395019,0,0,0,0,2010/7/27,,,0,0,0,0,0,0.00,98,Hardcover,,0,0,Anonymous,,,,,,,0,,
14396001,1463413831,Understanding the Constitution,9781463413835,,,,ES,2011/8/4,Authorhouse,,false,5,6356716,1,0,0,0,2005/9/1,Understanding the Constitution,,0,0,0,0,0,0.00,216,Paperback,,0,0,Henry Conserva,,,,,,,0,,
14396501,1445521903,"Folk-Lore - A Quarterly Review of Myth, Tradition, Institution, and Custom - Volume XI 1900",9781445521909,,,,ES,,,,false,1,14396501,0,0,0,0,2010/7/26,,,0,0,0,0,0,0.00,,,,0,0,Various,,,,,,,0,,
14397001,146342681X,The Vagabonds,9781463426811,,,,ES,2011/8/18,Authorhouse,,false,3,14397001,0,0,0,0,2011/8/18,,,0,0,0,0,0,0.00,460,Paperback,,0,0,P. Paul Provost,,,,,,,0,,
14397501,1445530163,Longmans' English Lessons,9781445530161,,,,ES,2010/3/14,Hall Press,,false,2,14381983,3,0,0,0,2009/4/14,,book,0,0,0,0,0,0.00,114,Paperback,,0,0,G.J.  Smith,,,,,,2,0,1,
14398001,1463439032,Phantom Warriors--Mission Two--North Korea: North Korea,9781463439033,,,,ES,2011/8/30,Authorhouse,,false,3,14398001,0,0,0,0,2011/8/30,,,0,0,0,0,0,0.00,136,Hardcover,,0,0,Charles Welch,,,,,,,0,,
14398501,1463445156,"Lights, Camera, Murder!: A Brangus, Texas Mystery",9781463445157,,,,ES,2011/8/29,Authorhouse,,false,3,14398499,0,0,0,0,2011/8/29,,,0,0,0,0,0,0.00,144,Paperback,,0,0,Carol Walt,,,,,,,0,,
14399001,1445543419,Annals of Caesar - A Critical Biography with a Survey of the Sources for More Advanced Students of Ancient History and Particulably for the Use and Service of Instructors in Caesar,9781445543413,,,,ES,2010/3/25,Abhedananda Press,,false,1,14399001,0,0,0,0,2010/3/25,,,0,0,0,0,0,0.00,340,Paperback,,0,0,Ernest Gottlieb Sihler,,,,,,,0,,
14399501,1445547724,An Introduction to Greek Sculpture,9781445547725,,,,ES,,,,false,3,14399501,0,0,0,0,2009/8/16,,,0,0,0,0,0,0.00,,,,0,0,Lewis Edward Upcott,,,,,,,0,,
14400001,1445552086,A   Manual of the History of the Political System of Europe and Its Colonies - Form Its Formation at the Close of the Fifteenth Century to Its Re-Esta,9781445552088,,,,ES,,,,false,14,992157,0,0,0,0,,,,0,0,0,0,0,0.00,,,,0,0,Arnold Hermann Ludwig Heeren,,,,,,,0,,
14400501,1445555476,A Guide to Modern English History - Part I,9781445555478,,,,ES,,,,false,1,14400501,0,0,0,0,2010/3/31,,,0,0,0,0,0,0.00,,,,0,0,William Cory,,,,,,,0,,
14401001,1463632797,Power Hapkido Essential Techniques,9781463632793,,,,ES,2011/7/7,Createspace Independent Publishing Platform,,false,2,14401001,36,50,13,0,2011/7/7,,,5,4,2,1,1,3.85,420,Paperback,,4,0,Myung Yong Kim,,,,,,11,0,14,"personal-development,reference"
14401501,1463695136,Zeros,9781463695132,,,,ES,2011/7/1,Createspace,,false,2,14401501,3,6,2,0,2011/7/19,,,0,1,0,1,0,3.00,372,Paperback,,1,0,W.A. Nenadal,,,,,,,0,,
14402001,1463745044,Pastoral Presence in Corporate Healthcare - In Search of Sustainability,9781463745042,,,,ES,2011/10/14,Createspace Independent Publishing Platform,,false,1,14402001,0,0,0,0,2011/10/14,,,0,0,0,0,0,0.00,172,Paperback,,0,0,,James Ransom,,Greg Russell,,,,0,,
14402501,1463786409,Zoey Le Mar and the Veil of Fear,9781463786403,,,,ES,2011/8/1,Createspace Independent Publishing Platform,,false,2,14402501,2,5,1,1,2011/8/1,,,1,0,0,0,0,5.00,348,Paperback,,1,1,Michael S. Lopez,,,,,,1,0,,
14403001,1463897030,"Fee of the Frontier by H. B. Fyfe, Science Fiction, Adventure",9781463897031,,,,ES,2011/8/1,Aegypan,,false,7,14403001,5,9,4,0,2010/1/1,,,0,0,1,3,0,2.25,28,Hardcover,,3,0,H.B. Fyfe,,,,,,2,0,,
14403501,146440125X,Miniature Horses: Cool Pets!,9781464401251,,,,ES,2012/7/1,Enslow Elementary,,false,6,13779356,7,9,3,0,2012/1/1,,,1,0,1,0,1,3.00,48,Paperback,,0,0,"Alvin Silverstein,Laura Silverstein Nunn,Virginia B. Silverstein",,,,,,1,0,,
14404001,146531069X,For Scottie,9781465310699,,,,ES,2011/12/2,Xlibris Corporation,,false,3,14404002,0,0,0,0,2011/12/2,,,0,0,0,0,0,0.00,64,Paperback,,0,0,Dia Lynne Cardo,,,,,,,0,,
14404501,1465345272,Chronicles of a Soul: A Journey of Remembrance,9781465345271,,,,ES,2011/8/1,Xlibris Corporation,,false,4,15024838,0,0,0,0,2011/4/12,,,0,0,0,0,0,0.00,208,Paperback,,0,0,John Steven Albin,,,,,,,0,,
14405001,146535574X,The Right for U to Make the U Turn,9781465355744,,,,ES,2011/9/15,Xlibris Corporation,,false,2,14405001,0,0,0,0,2011/9/15,,,0,0,0,0,0,0.00,78,Hardcover,,0,0,Malikatu Davis,,,,,,,0,,
14405501,1465365621,Country Living: Peanut's Story,9781465365620,,,,ES,2011/9/26,Xlibris,,false,1,14405501,0,0,0,0,2011/9/26,,,0,0,0,0,0,0.00,24,Paperback,,0,0,Diane Hoffman,,,,,,,0,,
14406001,1465375929,Life Is Like a Box of Chocolates,9781465375926,,,,ES,2011/10/24,Xlibris Corporation,,false,2,14406001,0,0,0,0,1900/1/1,,,0,0,0,0,0,0.00,56,Hardcover,,0,0,Elaine Hughes-McTear,,,,,,,0,,
14406501,1465386599,Denny's Destiny: Change Agent,9781465386595,,,,ES,2011/10/28,Xlibris Corporation,,false,3,14406502,0,0,0,0,1900/1/1,,,0,0,0,0,0,0.00,144,Paperback,,0,0,Dennis M. Benson,,,,,,,0,,
14407001,146539608X,Don't Step on Crocodiles,9781465396082,,,,ES,2011/11/22,Xlibris Corporation,,false,2,14407001,1,0,0,0,2011/11/22,,,0,0,0,0,0,0.00,246,Paperback,,0,0,Richard Mounsey,,,,,,1,0,,
14407501,1466224371,"Aurora, Nevada's Silent City on the Hill",9781466224377,,,,ES,2011/12/10,Createspace,,false,1,14407501,2,0,0,0,2011/12/10,,,0,0,0,0,0,0.00,256,Paperback,,0,0,Sue Silver,,,,,,2,0,,american-history
14408001,1466269057,Unleashed: 12-Weeks to Total Mental Fitness: Workbook to Optimize Your Mental Health,9781466269057,,,,ES,2011/9/2,Createspace Independent Publishing Platform,,false,1,14408001,1,0,0,0,2011/9/2,,,0,0,0,0,0,0.00,336,Paperback,,0,0,"Rakesh Jain,Saundra Jain",,,,,,1,0,,
14408501,1466311649,The Human Machine,9781466311640,,,,ES,2011/9/1,Createspace,,false,3,1144941,254,407,96,3,1972/6/1,The Human Machine,,44,36,13,1,2,4.24,138,Paperback,,1,0,George B. Bridgman,,,,,,72,0,3,"art,non-fiction,science"
14409001,1466353430,Pictures of Diseases in Rural India,9781466353435,,,,ES,2012/2/18,Createspace Independent Publishing Platform,,false,1,14409001,0,0,0,0,2012/2/18,,,0,0,0,0,0,0.00,274,Paperback,,0,0,Rajatsubhra Mukhopadhyay,,,,,,,0,,
14409501,1466391383,Chaplain Ed's Thinkn's on the Matter,9781466391383,,,,ES,2011/11/30,Createspace,,false,1,14409501,0,0,0,0,2011/11/30,,,0,0,0,0,0,0.00,230,Paperback,,0,0,Edward Yrisarri Jr.,,,,,,,0,,
14410001,1466424338,Trust: How We Lost the War with China: Term Limits and the War with China,9781466424333,,,,ES,2011/11/2,Createspace Independent Publishing Platform,,false,1,14410001,0,0,0,0,2011/11/2,,,0,0,0,0,0,0.00,304,Paperback,,0,0,Gregory M. Friedlander,,,,,,,0,,
14410501,1466453877,Creative Mind,9781466453876,,,,ES,2011/10/21,Createspace Independent Publishing Platform,,false,4,14410501,2,5,1,0,2011/10/21,,,1,0,0,0,0,5.00,130,Paperback,,0,0,Ernest S. Holmes,,,,,,1,0,,
14411001,146648148X,Essays on Medical Failure: A Formal Multilevel Approach,9781466481480,,,,ES,2011/10/27,Createspace Independent Publishing Platform,,false,1,14411001,0,0,0,0,2011/10/27,,,0,0,0,0,0,0.00,184,Paperback,,0,0,"Deborah Wallace,Rodrick Wallace",,,,,,,0,,
14411501,1466602856,Innovative Design and Creation of Visual Interfaces: Advancements and Trends,9781466602854,,,,ES,2012/2/10,IGI Publishing,,false,2,17685979,1,4,1,0,2012/3/1,,,0,1,0,0,0,4.00,398,Hardcover,,0,0,,,,Ben Falchuk,,,,0,,
14412001,1466908912,Tesoros de Mexico: Sucesos Ineditos y Aventuras Ilustradas,9781466908918,,,,ES,2012/2/15,Trafford Publishing,,false,3,14412002,0,0,0,0,2012/2/15,,,0,0,0,0,0,0.00,212,Paperback,,0,0,"José Antonio Agraz Sandoval,Víctor Hugo Pérez Nieto",,,,,,,0,,
14412501,1466922729,The Adventures of Rusty: Rusty Goes to Maryland the Adventures Continue Vol.2,9781466922723,,,,ES,2012/4/13,Trafford Publishing,,false,1,14412501,2,5,1,0,2012/4/13,,,1,0,0,0,0,5.00,40,Paperback,,1,0,"Beverly White-Adams,Rusty Adams",,,,,,,0,,
14413001,1467034835,Sixteenth Summer: The Sarah Bowers Series,9781467034838,,,,ES,2011/9/26,Authorhouse,,false,4,12973923,12,29,6,0,2011/9/26,,,5,1,0,0,0,4.83,240,Hardcover,,0,0,Kay Salter,,,,,,4,0,,
14413501,146706047X,Allie's Scary Adventure: A Walk in the Dark,9781467060479,,,,ES,2011/10/13,Authorhouse,,false,2,14413501,0,0,0,0,2011/10/13,,,0,0,0,0,0,0.00,28,Paperback,,0,0,Carole Jackson-Powell,,,,,,,0,,
14414501,1467516155,Fame: Katy Perry,9781467516150,,,,ES,2017/10/24,Tidalwave Productions,,false,5,14414501,19,42,10,1,2012/6/27,,,8,0,0,0,2,4.20,40,Paperback,,5,1,,,,,,,7,0,,
14415001,1467882232,Mylor: The Most Powerful Horse in the World,9781467882231,,,,ES,2012/1/12,Authorhouse,,false,5,4667428,17,46,11,2,1976/1/1,Mylor: The Most Powerful Horse in the World (Longbow S),book,5,4,1,1,0,4.18,152,Paperback,,0,0,Michael Maguire,,,,,,5,0,,childrens
14415501,1467912425,School of Contempt,9781467912426,,,,ES,2011/12/21,Createspace Independent Publishing Platform,,false,2,14415501,0,0,0,0,2011/12/21,,,0,0,0,0,0,0.00,238,Paperback,,0,0,Donatien Moisdon,,,,,,,0,,
14416001,1467944149,How They Started Makarios,9781467944144,,,,ES,2011/11/18,Createspace Independent Publishing Platform,,false,1,14416001,0,0,0,0,2011/11/18,,,0,0,0,0,0,0.00,34,Paperback,,0,0,Anika Villavicencio,,,,,,,0,,
14416501,146797644X,In the Instant's Guise: Selected Poems 1978-2011,9781467976442,,,,ES,2011/12/12,Createspace Independent Publishing Platform,,false,1,14416501,0,0,0,0,2011/12/12,,book,0,0,0,0,0,0.00,148,Paperback,Second Edition,0,0,Nail Chiodo,,,,,,,0,,
14417001,1468015060,"Memoir: A Family's Life in Iran, 1850-1950",9781468015065,,,,ES,2012/2/5,Createspace,,false,2,14417001,3,0,0,0,2012/2/5,,,0,0,0,0,0,0.00,452,Paperback,,0,0,Yuhanna Yahya Hafezi,,,Jamshid Javid,,,3,0,,
14417501,1468056247,Rescoldo de MIS Ninfas,9781468056242,,,,ES,2011/12/18,Createspace Independent Publishing Platform,,false,2,14417501,0,0,0,0,2011/12/18,,,0,0,0,0,0,0.00,40,Paperback,,0,0,Susy Arteaga,,,,,,,0,,
14418001,1468107526,Quantum Power Questions,9781468107524,,,,ES,2012/1/20,Createspace Independent Publishing Platform,,false,1,14418001,7,10,2,1,2012/1/20,,,2,0,0,0,0,5.00,122,Paperback,,2,1,Cedar Medicine,,,,,,5,0,,
14418501,1468143956,Time and the Soldier,9781468143959,,,,ES,2012/1/5,Createspace Independent Publishing Platform,,false,3,20871078,0,0,0,0,2010/9/25,,,0,0,0,0,0,0.00,392,Paperback,,0,0,David Dvorkin,,,,,,2,0,,
14419001,1468179659,Mi Amor...Inspirations of the Heart,9781468179651,,,,ES,2012/4/16,Createspace Independent Publishing Platform,,false,1,14419001,1,5,1,0,2012/4/16,,,1,0,0,0,0,5.00,136,Paperback,,1,0,Angela S. Thomas,,,,,,,0,,
14419501,1468507753,The Treasure Hunt: Discover and Reclaim Your Life,9781468507751,,,,ES,2011/12/13,Authorhouse,,false,5,19759654,0,0,0,0,2011/12/13,,,0,0,0,0,0,0.00,156,Hardcover,,0,0,James J. Smith,,,,,,,0,,
14420001,1468535757,Friggs and the Investigation,9781468535754,,,,ES,2012/1/16,Authorhouse,,false,1,14420001,0,0,0,0,2012/1/16,,,0,0,0,0,0,0.00,28,Paperback,,0,0,Annette B. Stewart,,,,,,,0,,
14420501,1468546287,As We Sow: Why the Great Divide,9781468546286,,,,ES,2012/3/16,Authorhouse,,false,4,17647379,0,0,0,0,2012/3/16,,,0,0,0,0,0,0.00,644,Hardcover,,0,0,Barry Woods Johnston,,,,,,,0,,
14421001,1468557173,"Poetry by Me and My Family: About Art, Science, Love & Life",9781468557176,,,,ES,2012/3/1,Authorhouse,,false,6,10503293,6,5,1,0,2010/10/20,,,1,0,0,0,0,5.00,210,Paperback,,0,0,Ronald J. Yadusky,,,,,,2,0,1,
14421501,1468575821,"Get Righteous, Godly Girl",9781468575828,,,,ES,2012/4/9,Authorhouse,,false,4,14421502,1,0,0,0,2012/4/9,,,0,0,0,0,0,0.00,112,Hardcover,,0,0,Rhonda Niemeyer,,,,,,1,0,,
14422001,1469137488,How to Win at Penny Stocks: Inside the Insiders,9781469137483,,,,ES,2012/1/19,Xlibris,,false,1,14422001,0,0,0,0,2012/1/19,,,0,0,0,0,0,0.00,68,Paperback,,0,0,Jerry Greene,,,,,,,0,,
14422501,1469147599,Elena and Ellie,9781469147598,,,,ES,2012/1/23,Xlibris Corporation,,false,2,14422501,0,0,0,0,2012/1/23,,,0,0,0,0,0,0.00,104,Paperback,,0,0,Sophia Sangsongkhram,,,,,,,0,,
14423001,1469158078,Tools for the Soul,9781469158075,,,,ES,2012/3/14,Xlibris Corporation,,false,3,14423002,0,0,0,0,2012/3/14,,,0,0,0,0,0,0.00,76,Paperback,,0,0,Judy Figland,,,,,,,0,,
14423501,1469170078,Furious Winds and Parched Islands: Tropical Cyclones (1558-1970) and Droughts (1722-1987) in the Pacific,9781469170077,,,,ES,2012/3/20,Xlibris Corporation,,false,2,14423502,0,0,0,0,2012/3/20,,,0,0,0,0,0,0.00,360,Paperback,,0,0,"Anamaria D'Aubert,Patrick D. Nunn",,,,,,,0,,
14424001,1469182459,Azulagua: My Mystic Land,9781469182452,,,,ES,2012/3/14,Xlibris Corporation,,false,1,14424001,0,0,0,0,2012/3/14,,,0,0,0,0,0,0.00,48,Paperback,,0,0,Bridget Roemelen,,,,,,,0,,
14424501,1469201291,"The Measure of the Magic (Legends of Shannara, #2)",9781469201290,,,,ES,2012/7/31,Brilliance Audio,,false,26,10199908,15261,28689,7119,339,2011/1/1,The Measure of the Magic,book,2529,2691,1541,299,59,4.03,,Audio CD,,1,0,Terry Brooks,,,,,Phil Gigante,3326,38,79,"adult,adult-fiction,adventure,demons,dystopia,epic,epic-fantasy,fantasy,fiction,high-fantasy,magic,science-fiction,science-fiction-fantasy,young-adult"
14425001,1469240866,"Thieves Get Rich, Saints Get Shot: A Novel",9781469240862,,,,ES,2012/8/14,Brilliance Audio,,false,16,9746082,363,461,124,29,2011/1/1,,book,26,53,33,8,4,3.72,,Audio CD,,0,0,Jodi Compton,,,,,Angela Dawe,19,14,2,"adventure,crime,fiction,mystery,suspense,thriller"
14425501,1469775247,How to Treat Your Dogs and Cats with Over-The-Counter Drugs: Companion Edition,9781469775241,,,,ES,2012/4/13,iUniverse,,false,9,11864500,11,34,8,0,2011/6/22,,book,5,2,0,0,1,4.25,132,Hardcover,,0,0,Robert L. Ridgway,,,,,,2,0,1,
14426001,1469916428,What They Didn't Know When They Were Expecting: And How They Became Better Parents,9781469916422,,,,ES,2012/2/16,Createspace Independent Publishing Platform,,false,1,14426001,1,0,0,0,2012/2/16,,,0,0,0,0,0,0.00,242,Paperback,,0,0,Leslie Stanley-Stevens,,,,,,1,0,,
14426501,1469961199,Homesick for Heaven,9781469961194,,,,ES,2012/4/10,Createspace Independent Publishing Platform,,false,1,14426501,0,0,0,0,2012/4/10,,,0,0,0,0,0,0.00,272,Paperback,,0,0,Stephen D. Feinland,,,,,,,0,,
14427001,1470008319,A Cipher in the Sand,9781470008314,,,,ES,2012/3/22,Createspace Independent Publishing Platform,,false,3,14427001,414,299,72,5,2012/3/22,,,35,23,7,4,3,4.15,324,Paperback,,14,3,Sandra Bolton,,,,,,317,1,9,"suspense,thriller"
14427501,1470059924,Eating to Win with America's #1 Food Coach,9781470059927,,,,ES,2012/3/21,Createspace,,false,3,14427501,1,5,1,0,2012/1/8,,,1,0,0,0,0,5.00,198,Paperback,,1,0,"Fred DuBose,Majid ""Magic"" Noori,Skip Anderson",,,,,,,0,,
14428001,1470112116,Project 32 - The Cure: A Derrick Strang Novel,9781470112110,,,,ES,2012/2/26,Createspace Independent Publishing Platform,,false,1,14428001,0,0,0,0,2012/2/26,,,0,0,0,0,0,0.00,330,Paperback,,0,0,John   Kelly,,,,,,,0,,
14428501,1470172968,Default to Zero,9781470172961,,,,ES,2012/3/28,Createspace Independent Publishing Platform,,false,1,14428501,1,0,0,0,2012/3/28,,,0,0,0,0,0,0.00,270,Paperback,,0,0,MR Gary R. Walston,,,,,,1,0,,
14429001,1471039528,Angel Assassins - Book I - Lineage & Lies,9781471039522,,,,ES,2012/2/29,Lulu.com,,false,1,14429001,0,0,0,0,2012/2/29,,,0,0,0,0,0,0.00,306,Paperback,,0,0,J.J. Greaves,,,,,,,0,,
14429501,1475062451,"On a Roll: A True Tale of Geeks, Dragons & Rock 'n' Roll",9781475062458,,,,ES,2012/3/30,Createspace Independent Publishing Platform,,false,1,14429501,0,0,0,0,2012/3/30,,,0,0,0,0,0,0.00,374,Paperback,,0,0,M.A. Hides,Alison Issitt,,,,,,0,,
14430001,1475129009,The Shadow and the Wolf (The Darkest Heart #1),9781475129007,,,,ES,2012/4/19,Createspace,,false,1,14430001,4,4,1,1,2012/4/19,,book,0,1,0,0,0,4.00,350,Paperback,,1,1,S.A. Maus,,,,,,1,0,1,fantasy
14430501,1475232969,Darling Little Angel: An Anthology of Short Stories,9781475232967,,,,ES,2012/4/20,Createspace,,false,1,14430501,3,4,2,0,2012/4/20,,,0,0,0,2,0,2.00,86,Paperback,,2,0,Hannah M. Parks,,,,,,,1,,fiction
14431001,1553063317,A Skeptic's Christianity,9781553063315,,,,ES,2001/12/1,Essence Publishing (Canada),,false,1,14431001,0,0,0,0,2001/12/1,,book,0,0,0,0,0,0.00,356,Paperback,,0,0,Mark Holmes,,,,,,,0,,
14431501,1554725593,Let Me Weep (Lascia Ch'io Pianga) (from Rinaldo): Part(s),9781554725595,,,,ES,2009/9/1,Alfred Music,,false,9,26528280,0,0,0,0,2008/7/1,,,0,0,0,0,0,0.00,,,,0,0,,,,,,,,0,,
14432001,155635651X,Christian Worship in North America: A Retrospective: 1955-1995,9781556356513,,,,ES,2007/12/1,Wipf & Stock Publishers,,false,2,3983732,2,4,1,1,1997/1/1,Christian Worship in North America: A Retrospective : 1955-1995,,0,1,0,0,0,4.00,318,Paperback,,0,0,James F. White,,,,,,,0,,
14432501,1558630899,Weather,9781558630895,,,,ES,1986/9/1,Milliken Pub. Co.,,false,1,14432501,2,0,0,0,1986/9/1,,,0,0,0,0,0,0.00,32,Paperback,,0,0,"Edward P. Ortleb,Richard Cadice",,,,,,,0,,
14433001,1561480045,Notebook of Memories,9781561480043,,,,ES,2013/5/1,Good Books,,false,1,14433001,0,0,0,0,1990/10/1,,,0,0,0,0,0,0.00,40,Paperback,,0,0,"Book Publishers Good,Good Books",Cheryl A. Benner,,,,,,0,,
14433501,1563471302,Colloquium on Law Outer Space,9781563471308,,,,ES,1995/1/1,AIAA (American Institute of Aeronautics & Astronautics),,false,1,14433501,0,0,0,0,1995/1/1,,,0,0,0,0,0,0.00,395,Unknown Binding,,0,0,American Institute of Aeronautics,,,,,,,0,,
14434001,1565775686,Saxon Phonics & Spelling K: Decodeable Reader Will She Tell?,9781565775688,,,,ES,2004/8/1,Saxon Publishers,,false,1,14434001,0,0,0,0,2004/8/1,,,0,0,0,0,0,0.00,8,Paperback,,0,0,Simmons,,,,,,,0,,
14434501,1566568714,"Vienna, Prague & Budapest (Cadogan Guides)",9781566568715,,,,ES,2011/9/1,Cadogan Guides (USA),,false,4,617456,34,69,18,2,2005/5/1,Vienna Prague Budapest (Country & Regional Guides - Cadogan),book,2,11,5,0,0,3.83,336,Paperback,,0,0,"Mary-Ann Gallagher,Matthew Gardner,Sadakat Kadri",,,,,,12,0,,"non-fiction,reference,travel"
14435501,1432759957,Warm Coals on the Potter's Wheel,9781432759957,,,,ES,2012/3/1,Outskirts Press,,false,1,14435501,0,0,0,0,2012/3/8,,,0,0,0,0,0,0.00,206,Paperback,,0,0,Herman Wylie,,,,,,,0,,
14436001,144556002X,"The Tragedy of Hamlet, Prince of Denmark",9781445560021,,,,ES,2010/4/1,Aslan Press,,false,3172,1420,958694,2585018,644270,10801,1600/1/1,"The Tragicall Historie of Hamlet, Prince of Denmark",book,247591,216380,132709,35826,11764,4.01,,Paperback,,0,0,William Shakespeare,,,,,,172923,3498,16831,"adult,adult-fiction,british-literature,classic-literature,classics,college,death,drama,english-literature,fiction,ghosts,high-school,historical,historical-fiction,literature,novels,plays,poetry,romance,school,theatre,tragedy"
14436501,1445563541,The Making of a Miracle,9781445563541,,,,ES,,,,false,1,14436501,3,0,0,0,2010/4/2,,,0,0,0,0,0,0.00,,,,0,0,T.W. Jones,,,,,,2,0,1,
14437001,1432780174,The Key: Poems: 1974-2011,9781432780173,,,,ES,2011/12/4,Outskirts Press,,false,1,14437001,1,0,0,0,2011/12/4,,,0,0,0,0,0,0.00,238,Paperback,,0,0,Kelley Dupuis,,,,,,1,0,,
14437501,1586038818,Collaborative Decision Making: Perspectives and Challenges,9781586038816,,,,ES,2008/6/13,IOS Press,,false,1,14437501,3,4,1,0,2008/1/1,,,0,1,0,0,0,4.00,504,Hardcover,,1,0,,,,"Guy Camilleri,Jean Pierre Belaud,Pascale Zaraté",,,,0,,
14438001,1432785621,"Intimacy, Passion, and Commitment: Three Languages of Love That Enhance Relationships and Keep Infidelity in Check",9781432785628,,,,ES,2012/2/1,Outskirts Press,,false,1,14438001,4,0,0,0,2012/2/21,,,0,0,0,0,0,0.00,136,Paperback,,0,0,Vince Brendan Vincents,,,,,,3,0,1,
14438501,158683147X,Step-By-Step Basic Language Arts: Capitalization and Punctuation Grades 1-2,9781586831479,,,,ES,2003/9/1,Linworth Publishing,,false,1,14438501,0,0,0,0,2003/9/1,,,0,0,0,0,0,0.00,47,Paperback,,0,0,,,,Claire Morris,,,,0,,
14439001,1432904116,Hacer Amigos,9781432904111,,,,ES,2007/12/7,Heinemann Educational Books,,false,7,10968950,12,14,4,1,2007/8/1,,,0,2,2,0,0,3.50,24,Paperback,,1,0,Cassie Mayer,,,,,,6,0,-1,
14439501,1445580659,"History of England from the Accession of James I. to the Outbreak of the Civil War, 1603-1642 - Vol. X",9781445580654,,,,ES,2010/4/5,Malinowski Press,,false,15,26578564,2,2,1,0,2015/8/11,,,0,0,0,1,0,2.00,392,Paperback,,0,0,Samuel Rawson Gardiner,,,,,,,0,,
14440001,1445582899,Geography of Northern Europe,9781445582894,,,,ES,2010/4/5,Woods Press,,false,5,14440001,0,0,0,0,2010/1/9,,,0,0,0,0,0,0.00,166,Paperback,,0,0,Charles Edward Moberly,,,,,,,0,,
14440501,1843229412,"100 Fantastic Things to Make, Do & Play: Simple, Fun Projects That Use Easy Everyday Materials: Cooking, Growing, Science, Music, Painting, Crafts and Party Games!",9781843229414,,,,ES,2014/6/7,Armadillo Music,,false,2,14440501,1,0,0,0,2008/1/1,,,0,0,0,0,0,0.00,256,Paperback,,0,0,Lucy Painter,,,,,,,0,,
14441001,1843341689,Training Library Patrons the ADDIE Way,9781843341680,,,,ES,2006/4/1,Chandos Publishing,,false,2,8016431,1,3,1,1,2006/4/1,,,0,0,1,0,0,3.00,176,Hardcover,,0,0,Debby R. Wegener,,,,,,,0,,
14441501,1432935313,La Primavera = Spring,9781432935313,,,,ES,2009/9/1,Heinemann Library,,false,7,20734284,64,143,44,6,2009/1/1,,book,4,13,17,10,0,3.25,24,Paperback,,0,0,Siân Smith,,,,,,9,2,,science
14442001,1587655977,"Weapons & Warfare, Revised Edition-Volume 3",9781587655975,,,,ES,2009/2/1,Salem Press,,false,1,14442001,0,0,0,0,2009/2/1,,book,0,0,0,0,0,0.00,341,Hardcover,,0,0,,,,John     Powell,,,,0,,
14442501,1445597969,The Visit to the Cells,9781445597966,,,,ES,,,,false,2,14442501,0,0,0,0,2010/5/1,,,0,0,0,0,0,0.00,,,,0,0,E. Eckstein,,,,,,,0,,
14443001,1587901153,The Testimony of Doves,9781587901157,,,,ES,2005/7/1,Regent Press,,false,1,14443001,0,0,0,0,2005/7/1,,,0,0,0,0,0,0.00,106,Paperback,,0,0,Noel Peattie,,,,,,,0,,
14443501,1432951009,Farming Vegetables and Grains,9781432951009,,,,ES,2011/7/1,Heinemann Educational Books,,false,4,14443501,4,4,1,0,2012/8/1,,book,0,1,0,0,0,4.00,56,Hardcover,,1,0,Michael Burgan,,,,,,2,0,,
14444001,1588291030,Pain Research: Methods and Protocols,9781588291035,,,,ES,2004/5/15,Humana Press,,false,6,14444001,1,0,0,0,2004/1/1,,,0,0,0,0,0,0.00,303,Hardcover,,0,0,Z. David Luo,,,,,,,0,,
14444501,1843822040,Report of the Indian Hemp Drugs Commission 1893-94 Volume 2 Appendices - Enquiry as to the Connection Between Hemp Drugs and Insanity,9781843822042,,,,ES,2010/7/30,Hardinge Simpole Limited,,false,1,14444501,1,0,0,0,2010/7/30,,,0,0,0,0,0,0.00,206,Paperback,,0,0,,,,W. Mackworth Young,,,1,0,,
14445001,1604724919,Mi Calendario: Los Dias de La Semana (My Calendar: Days of the Week),9781604724912,,,,ES,2008/8/1,Rourke Educational Media,,false,12,8032688,6,6,2,1,2008/1/1,,book,0,0,2,0,0,3.00,23,Hardcover,,0,0,Luana K. Mitten,,,,,,,1,,
14445501,1445886928,Still Midnight,9781445886923,,,,ES,2012/4/1,Audiogo,,false,43,6389743,9706,16457,4579,490,2009/1/1,Still Midnight,book,771,1815,1469,411,113,3.59,,Hardcover,,0,0,Denise Mina,,,,,,2331,24,183,"adult,adult-fiction,contemporary,crime,detective,family,fiction,murder-mystery,mystery,mystery-thriller,novels,psychology,suspense,thriller,unfinished"
14446001,1604742690,The Next Great American Poet,9781604742695,,,,ES,2008/1/7,America Star Books,,false,1,14446001,0,0,0,0,2008/1/7,,,0,0,0,0,0,0.00,186,Paperback,,0,0,Paul Drouillard,,,,,,,0,,
14446501,1446004104,The Life and Writings of Henry Thomas Buckle,9781446004104,,,,ES,2010/5/28,Hayne Press,,false,8,32120464,1,0,0,0,2009/12/24,,,0,0,0,0,0,0.00,504,Paperback,,0,0,Alfred Henry Huth,,,,,,1,0,,
14447001,1446006085,Early Britain,9781446006085,,,,ES,,,,false,10,20926754,33,32,9,1,2009/12/9,,,3,2,2,1,1,3.56,,,,0,0,Alfred J. Church,,,,,,21,3,1,"cultural,history,international,non-fiction"
14447501,1446008223,"The Works of William Makepeace Thackeray, Vol 22",9781446008225,,,,ES,,,,false,4,14447501,3,1,1,0,2010/6/3,,book,0,0,0,0,1,1.00,,,,1,0,William Makepeace Thackeray,,,,,,1,0,,
14448001,1446010511,"The Khita and Khita-Peruvian Epoch - Khita, Hamath, Hittite, Canaanite, Etruscan, Peruvian, Mexican, Etc",9781446010518,,,,ES,,,,false,1,14448001,0,0,0,0,2010/6/3,,,0,0,0,0,0,0.00,,,,0,0,Hyde Clarke,,,,,,,0,,
14448501,1446013804,Ranging in France with Flash and Sound,9781446013809,,,,ES,,,,false,3,14448501,0,0,0,0,2010/6/4,,,0,0,0,0,0,0.00,,,,0,0,Jesse R. Hinman,,,,,,,0,,
14449001,1446016633,Lord Castleton's Ward. a Novel. Vol. III.,9781446016633,,,,ES,2010/6/4,Redgrove Press,,false,1,14449001,0,0,0,0,2010/6/4,,book,0,0,0,0,0,0.00,336,Paperback,,0,0,B.R. Green,,,,,,,0,,
14449501,1446020088,Deaths in Childbed and Our Lying-In Hospitals - Together with a Proposal for Establishing a Model Maternity Institution for Affording Clinical Instruc,9781446020081,,,,ES,,,,false,1,14449501,0,0,0,0,2010/6/5,,,0,0,0,0,0,0.00,,,,0,0,Aeneas Munro,,,,,,,0,,
14450001,1433269708,Night Secrets,9781433269707,,,,ES,2009/1/1,,,false,15,2834095,2247,4454,1135,47,2008/1/1,Night Secrets,book,346,449,267,54,19,3.92,,Audiobook,,3,0,Cherry Adair,,,,,Carrington MacDuffie,702,7,23,"action,adult,contemporary,erotica,fantasy,fiction,mystery,paranormal,romance,suspense,urban-fantasy"
14450501,1605121681,Tarzan the Terrible,9781605121680,,,,ES,2008/9/1,Akasha Classics,,false,230,40422,3823,8116,2134,70,1921/1/1,Tarzan the Terrible,book,545,775,674,129,11,3.80,296,Paperback,,0,0,Edgar Rice Burroughs,,,,,,1072,14,51,"action,adult,adult-fiction,adventure,amazon,classics,fantasy,fiction,historical-fiction,literature,novels,science-fiction,speculative-fiction"
14451001,1446032418,"An Elementary Treatise on Mechanics, for the Use of the Junior Classes at the University and the Higher Classes in Schools",9781446032411,,,,ES,,,,false,4,31898670,0,0,0,0,2010/7/12,,,0,0,0,0,0,0.00,,,,0,0,Stephen Parkinson,,,,,,,0,,
14451501,1844717186,The Salt Companion to Jim Barnes,9781844717187,,,,ES,2010/2/10,Salt Publishing,,false,1,14451501,1,0,0,0,2010/2/10,,,0,0,0,0,0,0.00,196,Paperback,,0,0,,,,A. Robert Lee,,,,0,,
14452001,1433325543,My L Words (My First Consonants and Vowels),9781433325540,,,,ES,2012/2/15,Teacher Created Materials,,false,2,14452001,2,3,1,0,2012/1/15,,,0,0,1,0,0,3.00,12,Paperback,,1,0,Sharon Coan,,,,,,,0,,
14452501,1590366859,Skunks,9781590366851,,,,ES,2007/7/1,Av2 by Weigl,,false,2,4032169,9,6,2,1,2007/7/1,Skunks (Backyard Animals),,0,0,2,0,0,3.00,24,Hardcover,,1,0,Annalise Bekkering,,,,,,1,1,,non-fiction
14453001,1446042472,"A Dissertation on the Scriptural Authority, Nature, and Uses, of Infant Baptism",9781446042472,,,,ES,,,,false,6,14453001,0,0,0,0,2010/9/27,,,0,0,0,0,0,0.00,,,,0,0,Ralph Wardlaw,,,,,,,0,,
14453501,1446051714,"The Venetian Bracelet; The Lost Pleiad; A History of the Lyre, and Other Poems",9781446051719,,,,ES,,,,false,2,14453501,0,0,0,0,2011/3/7,,,0,0,0,0,0,0.00,,,,0,0,Letitia Elizabeth Landon,,,,,,,0,,
14454001,1845300335,A Semblance of Scotland: Scottish Identity in Colonial Western Australia,9781845300333,,,,ES,2006/2/1,Grimsay Press,,false,2,14454001,2,0,0,0,2006/2/1,,book,0,0,0,0,0,0.00,292,Hardcover,,0,0,Leigh S.L. Straw,,,,,,2,0,,
14454501,1433939657,Mark Martin,9781433939655,,,,ES,2010/8/15,Gareth Stevens Publishing,,false,3,8914973,4,4,1,0,2010/1/8,,,0,1,0,0,0,4.00,32,Hardcover,,0,0,Bill Holmes,,,,,,2,0,,
14455001,1433949474,Fast Lane: Drag Racing Set,9781433949470,,,,ES,2011/1/1,Gareth Stevens Publishing,,false,1,14455001,0,0,0,0,2011/1/1,,,0,0,0,0,0,0.00,24,Hardcover,,0,0,Tyrone Georgiou,,,,,,,0,,
14455501,160563445X,Mysterious Miracle: The Amazing Journey to Myself,9781605634456,,,,ES,2008/4/21,PublishAmerica,,false,1,14455501,0,0,0,0,2008/4/21,,,0,0,0,0,0,0.00,80,Paperback,,0,0,Alice Avonlea,,,,,,,0,,
14456001,1446061612,"Methods for the Computation from Diagrams of Preliminary and Final Estimates of Railway Earthwork, with Diagrams Giving Quantities on Inspection to the Nearest Cubic Yard, for Both Regular and Irregular Sections, Direct from Ordinary Field-Notes",9781446061619,,,,ES,2011/5/5,Grant Press,,false,4,14456001,3,5,1,0,2011/5/5,,,1,0,0,0,0,5.00,180,Paperback,,1,0,Arthur Mellen Wellington,,,,,,1,0,1,
14456501,1433970112,Pumas,9781433970115,,,,ES,2012/8/1,Gareth Stevens Publishing,,false,5,18352273,2,4,1,0,2012/8/1,,,0,1,0,0,0,4.00,24,Hardcover,,1,0,Wade Karlin,,,,,,,0,,
14457001,1446064751,"Sailing Directions for Nova Scotia, Bay of Fundy, and South Shore of Gulf of St. Lawrence",9781446064757,,,,ES,,,,false,2,14457001,0,0,0,0,2011/5/26,,,0,0,0,0,0,0.00,,,,0,0,Richard Clover,,,,,,,0,,
14457501,1446065855,Travels in Arabia,9781446065853,,,,ES,,,,false,27,14457501,14,8,2,0,1986/10/1,Travels in Arabia. Comp. and arranged by Bayard Taylor.,,1,0,1,0,0,4.00,,,,0,0,Bayard Taylor,,,,,,10,0,1,
14458001,1591146127,"Nelson's Navy, Revised and Updated: The Ships, Men, and Organization, 1793-1815",9781591146124,,,,ES,2012/12/15,US Naval Institute Press,,false,5,1799245,249,533,119,12,1989/11/1,"Nelson's Navy: The Ships, Men and Organization, 1793-1815",book,71,34,14,0,0,4.48,352,Hardcover,,6,0,Brian Lavery,,,,,,91,5,4,"collections,historical,history,non-fiction,reference,research"
14458501,1845939700,"Modeling Physiology of Crop Development, Growth and Yield",9781845939700,,,,ES,2012/4/23,CABI Publishing,,false,2,16770906,1,0,0,0,2012/5/1,,,0,0,0,0,0,0.00,322,Hardcover,,0,0,"Afshin Soltani,Thomas R. Sinclair",,,,,,1,0,,
14459001,1591417848,"Saxon Math Course 1, Spanish: Student Edition 2007",9781591417842,,,,ES,2006/6/1,Saxon Publishers,,false,1,14459001,0,0,0,0,2006/6/1,,,0,0,0,0,0,0.00,708,Hardcover,,0,0,,,,,,,,0,,
14459501,1446073793,Reading List on Papermaking Materials,9781446073797,,,,ES,,,,false,4,14459501,0,0,0,0,2010/1/10,,,0,0,0,0,0,0.00,,,,0,0,Clarence Jay West,,,,,,,0,,
14460001,1846194695,Nhs Jargon Explained,9781846194696,,,,ES,2010/9/25,CRC Press,,false,4,14460001,2,1,1,0,2010/9/6,,,0,0,0,0,1,1.00,146,Paperback,,1,0,Tony White (4),,,,,,,0,,
14460501,1591605555,Supernatural Wealth,9781591605553,,,,ES,,,,false,1,14460501,2,0,0,0,2003/2/21,,,0,0,0,0,0,0.00,,,,0,0,Sterling Winterhalter,,,,,,2,0,,
14461001,1606100491,Freedom's Dream,9781606100493,,,,ES,2008/9/2,America Star Books,,false,1,14461001,0,0,0,0,2008/9/2,,,0,0,0,0,0,0.00,214,Paperback,,0,0,Leslie Hill,,,,,,,0,,
14461501,1606106511,Sanguineous Willowcraft,9781606106518,,,,ES,2008/8/4,America Star Books,,false,1,14461501,0,0,0,0,2008/8/4,,,0,0,0,0,0,0.00,352,Paperback,,0,0,Levey Gallegos,,,,,,,0,,
14462001,1446081990,Extinct Animals,9781446081990,,,,ES,,,,false,10,13270177,7,4,1,0,2010/1/11,,,0,1,0,0,0,4.00,,,,0,0,Edwin Ray Lankester,,,,,,5,0,,
14462501,1446083772,"The Occult Life of Jesus of Nazareth, Embracing His Parentage, His Youth, His Original Doctrines and Works, His Career as a Public Teacher and Physician of the People - The Nature of the Great Conspiracy Against Him",9781446083772,,,,ES,2011/9/1,Chapman Press,,false,15,10926768,18,18,4,1,2010/1/12,,,3,0,1,0,0,4.50,,Paperback,,1,0,Alexander Smyth,,,,,,8,0,2,"paranormal,spirituality"
14463001,1434346129,Funny Stuff: A Cheerful Poetic Romp Through the Puddles and Muddles of This Goofy Planet,9781434346124,,,,ES,2008/2/14,Authorhouse,,false,2,19649125,1,0,0,0,2008/2/1,,book,0,0,0,0,0,0.00,168,Paperback,,0,0,Robert  Gardiner,,,,,,1,0,,
14463501,1446086623,More Tales by Polish Authors,9781446086629,,,,ES,,,,false,4,7434005,21,25,8,0,1915/1/1,,book,1,2,2,3,0,3.12,,,,0,0,Else C.M. Benecke,,,,,,6,0,2,fiction
14464001,1434360148,Making the Case That You Are Perfect,9781434360144,,,,ES,2007/12/30,Authorhouse,,false,1,14464001,0,0,0,0,2007/12/1,,,0,0,0,0,0,0.00,52,Paperback,,0,0,Chevres Paul Chevres,,,,,,,0,,
14464501,1606641018,The Elect Lady,9781606641019,,,,ES,2008/6/1,Aegypan,,false,50,1289702,418,741,185,14,1888/1/1,The Elect Lady,book,61,73,43,7,1,4.01,148,Paperback,,0,0,George MacDonald,,,,,,179,10,11,"christian,christian-fiction,christianity,classic-literature,classics,fiction,historical,historical-fiction,literature"
14465001,1606643533,The Pilgrims of Hope,9781606643532,,,,ES,2009/2/20,Aegypan,,false,22,20623895,20,19,5,0,2008/12/9,,,0,4,1,0,0,3.80,52,Paperback,,1,0,William Morris,,,,,,12,0,,reference
14465501,1846740002,Heroes of Bomber Command: Norfolk,9781846740008,,,,ES,2006/8/1,Countryside Books (GB),,false,1,14465501,1,3,1,0,2006/8/1,,,0,0,1,0,0,3.00,192,Paperback,,1,0,Rupert Matthews,,,,,,,0,,
14466001,1846774608,The Bengal European Regiment: An Elite Regiment of the Honourable East India Company 1756-1858,9781846774607,,,,ES,2008/4/24,Leonaur Ltd,,false,1,14466001,0,0,0,0,2008/4/24,,,0,0,0,0,0,0.00,476,Hardcover,,0,0,P. R. Innes,,,,,,,0,,
14466501,1592448518,Vital Contemporary Issues: Examining Current Questions and Controversies,9781592448517,,,,ES,2004/9/7,Wipf & Stock Publishers,,false,2,3773172,3,0,0,0,1994/4/1,Vital Contemporary Issues: Examining Current Questions & Controversies (Vital Issues),,0,0,0,0,0,0.00,272,Paperback,,0,0,Roy B. Zuck,,,,,,2,0,,theology
14467001,1446097080,"Essentials of Vegetable Pharmacognosy - A Treatise on Structural Botany - Designed Especially for Pharmaceutical and Medical Students, Pharmacists and",9781446097083,,,,ES,,,,false,1,14467001,1,0,0,0,2011/11/10,,,0,0,0,0,0,0.00,,,,0,0,Various,,,,,,1,0,,
14467501,1434401332,Letters from a Cat,9781434401335,,,,ES,2009/7/2,Wildside Press,,false,42,13360908,297,550,156,27,1879/1/1, Letters from a Cat ,book,48,38,34,20,16,3.53,116,Paperback,,3,0,Helen Hunt Jackson,,,,,,100,11,14,"americana,animals,childrens,classics,fantasy,fiction,historical,history,humor,juvenile,short-stories,young-adult"
14468001,1846949165,Teachings of the Virgin Mary,9781846949166,,,,ES,2012/5/16,John Hunt Publishing,,false,1,14468001,1,5,1,0,2012/5/16,,,1,0,0,0,0,5.00,333,Paperback,,1,0,Hans Lyngsgaard,,,,,,,0,,
14468501,1446256898,Primary Science: Teaching Theory and Practice,9781446256893,,,,ES,2012/7/6,Learning Matters,,false,21,1458160,33,64,15,2,2007/6/1,Primary Science: Teaching Theory and Practice (Achieving QTS),,7,5,3,0,0,4.27,144,Hardcover,,0,0,John Sharp,,,,,,15,0,,"science,teaching,textbooks"
14469001,1434413233,"Egyptian Tales Translated from the Papyri, First Series",9781434413239,,,,ES,2011/10/31,Wildside Press,,false,14,19414778,55,67,18,3,1895/1/1,,,5,5,6,2,0,3.72,154,Paperback,,0,0,,Tristam Ellis,,William Matthew Flinders Petrie,,,15,2,15,"history,reference,writing"
14469501,1434414892,Festus: A Poem,9781434414892,,,,ES,2011/10/31,Wildside Press,,false,71,7795221,29,16,5,0,2011/10/31,,book,0,1,4,0,0,3.20,392,Paperback,,0,0,Philip James Bailey,,,,,,20,0,1,poetry
14470001,1434418359,An Outline History of Art Vol. 2,9781434418357,,,,ES,2011/10/1,Wildside Press,,false,1,14470001,1,4,1,1,2011/10/1,,,0,1,0,0,0,4.00,384,Paperback,,1,1,Joseph Pijoan,,,,,,,0,,
14470501,1593174012,A Collection of Bible Story Activities: From the Old and New Testaments,9781593174019,,,,ES,2010/7/1,Warner Press,,false,1,14470501,0,0,0,0,2010/7/1,,,0,0,0,0,0,0.00,96,Paperback,,0,0,,,,,,,,0,,
14471001,1593301952,The Blood of Losers,9781593301958,,,,ES,2004/9/1,Aventine Press,,false,1,14471001,1,5,1,0,2004/9/1,,,1,0,0,0,0,5.00,196,Paperback,,1,0,Dean Garrison,,,,,,,0,,
14471501,1446513149,"Wild Life of the Highlands - Shooting, Fishing, Natural History and Legend",9781446513149,,,,ES,2010/11/15,Pomona Press,,false,2,14471501,0,0,0,0,2010/11/9,,,0,0,0,0,0,0.00,266,Hardcover,,0,0,Dugald Macintyre,,,,,,,0,,
14472001,144651577X,Prelude and Fugue in E Minor by Felix Mendelssohn for Solo Piano (1841) Op.106,9781446515778,,,,ES,2010/11/23,Lowrie Press,,false,2,14472001,0,0,0,0,2010/11/23,,,0,0,0,0,0,0.00,,Paperback,,0,0,Felix Mendelssohn,,,,,,,0,,
14472501,1446518205,Good Soups,9781446518205,,,,ES,,,,false,1,14472501,2,0,0,0,2010/11/22,,,0,0,0,0,0,0.00,,,,0,0,Anonymous,,,,,,1,0,,
14473001,1446520072,"Laces, Silks, and Linens - Instruction Paper with Examination Questions",9781446520079,,,,ES,2010/11/22,Brouwer Press,,false,1,14473001,0,0,0,0,2010/11/22,,,0,0,0,0,0,0.00,66,Paperback,,0,0,Mary Brooks Picken,,,,,,,0,,
14473501,184734285X,History of the Great War. the Merchant Navy Volume I,9781847342850,,,,ES,2006/6/20,Naval & Military Press,,false,6,14473501,2,0,0,0,2003/2/1,,,0,0,0,0,0,0.00,512,Hardcover,,0,0,Archibald Hurd,,,,,,2,0,,
14474001,1847345514,"Second Nineteenth, Being the History of the 2/19th London Regiment",9781847345516,,,,ES,2006/6/20,Naval & Military Press,,false,2,9018536,1,0,0,0,2005/2/1,,,0,0,0,0,0,0.00,260,Hardcover,,0,0,F.W. Eames,,,,,,1,0,,
14474501,1446526925,The Work of Rain and Rivers,9781446526927,,,,ES,2010/12/15,Reitell Press,,false,3,14474501,0,0,0,0,2010/12/15,,,0,0,0,0,0,0.00,152,Paperback,,0,0,Thomas George Bonney,,,,,,,0,,
14475001,1606980351,Amazing Animals (Big Book),9781606980354,,,,ES,2009/1/1,Milo Educational Books & Resources,,false,1,14475001,0,0,0,0,2009/1/1,,,0,0,0,0,0,0.00,16,Paperback,,0,0,"Ernesto A. Cardenas,Nancy M. Delgado",,,,,,,0,,
14475501,1446533042,Fireside Stories - The Banbury Cross Series,9781446533048,,,,ES,2011/3/8,Pook Press,,false,3,38642650,0,0,0,0,2011/3/8,,,0,0,0,0,0,0.00,68,Hardcover,,0,0,,Alice M. Mitchell,,Grace Rhys,,,,0,,
14476001,1434456153,The Wrong Box,9781434456151,,,,ES,2009/6/1,Wildside Press,,false,168,714887,1337,1973,551,79,1889/1/1,The Wrong Box,book,113,182,184,56,16,3.58,350,Hardcover,,0,0,"Lloyd Osbourne,Robert Louis Stevenson",,,,,,650,6,34,"adventure,british-literature,classics,comedy,crime,fiction,historical-fiction,humor,literature,mystery,novella,victorian"
14476501,1607037165,Day of the Dead: El Dia de Los Muertos,9781607037163,,,,ES,2008/12/1,America Star Books,,false,1,14476501,0,0,0,0,2008/12/1,,,0,0,0,0,0,0.00,182,Paperback,,0,0,Maria Van Den Broeke,,,,,,,0,,
14477001,1607056208,"Hat Shop: 25 Projects to Sew, from Practical to Fascinating",9781607056201,,,,ES,2012/5/16,C&T Publishing,,false,3,14477001,55,93,27,6,2012/4/1,,,7,6,8,4,2,3.44,127,Paperback,,20,5,,,,,,,19,0,3,"non-fiction,reference"
14477501,1446544273,McGowan Climbs a Mountain,9781446544273,,,,ES,,,,false,1,14477501,0,0,0,0,2011/3/22,,,0,0,0,0,0,0.00,,,,0,0,Allan Aldous,,,,,,,0,,
14478001,1447122062,"Recent Advances in System Reliability: Signatures, Multi-State Systems and Statistical Inference",9781447122067,,,,ES,2011/10/2,Springer,,false,3,19353458,0,0,0,0,2011/9/30,,,0,0,0,0,0,0.00,320,Hardcover,,0,0,,,,"Anatoly Lisnianski,Ilia Frenkel",,,,0,,
14478501,1847725805,The Nursery Rhyme Songbook [With CD (Audio)],9781847725806,,,,ES,,,,false,1,14478501,0,0,0,0,2009/10/1,,,0,0,0,0,0,0.00,,,,0,0,,Rob Hefferan,,Ann Barkway,,,,0,,
14479001,1847820514,Hard Ride to Largo,9781847820518,,,,ES,2008/1/1,Ulverscroft,,false,1,14479001,3,6,2,0,2008/1/1,,,0,0,2,0,0,3.00,205,Paperback,Large Print,2,0,Jack Holt,,,,,,1,0,,
14479501,144740243X,Relax with Chess and Win in Twenty Moves,9781447402435,,,,ES,,,,false,1,14479501,1,0,0,0,2007/3/1,,,0,0,0,0,0,0.00,,,,0,0,Fred Reinfeld,,,,,,1,0,,
14480001,1447404041,Frankenstein - The Man and the Monster - A Stage Play (Fantasy and Horror Classics),9781447404040,,,,ES,,,,false,1,14480001,0,0,0,0,2011/4/28,,,0,0,0,0,0,0.00,,,,0,0,Garrett Ford,,,,,,,0,,
14480501,1847886477,Cultural & Social History Vol 7 Issue 4,9781847886477,,,,ES,2010/12/1,Berg Publishers,,false,1,14480501,0,0,0,0,2010/12/1,,,0,0,0,0,0,0.00,128,Paperback,,0,0,Sean O'Connell,,,,,,,0,,
14481001,1607462478,Copywriting That Gets Results!,9781607462477,,,,ES,2011/8/1,Fastpencil Inc,,false,2,14481001,0,0,0,0,2011/8/3,,,0,0,0,0,0,0.00,170,Paperback,,0,0,Otis Maxwell,,,,,,,0,,
14481501,1447411293,Build Yourself a Model Yacht,9781447411291,,,,ES,,,,false,2,14481501,1,0,0,0,2011/5/19,,,0,0,0,0,0,0.00,,,,0,0,W. J. Daniels,,,,,,1,0,,
14482001,1848104715,Planet Earth (How Nature Works),9781848104716,,,,ES,2011/7/1,Miles Kelly Publishing,,false,1,14482001,6,5,1,0,2011/7/1,,book,1,0,0,0,0,5.00,40,Paperback,,1,0,Steve Parker,,,,,,4,0,,
14482501,1848135653,Vietnam: Rethinking the State,9781848135659,,,,ES,2010/8/12,Zed Books,,false,2,10094509,32,46,12,1,2010/9/9,,,4,2,6,0,0,3.83,256,Hardcover,,0,0,Martin Gainsborough,,,,,,14,0,,"anthropology,politics"
14483001,1848168527,Gold Catalysis: An Homogeneous Approach,9781848168527,,,,ES,2014/6/20,Imperial College Press,,false,2,14483001,0,0,0,0,2012/6/30,,,0,0,0,0,0,0.00,564,Hardcover,,0,0,,,,"F. Dean Toste,Veronique Michelet",,,,0,,
14483501,1848213085,Mechatronics,9781848213081,,,,ES,2011/5/31,Wiley-Iste,,false,5,14483501,82,46,11,0,2011/5/31,,,7,1,1,2,0,4.18,243,Hardcover,,11,0,,,,J. Paulo Davim,,,50,0,1,
14484001,1447421450,"How to Play Samba, 3 Deck Canasta",9781447421450,,,,ES,,,,false,3,14484001,2,0,0,0,2011/8/11,,,0,0,0,0,0,0.00,,,,0,0,John R. Crawford,,,,,,1,0,1,
14484501,1595152792,What Plant Is This?,9781595152794,,,,ES,2004/8/1,Rourke Educational Media,,false,7,16676859,0,0,0,0,2004/8/1,,book,0,0,0,0,0,0.00,24,Paperback,,0,0,Marcia S. Freeman,,,,,,,0,,
14485001,1607755564,"Rapid Arabic, Vol. 1: 200+ Essential Words and Phrases Anchored Into Your Long-Term Memory with Great Music",9781607755562,,,,ES,2009/1/1,Findaway World,,false,1,14485001,4,13,3,0,2009/1/1,,,1,2,0,0,0,4.33,,,,3,0,,,,,,,1,0,,
14485501,1434897222,For Sale: Planet with a View,9781434897220,,,,ES,2008/4/4,Createspace Independent Publishing Platform,,false,1,14485501,0,0,0,0,2008/4/4,,,0,0,0,0,0,0.00,160,Paperback,,0,0,Donald Meier,,,,,,,0,,
14486001,1607913275,"Lies, Lies, and More Lies!",9781607913276,,,,ES,,,,false,1,14486001,0,0,0,0,2009/2/1,,,0,0,0,0,0,0.00,,,,0,0,Norman De Jong,,,,,,,0,,
14486501,160791915X,Responding 12-Step Recovery,9781607919155,,,,ES,,,,false,1,14486501,1,5,1,0,2009/7/1,,,1,0,0,0,0,5.00,,,,1,0,Jerry J. Liversage,,,,,,1,0,,
14487001,1447433785,Internationaler Obstbau Und Der Weltmarkt; Was Der Rationelle Obstbau Der Vereinigten Staaten Von Nord-Amerika Den Deutschen Obstz Chter Lehrt,9781447433781,,,,ES,,,,false,1,14487001,0,0,0,0,2011/10/14,,,0,0,0,0,0,0.00,,,,0,0,A.G. Grant-London,,,,,,,0,,
14487501,1447435877,Furniture - An Explanatory History,9781447435877,,,,ES,,,,false,1,14487501,1,4,1,0,2011/10/28,,,0,1,0,0,0,4.00,,,,1,0,David Reeves,,,,,,,0,,
14488001,1447437799,The Melody of Speech,9781447437796,,,,ES,,,,false,1,14488001,0,0,0,0,2011/11/15,,,0,0,0,0,0,0.00,,,,0,0,E. B. Skeet,,,,,,,0,,
14488501,184872943X,Psychology of Reading: 2nd Edition,9781848729438,,,,ES,2011/11/9,Psychology Press,,false,15,1448285,72,76,21,2,1989/1/1,The Psychology of Reading,,7,5,5,2,2,3.62,496,Hardcover,,0,0,"Alexander Pollatsek,Jane Ashby,Keith Rayner",,,,,,41,3,1,"non-fiction,school"
14489001,1435828941,The Life Cycle of an Oak Tree,9781435828940,,,,ES,2009/1/1,PowerKids Press,,false,5,9126755,4,10,3,1,2008/9/1,,,0,1,2,0,0,3.33,,Paperback,,0,0,Ruth Thomson,,,,,,,1,,"school,science"
14489501,1447443004,Easy Christmas Improvisations,9781447443001,,,,ES,,,,false,1,14489501,0,0,0,0,2011/12/20,,,0,0,0,0,0,0.00,,,,0,0,Virginia Carrington Thomas,,,,,,,0,,
14490001,1447444744,"Upholstering Household Furniture for the Beginner - Including Preparing the Frame, Stitching the Cushions, Springing the Seats and the Tools Needed",9781447444749,,,,ES,2012/1/18,Kirk Press,,false,1,14490001,0,0,0,0,2012/1/18,,,0,0,0,0,0,0.00,162,Paperback,,0,0,Anonymous,,,,,,,0,,
14490501,1848845383,Boeing B-17: The Fifteen Ton Flying Fortress,9781848845381,,,,ES,2011/11/1,Casemate Publishers,,false,1,14490501,10,8,2,1,2011/11/25,,,1,0,1,0,0,4.00,256,Hardcover,,2,1,Graham M. Simons,,,,,,5,0,,
14491001,1608206432,After Dark,9781608206438,,,,ES,2012/4/6,MLR Press,,false,4,2767103,342,312,85,13,2006/1/1,After Dark,book,24,24,27,5,5,3.67,320,Paperback,,0,0,Luisa Prieto,,,,,,200,9,,"contemporary,fantasy,gay,horror,lgbt,magic,paranormal,romance,supernatural,urban-fantasy,vampires,werewolves,witches"
14491501,1447840518,La Modelisation 3D Avec C# Et Wpf 4,9781447840510,,,,ES,2011/9/19,Lulu.com,,false,1,14491501,0,0,0,0,2011/9/19,,,0,0,0,0,0,0.00,178,Paperback,,0,0,Patrice Rey,,,,,,,0,,
14492001,1608364305,Enchanted Fate,9781608364305,,,,ES,2009/3/9,America Star Books,,false,1,14492001,0,0,0,0,2009/3/9,,,0,0,0,0,0,0.00,74,Paperback,,0,0,Donna Truett,,,,,,,0,,
14492501,1448205182,Maria Theresa,9781448205189,,,,ES,2013/2/28,Bloomsbury Reader,,false,8,1679731,168,181,56,10,1970/3/16,Maria Theresa,book,5,16,23,11,1,3.23,440,Paperback,,0,0,Edward Crankshaw,,,,,,71,3,8,"biography,historical,history,non-fiction"
14493001,1596157127,Studio Call: Film Scores - Piano,9781596157125,,,,ES,2006/11/1,Hal Leonard Publishing Corporation,,false,1,14493001,0,0,0,0,2006/11/1,,,0,0,0,0,0,0.00,40,Paperback,,0,0,,,,,,,,0,,
14493501,1436314925,Escape from Reality,9781436314923,,,,ES,2008/4/29,Xlibris,,false,1,14493501,0,0,0,0,2008/4/29,,,0,0,0,0,0,0.00,32,Paperback,,0,0,Angela Schaefer,,,,,,,0,,
14494001,1608478505,Tales from the Norse Legends,9781608478507,,,,ES,2009/6/1,,,false,5,1186585,225,568,151,17,1995/7/1,Tales from the Norse Legends (Junior Classics),book,30,64,51,3,3,3.76,,,,1,0,Edward Ferrie,,,,,Benjamin Soames,35,7,1,"adventure,classics,cultural,education,fantasy,fiction,historical,history,literature,mythology,non-fiction,novels,religion,research,short-stories,speculative-fiction"
14494501,1436331285,Auburn Hills: A City Is Born,9781436331289,,,,ES,2008/9/22,Xlibris,,false,2,14494501,0,0,0,0,2008/9/22,,,0,0,0,0,0,0.00,112,Hardcover,,0,0,Trout Pomeroy,,,,,,,0,,
14495001,1608621987,To Adore... to Consume,9781608621989,,,,ES,,,,false,1,14495001,0,0,0,0,2010/8/12,,,0,0,0,0,0,0.00,,,,0,0,Virginia Kurth Gulezian,,,,,,,0,,
14495501,1448826969,The Math of NASCAR,9781448826964,,,,ES,2011/8/15,PowerKids Press,,false,6,14495506,4,5,1,0,2011/8/15,,,1,0,0,0,0,5.00,24,Paperback,,1,0,Ian F. Mahaney,,,,,,1,0,,
14496001,1436348080,New Church,9781436348089,,,,ES,2008/8/27,Xlibris Corporation,,false,2,14496006,0,0,0,0,2008/8/27,,,0,0,0,0,0,0.00,328,Paperback,,0,0,Emmanuel,,,,,,,0,,
14496501,1608709566,Careers in the Atf,9781608709564,,,,ES,2012/9/1,Cavendish Square Publishing,,false,6,15090884,1,0,0,0,2012/9/1,,book,0,0,0,0,0,0.00,96,Hardcover,,0,0,Adam Woog,,,,,,,1,,research
14497001,160871618X,Vermont Crime in Perspective 2010,9781608716180,,,,ES,2010/3/15,CQ Press,,false,1,14497001,0,0,0,0,2010/3/15,,,0,0,0,0,0,0.00,24,Paperback,,0,0,,,,Congressional Quarterly,,,,0,,
14497501,1436360501,The Wrong Number One,9781436360500,,,,ES,2008/9/23,Xlibris Corporation,,false,3,14497501,0,0,0,0,2008/9/23,,,0,0,0,0,0,0.00,268,Hardcover,,0,0,John Nieman,,,,,,,0,,
14498001,1849461341,EU Competition Law and the Information and Communication Technology Network Industries: Economic versus Legal Concepts in Pursuit of (Consumer) Welfare,9781849461344,,,,ES,2012/3/8,Hart Publishing,,false,4,14498001,5,5,1,0,2012/3/8,,,1,0,0,0,0,5.00,312,Hardcover,,0,0,Andrej Fatur,,,,,,3,0,,
14498501,1448867851,How Consumer Credit and Debt Work,9781448867851,,,,ES,2012/7/1,Rosen Publishing Group,,false,4,14498501,1,0,0,0,2012/7/1,,,0,0,0,0,0,0.00,80,Hardcover,,0,0,Laura La Bella,,,,,,,0,,
14499001,1436373417,A Blizzard in Hell,9781436373418,,,,ES,2008/12/11,Xlibris Corporation,,false,2,14499001,0,0,0,0,2008/12/11,,,0,0,0,0,0,0.00,244,Hardcover,,0,0,Michael R. Renfrow,,,,,,,0,,
14499501,1436376831,Hurt People Hurt People,9781436376839,,,,ES,2009/5/20,Xlibris Corporation,,false,1,14499501,0,0,0,0,2009/5/20,,,0,0,0,0,0,0.00,74,Paperback,,0,0,Roberta Bellfield,,,,,,,0,,
14500001,1436380103,Self-Destruction of Today's Teenagers,9781436380102,,,,ES,2010/8/3,Xlibris Corporation,,false,2,14500001,0,0,0,0,2010/8/3,,,0,0,0,0,0,0.00,198,Hardcover,,0,0,Jean Vautoir Paul,,,,,,,0,,
14500501,160900177X,Receiving Blankets: Add Crocheted Edgings to Flannel or Seersucker for Lightweight Baby Blankets,9781609001773,,,,ES,1999/12/1,Leisure Arts,,false,1,14500501,5,13,3,0,1999/12/1,,,1,2,0,0,0,4.33,2,Paperback,,3,0,Terry Kimbrough,,,,,,1,0,,
14501001,144892023X,Star Nations,9781448920235,,,,ES,2009/9/21,America Star Books,,false,1,14501001,0,0,0,0,2009/9/21,,,0,0,0,0,0,0.00,504,Paperback,,0,0,James G. Minard,,,,,,,0,,
14501501,1436389755,Route to Africa: In Quest of the Penguins,9781436389754,,,,ES,2009/1/31,Xlibris Corporation,,false,2,14501499,0,0,0,0,2009/1/31,,book,0,0,0,0,0,0.00,148,Hardcover,,0,0,Kate     White,,,,,,,0,,
14502001,143639287X,Prisoners,9781436392877,,,,ES,2009/1/5,Xlibris Corporation,,false,1,14502001,0,0,0,0,2009/1/5,,,0,0,0,0,0,0.00,92,Paperback,,0,0,Anahit,,,,,,,0,,
14502501,144894368X,Poetry for Browsing,9781448943685,,,,ES,2010/3/31,America Star Books,,false,1,14502501,0,0,0,0,2010/3/31,,,0,0,0,0,0,0.00,162,Paperback,,0,0,Brian Leshley,,,,,,,0,,
14503001,1597543993,Hoy Conoci a Jesucristo,9781597543996,,,,ES,2008/7/17,Libros En Red,,false,1,14503001,0,0,0,0,2008/7/1,,,0,0,0,0,0,0.00,84,Paperback,,0,0,Hefzi-Ba Palomino,,,,,,,0,,
14504001,1448958024,The Death Watcher,9781448958023,,,,ES,2010/2/19,America Star Books,,false,2,14504001,5,13,3,0,2009/2/19,,,2,0,1,0,0,4.33,186,Paperback,,3,0,Michael Fazio,,,,,,2,0,,
14505001,1609366883,A Merry Little Christmas (Songs of the Season),9781609366889,,,,ES,2012/10/1,Summerside Press,,false,5,14505001,698,549,140,63,2012/9/28,,book,38,63,30,8,1,3.92,254,Hardcover,,124,63,Anita Higman,,,,,,79,12,5,"adult-fiction,christian,christmas,historical,historical-fiction,holiday,inspirational,love,romance"
14505501,1448982685,A View from the Inside...of a Disturbed Mind: Volume I,9781448982684,,,,ES,2009/12/14,America Star Books,,false,1,14505501,0,0,0,0,2009/12/14,,,0,0,0,0,0,0.00,74,Paperback,,0,0,David R. Spicer,,,,,,,0,,
14506001,1448991935,Shadows,9781448991938,,,,ES,2010/1/22,America Star Books,,false,1,14506001,0,0,0,0,2010/1/22,,,0,0,0,0,0,0.00,206,Paperback,,0,0,William Ralph Harrison,,,,,,,0,,
14506501,1851689389,"Oil Kings: How the U.S., Iran, and Saudi Arabia Changed the Balance of Power in the Middle East",9781851689385,,,,ES,2012/5/1,One World (UK),,false,13,12348743,1944,2026,499,63,2011/1/1,,book,175,204,101,13,6,4.06,530,Paperback,,11,1,Andrew Scott Cooper,,,,,,1242,11,80,"american-history,biography,business,economics,historical,history,non-fiction,politics,war"
14507001,1449008992,Tom the Tree,9781449008994,,,,ES,2009/8/21,Authorhouse,,false,2,19988799,0,0,0,0,2009/9/1,,,0,0,0,0,0,0.00,28,Paperback,,0,0,Doctor J.,,,,,,,0,,
14507501,1609467108,"Code of Federal Regulations, Title 45: Parts 500-1199 (Public Welfare) Commission of Civil Rights: Revised 10/12",9781609467104,,,,ES,2012/6/30,National Archives & Records Administration,,false,1,14507501,0,0,0,0,2012/6/30,,,0,0,0,0,0,0.00,,Paperback,,0,0,,,National Archives and Records Administration,,,,,0,,
14509001,1449033873,Bloody Foundations: A Grace and Poppy Adventure,9781449033873,,,,ES,2009/11/17,Authorhouse,,false,2,14509001,2,7,2,1,2009/11/17,,,0,1,1,0,0,3.50,236,Hardcover,,2,1,Grady J. Gratt,,,,,,,0,,
14509501,1853157252,"Recent Advances in Paediatrics, Volume 24",9781853157257,,,,ES,2007/7/31,Royal Society of Medicine Press,,false,1,14509501,1,0,0,0,2007/7/31,,book,0,0,0,0,0,0.00,260,Paperback,,0,0,,,,Timothy J. David,,,1,0,,
14510001,1598246739,Crucified Just for You,9781598246735,,,,ES,,,,false,1,14510001,0,0,0,0,2007/8/1,,,0,0,0,0,0,0.00,,,,0,0,Hilda Raye Reels,,,,,,,0,,
14510501,185333524X,Comp.Int.Mark.1992 Veterinary S.3 1991,9781853335242,,,,ES,1991/9/25,Springer,,false,1,14510501,0,0,0,0,1991/9/25,,,0,0,0,0,0,0.00,,Unknown Binding,,0,0,,,,Richard A. Brealey,,,,0,,
14511001,1609763882,In Defiance of Law,9781609763886,,,,ES,2011/3/14,Eloquent Books,,false,1,14511001,1,3,1,0,2011/3/14,,,0,0,1,0,0,3.00,254,Paperback,,1,0,Marilyn Walker,,,,,,,0,,
14511501,1853465305,Practical Record Keeping,9781853465307,,,,ES,1998/1/1,David Fulton Publishers,,false,1,14511501,0,0,0,0,1998/7/1,,,0,0,0,0,0,0.00,59,Paperback,,0,0,Hazel Lawson,,,,,,,0,,
14512001,1449070922,Even Pirates Need Their Sleep,9781449070922,,,,ES,2010/3/10,Authorhouse,,false,1,14512001,2,9,2,0,2010/3/10,,,1,1,0,0,0,4.50,32,Paperback,,2,0,Melissa Burnett,,,,,,,0,,
14513001,8862566565,"Wildwood. I segreti del bosco proibito (Wildwood Chronicles, #1)",9788862566568,,,,ES,2012/3/15,Salani,ita,false,45,10431447,60420,89952,24650,3162,2011/8/30,Wildwood,book,6002,8387,6847,2439,975,3.65,542,Hardcover,,51,7,Colin Meloy,,,,,,29998,187,1998,"adventure,american,animals,chapter-books,childrens,contemporary,fairy-tales,family,fantasy,fiction,juvenile,magic,magical-realism,middle-grade,mystery,novels,unfinished,urban-fantasy,war,young-adult"
14515501,1598882767,Trade Policy Review - Mauritius 2008,9781598882766,,,,ES,2008/9/12,Bernan Press,,false,1,14515501,0,0,0,0,2008/9/12,,,0,0,0,0,0,0.00,206,Paperback,,0,0,World Trade Organization,,,,,,,0,,
14516001,1855765039,Who Goes with Who?: A Book in a Book,9781855765030,,,,ES,2010/8/1,Treehouse Children's Books,,false,1,14516001,0,0,0,0,2010/8/1,,book,0,0,0,0,0,0.00,10,Board Book,,0,0,Richard  Powell,,,,,,,0,,
14516501,1449645755,Clinical Practice Guidelines for Midwifery & Women's Health,9781449645755,,,,ES,2012/5/9,Jones & Bartlett Publishers,,false,2,14516501,36,99,23,1,2008/5/15,Clinical Guidelines For Midwifery & Women's Health,,12,7,3,1,0,4.30,622,Paperback,,18,0,"Cindy Farley,Nell Tharpe,Robin Jordan",,,,,,11,0,1,
14517501,1611066131,The Dragon Diary,9781611066135,,,,ES,2011/7/12,,,false,20,2946453,1074,1619,404,30,2008/5/1,The Dragon Diary,book,147,138,99,15,5,4.01,,Audiobook,,0,0,Dugald A. Steer,,,,,James Clamp,192,12,10,"childrens,fantasy,fiction,high-fantasy,historical-fiction,juvenile,novels,urban-fantasy,young-adult"
14518001,1599204290,The Money System,9781599204291,,,,ES,2012/1/1,Smart Apple Media,,false,1,14518001,1,0,0,0,2012/1/1,,,0,0,0,0,0,0.00,32,Hardcover,,0,0,Andrew Einspruch,,,,,,,1,,
14518501,1599206870,Dinosaurs,9781599206875,,,,ES,2012/8/1,Smart Apple Media,,false,2,14518501,6,11,3,0,2011/6/1,,,1,0,2,0,0,3.67,32,Hardcover,,2,0,Annabel Savery,,,,,,1,2,,
14519001,1449722040,"When I Am Weak, Then I Am Strong: Keeping Faith Through Adversities",9781449722043,,,,ES,2011/7/25,WestBow Press,,false,4,12399198,3,4,1,1,2011/7/25,,,0,1,0,0,0,4.00,148,Hardcover,,0,0,Pam Gray,,,,,,,0,,
14519501,1449725775,Joy Comes in the Mourning,9781449725778,,,,ES,2011/9/23,WestBow Press,,false,2,14519501,0,0,0,0,2011/9/23,,,0,0,0,0,0,0.00,268,Paperback,,0,0,Kay Helms Pethel,,,,,,,0,,
14520501,1449730744,Dancing with Jesus,9781449730741,,,,ES,2012/3/12,WestBow Press,,false,1,14520501,0,0,0,0,2012/3/12,,,0,0,0,0,0,0.00,80,Paperback,,0,0,Jennifer Headley,,,,,,,0,,
14521001,1449733131,The Garden and the Ghetto,9781449733131,,,,ES,2011/12/23,WestBow Press,,false,3,14521004,13,16,4,1,2011/12/23,,,1,2,1,0,0,4.00,156,Paperback,,2,0,Jeff Deel,,,,,,8,0,1,
14521501,1449735592,Hope Against Hope: New Thinking in a Pigsty,9781449735593,,,,ES,2012/3/5,WestBow Press,,false,1,14521501,0,0,0,0,2012/3/5,,,0,0,0,0,0,0.00,100,Paperback,,0,0,Steve Mochechane,,,,,,,0,,
14522001,1449738079,Exit the Wilderness: Enter God's Promises,9781449738075,,,,ES,2012/2/6,WestBow Press,,false,2,14522001,1,4,1,0,2012/2/6,,,0,1,0,0,0,4.00,108,Paperback,,1,0,Sharon Hurkens,,,,,,,0,,
14522501,1611474558,Cultures of Violence in the New German Street,9781611474558,,,,ES,2011/12/29,Fairleigh Dickinson University Press,,false,2,14522501,2,4,1,0,2011/11/16,,,0,1,0,0,0,4.00,237,Hardcover,,1,0,Patricia Anne Simpson,,,,,,1,0,,
14523001,1611481961,First Word Philosophy: Wittgenstein-Austin-Cavell,9781611481969,,,,ES,2004/1/1,Bucknell University Press,,false,2,1582760,4,5,1,0,2004/1/1,"First Word Philosophy: Wittgenstein-Austin-Cavell, Writings on Ordinary Language Philosophy",,1,0,0,0,0,5.00,150,Hardcover,,0,0,Richard Fleming,,,,,,2,0,,
14523501,1449917755,Finding Your Way Back to Love: An Interactive Workbook and Guide How to Enjoy and Nurture a Grown-Up Relationship,9781449917753,,,,ES,2010/7/16,Createspace Independent Publishing Platform,,false,1,14523501,0,0,0,0,2010/7/16,,book,0,0,0,0,0,0.00,72,Paperback,,0,0,Nagi Mato,,,,,,,0,,
14524001,1449961282,Nights in Captivity,9781449961282,,,,ES,2009/12/9,Createspace Independent Publishing Platform,,false,3,14524001,5,8,2,1,2009/12/9,,,1,0,1,0,0,4.00,350,Paperback,,2,1,Kara Jorges,,,,,,2,0,,
14524501,1449987133,The Rainbow's End,9781449987138,,,,ES,2010/3/9,Createspace Independent Publishing Platform,,false,1,14524501,0,0,0,0,2010/3/9,,,0,0,0,0,0,0.00,32,Paperback,,0,0,Joan Arnold,Peggy Meitzen,,,,,,0,,
14525501,1611748682,The Earth Moved: On the Remarkable Achievements of Earthworms,9781611748680,,,,ES,2012/4/17,HighBridge Company,,false,11,299960,4468,6801,1755,326,2004/1/1,The Earth Moved: On the Remarkable Achievements of Earthworms,book,441,763,465,63,23,3.88,360,Audio CD,,7,2,Amy  Stewart,,,,,Heather Henderson,2338,29,111,"animals,biography,history,nature,non-fiction,reference,science"
14526001,1450017347,Recollections of an Overseas Chinese,9781450017343,,,,ES,2009/12/1,Xlibris Corporation,,false,3,14526001,0,0,0,0,2009/12/22,,,0,0,0,0,0,0.00,208,Hardcover,,0,0,CHI HIM CHIU,,,,,,,0,,
14527001,1450028969,To God Be the Glory,9781450028967,,,,ES,2010/2/11,Xlibris Corporation,,false,2,14527001,0,0,0,0,2010/2/11,,,0,0,0,0,0,0.00,50,Paperback,,0,0,Stacy A. Hicks,,,,,,,0,,
14527501,1612034039,The Land of Living Men,9781612034034,,,,ES,2012/1/12,Bottom of the Hill Publishing,,false,5,14527501,6,0,0,0,2010/9/11,,,0,0,0,0,0,0.00,166,Paperback,,0,0,Ralph Waldo Trine,,,,,,6,0,,
14529001,1450055265,Problems in the Implementation of Chinese Human Rights Obligations,9781450055260,,,,ES,2010/3/8,Xlibris,,false,3,14529001,1,5,1,0,2010/3/8,,,1,0,0,0,0,5.00,104,Hardcover,,1,0,Kumiko K. Julie,,,,,,,0,,
14529501,1862876843,Fisheries Management in Australia,9781862876842,,,,ES,,,,false,2,16884834,0,0,0,0,2008/1/1,,,0,0,0,0,0,0.00,,,,0,0,Daryl McPhee,,,,,,,0,,
14530501,1600446752,Our Skeleton,9781600446757,,,,ES,2007/8/1,Rourke Educational Media,,false,6,14530501,3,4,1,0,2007/8/1,,,0,1,0,0,0,4.00,24,Paperback,,1,0,Susan Thames,,,,,,1,1,,
14531001,1612095313,Recession & Recovery,9781612095318,,,,ES,2011/6/14,Nova Science Publishers,,false,1,14531001,0,0,0,0,2011/4/1,,,0,0,0,0,0,0.00,68,Paperback,,0,0,Paul Alagidede,,,,,,,0,,
14532001,161215381X,Blessed by the Best,9781612153810,,,,ES,,,,false,2,14532003,0,0,0,0,2010/11/24,,,0,0,0,0,0,0.00,,,,0,0,Larry D. Harris,,,,,,,0,,
14533001,161225036X,The Wrenolds Series: Grandma's Birthday Surprise,9781612250366,,,,ES,2011/10/13,Mirror Publishing,,false,1,14533001,0,0,0,0,2011/10/13,,,0,0,0,0,0,0.00,40,Paperback,,0,0,Joanna Cook,,,,,,,0,,
14533501,1612290388,"The International Journal of Knowledge, Culture and Change Management: Volume 11, Issue 1",9781612290386,,,,ES,2011/12/22,Common Ground Publishing,,false,1,14533501,0,0,0,0,2011/12/22,,,0,0,0,0,0,0.00,190,Hardcover,,0,0,,,,Bill Cope,,,,0,,
14534001,1450229549,"Cows, Crops and a Pony",9781450229548,,,,ES,2010/8/3,iUniverse.com,,false,3,14534001,0,0,0,0,2010/8/3,,,0,0,0,0,0,0.00,72,Paperback,,0,0,Allan E. Lange,,,,,,,0,,
14534501,1450241603,Evolution and the Future of Mankind,9781450241601,,,,ES,2010/7/19,iUniverse,,false,4,9456565,2,4,1,0,2010/7/19,,,0,1,0,0,0,4.00,416,Hardcover,,0,0,Lawrence Wood,,,,,,,0,,
14536001,1450284450,America: A Country of Great Expectations,9781450284455,,,,ES,2011/3/11,iUniverse,,false,4,12562772,1,5,1,0,2011/3/11,,,1,0,0,0,0,5.00,188,Hardcover,,0,0,Sachin Anand Balram,,,,,,,0,,
14536501,1450292704,"Revising the Person-Centered Approach: Pushing on the Envelope, But Not Very Hard",9781450292702,,,,ES,2011/2/28,iUniverse.com,,false,2,14536501,1,0,0,0,2011/2/28,,,0,0,0,0,0,0.00,216,Paperback,,0,0,D. (Doug) William Bower,,,,,,,0,,psychology
14537001,145029880X,My Life and Thoughts,9781450298803,,,,ES,2011/4/27,iUniverse,,false,4,14537001,0,0,0,0,2011/4/1,,,0,0,0,0,0,0.00,370,Hardcover,,0,0,James Ivey Davis,,,,,,,0,,
14537501,161324696X,Magnetic Mechanism of Superconductivity in Copper-Oxide,9781613246962,,,,ES,2012/5/17,Nova Science Publishers,,false,1,14537501,0,0,0,0,2011/9/1,,,0,0,0,0,0,0.00,441,Hardcover,,0,0,,,Tanmoy Das,,,,,0,,
14539501,1450595146,"Papa: French, English and Irish Ancestors",9781450595148,,,,ES,2010/11/5,Createspace Independent Publishing Platform,,false,1,14539501,0,0,0,0,2010/11/5,,,0,0,0,0,0,0.00,174,Paperback,,0,0,Karen Emery Dwyer,,,,,,,0,,
14540001,1450772749,Ask Dr. Lu,9781450772747,,,,ES,2011/6/1,Tao of Healing,,false,1,14540001,0,0,0,0,2011/6/1,,,0,0,0,0,0,0.00,,Paperback,,0,0,Nan Lu,,,,,,,0,,
14540501,188595963X,The Conservative Voice: Great Speeches That Define America's Right Vision,9781885959638,,,,ES,2011/2/1,Speechworks,,false,1,14540501,0,0,0,0,2011/2/1,,,0,0,0,0,0,0.00,,Audio CD,Abridged,0,0,,,,,,,,0,,
14541001,161379441X,Activate Your Faith,9781613794418,,,,ES,2011/6/1,Xulon Press,,false,2,14541001,5,4,1,0,2011/5/30,,,0,1,0,0,0,4.00,156,Paperback,,1,0,Russ Johnston,,,,,,3,0,1,
14542501,1451231385,The Philosophy of Water: 7 Ultra-Pacific Key Strategies for Problems Solving and Better Life,9781451231380,,,,ES,2010/8/9,America Star Books,,false,2,14542501,4,4,1,0,2010/8/9,,,0,1,0,0,0,4.00,180,Paperback,,1,0,Guy Patrick Angono Allogho,,,,,,3,0,,
14543501,1890399396,The Banned Lecture: Gilles de Rais,9781890399399,,,,ES,2011/12/1,Black Moon Publishing,,false,8,2557661,104,120,34,3,1990/1/1,"Gilles De Rais, the Banned Lecture",book,6,13,11,1,3,3.53,28,Paperback,,1,1,Aleister Crowley,,,,,,11,2,,"literature,magic,non-fiction,psychology"
14544001,1890850268,Mongolian Mystery,9781890850265,,,,ES,2012/1/1,Hunaworks,,false,2,14544001,6,1,1,0,2012/1/1,,,0,0,0,0,1,1.00,320,Paperback,,1,0,Serge Kahili King,,,,,,5,0,,
14544501,161382212X,Meditations,9781613822128,,,,ES,2011/12/1,Simon & Brown,,false,1311,30659,248590,342596,81053,4130,180/1/1,Τὰ εἰς ἑαυτόν ,book,40123,24729,11906,3052,1243,4.23,240,Paperback,,5,0,Marcus Aurelius,,,,,,135122,432,21114,"biography,business,classic-literature,classics,essays,fiction,historical,history,inspirational,leadership,literature,memoir,non-fiction,personal-development,philosophy,politics,psychology,reference,religion,self-help,spirituality,unfinished"
14545001,1451522568,Outfitted for Life: A Poetic Guide,9781451522563,,,,ES,2010/3/27,Createspace Independent Publishing Platform,,false,1,14545001,1,0,0,0,2010/3/27,,,0,0,0,0,0,0.00,166,Paperback,,0,0,Peter F. Kelly,,,,,,1,0,,
14545501,1451549288,"A Great Love: The Lessons in Life, Light and Love",9781451549287,,,,ES,2010/7/18,Createspace Independent Publishing Platform,,false,1,14545501,0,0,0,0,2010/7/18,,,0,0,0,0,0,0.00,126,Paperback,,0,0,Chad Cryder,,,,,,,0,,
14546501,1894925106,The Gustafsen Lake Crisis: Statements from Ts' Peten Defenders,9781894925105,,,,ES,,,,false,1,14546501,2,0,0,0,2001/1/1,,,0,0,0,0,0,0.00,,,,0,0,Et Al Wolverine,,,,,,2,0,,
14547501,1452015430,Ri-Ra-Lo in Birdieland,9781452015439,,,,ES,2010/8/18,Authorhouse UK,,false,1,14547501,1,5,1,0,2010/8/18,,,1,0,0,0,0,5.00,64,Paperback,,1,0,Yvette Riesen Osborne,,,,,,,0,,
14548001,1452024200,An Epistemology on Existentialism,9781452024202,,,,ES,2010/6/25,Authorhouse,,false,2,1086836,1,5,1,0,2010/6/25,An Epistemology on Existentialism,,1,0,0,0,0,5.00,116,Paperback,,0,0,"Zigmond Yezik, Jr.",,,,,,,0,1,
14548501,1452034877,Conscious Beauty,9781452034874,,,,ES,2010/12/9,Authorhouse,,false,1,14548501,0,0,0,0,2010/12/9,,book,0,0,0,0,0,0.00,204,Paperback,,0,0,Karen   Morgan,,,,,,,0,,
14549501,1452052832,A Wanderer's Legacy,9781452052830,,,,ES,2010/8/31,Authorhouse,,false,4,17640814,0,0,0,0,2010/8/31,,,0,0,0,0,0,0.00,268,Paperback,,0,0,Arjun Baokar,,,,,,,0,,
14550001,1452061289,L T Makes New Friends,9781452061283,,,,ES,2010/9/20,Authorhouse,,false,1,14550001,1,5,1,0,2010/9/20,,,1,0,0,0,0,5.00,24,Paperback,,1,0,Monica Abbott,,,,,,,0,,
14550501,1452067511,Rockman,9781452067513,,,,ES,2010/10/19,Authorhouse,,false,1,14550501,0,0,0,0,2010/10/19,,,0,0,0,0,0,0.00,36,Paperback,,0,0,Joy C. Fernandez,,,,,,,0,,
14552001,1614706409,Bismuth,9781614706403,,,,ES,2012/5/24,Nova Science Publishers,,false,1,14552001,1,4,1,0,2011/9/1,,,0,1,0,0,0,4.00,293,Hardcover,,1,0,,,Kamakhya Prasad Ghatak,,,,,0,,
14552501,1452090572,Think: . . . and Into My Life,9781452090573,,,,ES,2011/1/24,Authorhouse,,false,2,17641364,0,0,0,0,2011/1/24,,,0,0,0,0,0,0.00,348,Paperback,,0,0,Janet Delong,,,,,,,0,,
14553001,145209554X,Curtain Call: The Life and Times of Franklyn Vincent Ellison Seales,9781452095547,,,,ES,2011/1/25,Authorhouse,,false,2,14553001,0,0,0,0,2011/1/25,,,0,0,0,0,0,0.00,188,Hardcover,,0,0,,,,,,,,0,,
14554001,1452200289,Delaware Crime in Perspective 2011,9781452200286,,,,ES,2011/4/5,CQ Press,,false,1,14554001,0,0,0,0,2011/4/5,,,0,0,0,0,0,0.00,24,Paperback,,0,0,,,,Scott E. Morgan,,,,0,,
14554501,1452202745,"Public Policy: Politics, Analysis, and Alternatives",9781452202747,,,,ES,2012/7/17,CQ Press,eng,false,16,4232275,386,437,125,3,2003/8/1,"Public Policy: Politics, Analysis, and Alternatives",book,22,40,46,12,5,3.50,563,Paperback,,31,1,"Michael E. Kraft,Scott R. Furlong",,,,,,124,5,35,"non-fiction,politics,reference,textbooks"
14555001,1452240264,David A. Sousa's How the Brain Learns: The 4-Book Collection,9781452240268,,,,ES,2011/12/8,Corwin Publishers,,false,2,1376415,13,12,3,0,2011/12/8,David A. Sousa's How the Brain Learns: The 4-Book Collection,,0,3,0,0,0,4.00,,Hardcover,,0,0,David A. Sousa,,,,,,9,0,,education
14555501,1614953317,Back Home,9781614953319,,,,ES,2011/11/18,Silver Publishing,,false,17,35125836,1781,4034,1042,114,2011/4/1,,book,258,445,293,39,7,3.87,352,Paperback,,2,0,R.J. Scott,,,,,,518,36,11,"contemporary,erotica,family,gay,lgbt,romance"
14556501,1452542880,Amelia's Gift,9781452542881,,,,ES,2011/12/2,Balboa Press,,false,3,13335063,4,7,2,0,2011/12/2,,,1,0,0,1,0,3.50,224,Hardcover,,0,0,Debra John,,,,,,2,0,,
14557001,1905085567,Reading Skills,9781905085569,,,,ES,2011/8/1,Delta Publishing,eng,false,1,14557001,5,0,0,0,2011/8/1,,book,0,0,0,0,0,0.00,128,Paperback,,0,0,Louis  Rogers,,,,,,2,0,,
14557501,1615323767,Personal Hygiene,9781615323760,,,,ES,2010/1/1,PowerKids Press,,false,3,14557481,6,0,0,0,2010/1/1,,,0,0,0,0,0,0.00,32,Paperback,,0,0,Kate Purdie,,,,,,3,0,,
14558001,1452637903,The Many Sins of Lord Cameron,9781452637907,,,,ES,2012/7/9,Tantor Media,,false,1,8563824,19023,49135,12011,796,2011/1/1,"The Many Sins Of Lord Cameron (MacKenzies & McBrides, #3)",book,4415,4862,2256,366,112,4.09,,Audio CD,,16,0,Jennifer Ashley,,,,,Angela Dawe,2764,126,159,"abuse,adult,adult-fiction,chick-lit,erotica,family,fiction,historical,historical-fiction,history,regency,romance,victorian"
14558501,1615458743,Happiness Prescription,9781615458745,,,,ES,2009/12/1,Findaway World,,false,2,7505852,79,134,32,1,2008/1/1,,book,15,9,7,1,0,4.19,,Audiobook,,1,0,Deepak Chopra,,,,,,38,0,1,health
14559001,1905780834,100+ Fun Ideas for Teaching Boys in Primary School,9781905780839,,,,ES,2011/10/26,Brilliant Publications,,false,2,18290603,0,0,0,0,2011/10/26,,,0,0,0,0,0,0.00,158,Paperback,,0,0,Mark McEvilly,,,,,,,0,,
14559501,1452851662,The Mind and the Secret of Receiving Money: Amar,9781452851662,,,,ES,2010/6/20,Createspace Independent Publishing Platform,,false,1,14559501,0,0,0,0,2010/6/20,,,0,0,0,0,0,0.00,74,Paperback,,0,0,Amar Singh Negi,,,,,,,0,,
14560001,161570051X,Heat on the Street,9781615700516,,,,ES,2011/9/1,Scobre Press,,false,1,14560001,0,0,0,0,2011/9/1,,,0,0,0,0,0,0.00,,Audio,,0,0,,,,,,,,0,,
14561501,190655286X,Positional Chess Sacrifices,9781906552862,,,,ES,2012/4/1,Quality Chess,,false,1,14561501,7,4,1,0,2012/4/15,,,0,1,0,0,0,4.00,376,Paperback,,1,0,Mihai Suba,,,,,,4,0,1,
14563001,1453547355,The Stuttering Supernatural Testifier,9781453547359,,,,ES,2010/9/1,Xlibris Corporation,,false,3,14563001,0,0,0,0,2010/8/9,,book,0,0,0,0,0,0.00,180,Hardcover,,0,0,Robert Martin,,,,,,,0,,
14563501,1615724524,Iris,9781615724529,,,,ES,2011/8/7,Caliburn Press,,false,2,12353299,7,9,2,1,2011/8/6,,book,1,1,0,0,0,4.50,246,Paperback,,0,0,Yolanda Sfetsos,,,,,,5,0,,
14564001,1615746668,The North Pole,9781615746668,,,,ES,2009/10/1,Findaway World,,false,56,875857,164,215,60,7,1910/9/21,The North Pole: Its Discovery in 1909 Under the Auspices of the Peary Arctic Club,book,10,21,23,6,0,3.58,,Audio,,0,0,Robert Edwin Peary,,,,,Jonathan Reese,73,10,5,"adventure,american,historical,history,non-fiction,science,survival,travel"
14564501,1615792899,Traditions,9781615792894,,,,ES,,,,false,1,14564501,0,0,0,0,2010/8/3,,,0,0,0,0,0,0.00,,,,0,0,Rotimi Timothy Oluniyi,,,,,,,0,,
14565001,1615798870,You Can't Sin,9781615798872,,,,ES,2010/5/26,Xulon Press,,false,1,14565001,0,0,0,0,2010/5/26,,,0,0,0,0,0,0.00,,Paperback,,0,0,Elijah T. Sog,,,,,,,0,,
14566001,1907475680,Cold Blood: (A Bdsm Novel),9781907475689,,,,ES,2011/11/1,Barrington Hall Publishing,,false,4,16448706,11,7,2,0,2011/11/1,,,0,1,1,0,0,3.50,300,Paperback,,1,0,Syra Bond,,,,,,9,0,,
14567001,1615904956,"Big Cats, Drawing and Reading",9781615904952,,,,ES,2010/8/1,Rourke Educational Media,,false,1,14567001,0,0,0,0,2010/8/1,,,0,0,0,0,0,0.00,24,Paperback,,0,0,Monica Halpern,,,,,,,0,,
14567501,1907534148,Left Behind and the Evangelical Imagination,9781907534140,,,,ES,2011/5/18,Sheffield Phoenix Press Ltd,,false,1,14567501,5,0,0,0,2011/5/18,,,0,0,0,0,0,0.00,182,Hardcover,,0,0,,,,"Crawford Gribben,Mark S. Sweetnam",,,3,0,1,
14568001,145364556X,How to Own and Operate an Orchid Greenhouse Business,9781453645567,,,,ES,,,,false,1,14568001,0,0,0,0,2010/6/22,,,0,0,0,0,0,0.00,,,,0,0,Mark S. Lee,,,,,,,0,,
14568501,190765285X,The Woodhouse Boys,9781907652851,,,,ES,2011/1/18,Grosvenor House Publishing Limited,,false,1,14568501,1,0,0,0,2011/1/18,,,0,0,0,0,0,0.00,320,Paperback,,0,0,Neil Cawtheray,,,,,,1,0,,
14569001,1907703632,Botany for High Schools,9781907703638,,,,ES,2010/9/9,Yokai Publishing,,false,15,26898887,0,0,0,0,2008/10/1,,,0,0,0,0,0,0.00,502,Paperback,,0,0,George Francis Atkinson,,,,,,,0,,
14571001,1453759085,The Last Hope of Mankind,9781453759080,,,,ES,2010/8/9,Createspace,,false,1,14571001,0,0,0,0,2010/8/9,,,0,0,0,0,0,0.00,46,Paperback,,0,0,Mukhtar Farid,,,,,,,0,,
14572001,1908170530,Sewing In No Time: 50 step-by-step weekend projects made easy,9781908170538,,,,ES,2014/2/20,CICO Books,,false,5,3153467,203,378,100,13,2008/2/1,Sewing in No Time,,26,33,34,7,0,3.78,176,Paperback,,9,1,Emma Hardy,,,,,,67,3,6,"adult,non-fiction,reference"
14572501,1453801340,Who's Cookin Breakfast,9781453801345,,,,ES,2011/2/8,Createspace Independent Publishing Platform,,false,1,14572501,2,9,2,0,2011/2/8,,,1,1,0,0,0,4.50,128,Paperback,,2,0,Lynna RoAne,,,,,,,0,,
14573001,1908347066,The Reliant Three-Wheeler 1973-2002,9781908347060,,,,ES,2012/4/1,Crecy Publishing,,false,1,14573001,3,0,0,0,2012/4/1,,,0,0,0,0,0,0.00,64,Paperback,,0,0,Elvis Payne,,,,,,3,0,,
14574501,1453867805,Wild Corn,9781453867808,,,,ES,,,,false,2,14574501,0,0,0,0,2010/10/7,,,0,0,0,0,0,0.00,,,,0,0,M.D. Shamburger,,,,,,,0,,
14575001,1453886486,Get the Best Medical Care-You Can Navigate the Medical Maze: A Patient Guide,9781453886489,,,,ES,2011/2/3,Createspace Independent Publishing Platform,,false,2,18890124,52,51,15,1,2011/2/3,,book,3,3,6,3,0,3.40,244,Paperback,,2,1,Donna Maldonado-Schullo,,,,,,30,1,,"health,non-fiction,reference,self-help"
14575501,1616577851,Jefferson's Sons,9781616577858,,,,ES,2011/9/13,Random House,,false,12,9742411,13617,22910,5641,927,2011/9/1,,book,2099,2200,1008,257,77,4.06,,Audiobook,,1,0,Kimberly Brubaker Bradley,,,,,Adenrele Ojo,4417,35,177,"american-history,biography,chapter-books,childrens,family,fiction,historical,historical-fiction,history,juvenile,middle-grade,music,non-fiction,realistic-fiction,relationships,school,teen,young-adult"
14577001,1908712066,"Cancer: Energy, Mind and Emotions",9781908712066,,,,ES,,,,false,2,14577001,1,0,0,0,2011/12/31,,,0,0,0,0,0,0.00,,,,0,0,Jonathan Chamberlain,,,,,,,0,1,
14577501,1908797002,The Gambian Cookbook,9781908797001,,,,ES,2011/11/24,Saharan Press,,false,1,14577501,4,10,2,0,2011/11/24,,,2,0,0,0,0,5.00,170,Paperback,,2,0,"Michele Daryanani,Shakhil Shah",,,,,,1,0,,cooking
14579001,1455130028,"I'd Rather Be in Charge: A Legendary Business Leader's Roadmap for Achieving Pride, Power, and Joy at Work",9781455130023,,,,ES,2012/1/31,Blackstone Audiobooks,,false,11,12011399,489,530,144,18,2012/1/1,,book,29,57,45,9,4,3.68,,Audiobook,,0,0,Charlotte Beers,,,,,Heather Henderson,291,13,13,"adult,autobiography,business,feminism,leadership,memoir,non-fiction,personal-development,self-help"
14579501,1921847492,Numbers 1 to 10,9781921847493,,,,ES,2011/10/1,Alicat Trading Pty Ltd,,false,1,14579501,0,0,0,0,2011/10/1,,,0,0,0,0,0,0.00,,Hardcover,,0,0,Alicat,,,,,,,0,,
14580001,1617061921,Hospital,9781617061929,,,,ES,2012/3/1,Static Movement,,false,1,14580001,0,0,0,0,2012/3/29,,,0,0,0,0,0,0.00,240,Paperback,,0,0,J. Douglas Stephenson,,,Sean Monaghan,,,,0,,
14580501,1926801121,Northanger Abbey,9781926801124,,,,ES,2011/2/21,Prohyptikon Publishing Inc.,,false,1957,50398,450506,1011912,265564,10403,1818/1/1,Northanger Abbey,book,73191,96558,73035,17840,4940,3.81,232,Paperback,,0,0,Jane Austen,,,Carmina M. Dragomir,,,142904,1496,6490,"adult,adult-fiction,british-literature,chick-lit,classic-literature,classics,drama,english-literature,fiction,gothic,historical,historical-fiction,history,humor,literary-fiction,literature,mystery,novels,regency,romance,school,victorian"
14581001,1617079332,A Confusion of Princes,9781617079337,,,,ES,2012/5/8,Random House,,false,25,13458013,12437,20853,5556,904,2012/3/21,A Confusion of Princes,book,1284,2199,1595,374,104,3.75,,Audio,,3,1,Garth Nix,,,,,,5556,86,127,"action,adventure,aliens,childrens,dystopia,fantasy,fiction,romance,science-fiction,science-fiction-fantasy,speculative-fiction,teen,unfinished,young-adult"
14581501,145515699X,Invisible Monsters Remix,9781455156993,,,,ES,2012/6/11,Blackstone Audiobooks,,false,94,36236125,183926,438893,109695,5150,1999/9/17,Invisible Monsters,book,40548,38596,22482,6254,1815,4.00,,Audiobook,,2,0,Chuck Palahniuk,,,,,,53524,133,2311,"adult,adult-fiction,american,contemporary,crime,dark,drama,fiction,horror,humor,lgbt,literary-fiction,literature,modern,mystery,novels,suspense,thriller,unfinished"
14582001,1617203149,The Bobbsey Twins in Washington,9781617203145,,,,ES,2011/8/13,SMK Books,,false,56,399598,536,981,263,14,1919/1/1,The Bobbsey Twins in Washington,book,77,70,87,26,3,3.73,122,Paperback,,0,0,Laura Lee Hope,,,,,,137,13,6,"childrens,classics,fiction,juvenile,middle-grade,mystery,young-adult"
14582501,145516271X,Scone Island: An Ike Schwartz Mystery,9781455162710,,,,ES,2012/10/15,Blackstone Audiobooks,,false,8,13593640,147,312,89,16,2012/8/1,Scone Island,book,17,22,40,9,1,3.51,,Audio CD,,2,1,Frederick Ramsay,,,,,,25,3,7,"adventure,crime,fiction,holiday,mystery,thriller"
14584001,1455711128,Pineal Region Tumors,9781455711123,,,,ES,2011/8/29,Saunders,,false,1,14584001,0,0,0,0,2011/8/29,,,0,0,0,0,0,0.00,120,Hardcover,,0,0,,,,"Andrew T. Parsa,Jeffrey N. Bruce",,,,0,,
14585501,1617288306,Diarrhea,9781617288302,,,,ES,2010/8/1,Nova Science Publishers,,false,1,14585501,1,0,0,0,2011/4/1,,,0,0,0,0,0,0.00,72,Paperback,,0,0,Joshua J. Malago,,,,,,1,0,,
14586001,1455823562,Untamed,9781455823567,,,,ES,2011/9/15,Findaway World,,false,42,114174,5427,10942,2936,91,1983/1/1,Untamed,book,894,803,859,303,77,3.73,,Audiobook,Preloaded Digital Audio Player,0,0,Nora Roberts,,,,,,1177,14,187,"adult,adult-fiction,chick-lit,contemporary,fiction,harlequin,modern,new-adult,romance"
14587001,1617377724,Organelle Proteomics,9781617377723,,,,ES,2010/11/19,Humana Press,,false,2,14587001,0,0,0,0,2008/1/1,,,0,0,0,0,0,0.00,421,Paperback,,0,0,,,,"Delphine Pflieger,Jean Rossier",,,,0,,
14587501,1455844543,Cry of the Hunter,9781455844548,,,,ES,2011/12/1,,,false,27,9085340,671,1230,318,10,1979/1/1,Cry of the Hunter,book,96,113,83,23,3,3.87,,Audiobook,,0,0,Jack Higgins,,,,,,143,4,90,"crime,fiction,science-fiction,suspense,thriller"
14589501,161761811X,Computer Graphics,9781617618116,,,,ES,2011/8/26,Nova Science Publishers,,false,1,14589501,1,0,0,0,2011/3/1,,,0,0,0,0,0,0.00,200,Hardcover,,0,0,,,Martin J. Davis,,,,1,0,,
14591001,1455870811,Aftershocks,9781455870813,,,,ES,2012/3/1,Brilliance Audio,,false,23,588859,1890,3426,920,38,1985/1/1,Aftershocks ,book,263,280,267,80,30,3.72,,Audiobook,,1,0,Catherine Coulter,,,,,,473,9,121,"adult,chick-lit,contemporary,fiction,harlequin,modern,mystery,romance"
14592501,1617833800,South Dakota,9781617833809,,,,ES,2012/9/1,Big Buddy Books,,false,3,14592501,13,29,8,0,2012/1/1,,,2,3,2,0,1,3.62,32,Hardcover,,8,0,Sarah Tieck,,,,,,5,0,,
14593501,1455882690,"Now You See It: How the Brain Science of Attention Will Transform the Way We Live, Work, and Learn",9781455882694,,,,ES,2012/7/31,Brilliance Audio,,false,15,9754017,4163,4445,1161,137,2011/8/18,,book,351,403,287,97,23,3.83,,Audio CD,,3,1,Cathy N. Davidson,,,,,Laural Merlington,815,19,12,"academic,adult,business,education,health,leadership,non-fiction,parenting,personal-development,philosophy,psychology,research,science,self-help,unfinished"
14596501,1455891886,SecondWorld,9781455891887,,,,ES,2012/5/22,Brilliance Audio,,false,15,13167109,3300,6633,1665,174,2012/5/22,SecondWorld,book,559,638,369,80,19,3.98,1,MP3 CD,Unabridged Library Edition,1,1,Jeremy Robinson,,,,,Phil Gigante,1329,22,56,"action,adult,adventure,fantasy,fiction,horror,mystery,mystery-thriller,post-apocalyptic,science,science-fiction,science-fiction-fantasy,thriller,unfinished"
14597001,1618892010,Colors & Shapes,9781618892010,,,,ES,2012/3/20,AZ Books,,false,1,14597001,1,0,0,0,2012/3/20,,,0,0,0,0,0,0.00,8,Board Book,,0,0,,,,Olga Petrovskaya,,,,0,,
14597501,1619030128,On the Waves of Brain,9781619030121,,,,ES,2011/9/27,Arizona Business Alliance,,false,1,14597501,1,0,0,0,2011/9/27,,,0,0,0,0,0,0.00,304,Paperback,,0,0,"Jyotika Saxena,Samta Jain",,,,,,1,0,,
14598001,1619044730,Even the Stones Cry Out,9781619044739,,,,ES,2012/2/1,Xulon Press,,false,1,14598001,3,2,1,0,2012/2/17,,,0,0,0,1,0,2.00,314,Paperback,,1,0,Juliann Shannon,,,,,,2,0,,
14600001,1619132621,Coyotes (Backyard Animals),9781619132627,,,,ES,2012/6/30,Av2 by Weigl,,false,4,14600001,7,13,3,1,2007/1/1,,book,2,0,1,0,0,4.33,24,Paperback,,2,0,Christine Webster,,,,,,,0,1,"non-fiction,school"
14602001,1619960117,"Don't Cry Mom, Don't Cry Dad",9781619960114,,,,ES,,,,false,2,14602001,3,10,2,0,2011/12/21,,,2,0,0,0,0,5.00,,,,2,0,"Ronnie Daniels,Yvonne Daniels",,,,,,,0,,
14603001,1620870738,"Little Theories of Life: Your ideal guide to the weird world of popular theory, the urban myth, and the land of did you know?",9781620870730,,,,ES,2012/10/16,Skyhorse,,false,5,6701114,45,73,23,6,2007/1/1,,book,0,8,11,4,0,3.17,352,Paperback,,0,0,Peter FitzSimons,,,,,,13,0,,humor
14603501,1621006204,U.S. Marine Transportation,9781621006206,,,,ES,2012/6/30,Nova Science Publishers,,false,1,14603501,2,0,0,0,2012/1/1,,,0,0,0,0,0,0.00,139,Paperback,,0,0,,,James McCaffrey,,,,2,0,,
14605501,174284166X,The Ravens of Attylan,9781742841663,,,,ES,2012/9/3,ReadOnTime BV,,true,1,14605501,0,0,0,0,2012/2/1,,,0,0,0,0,0,0.00,334,ebook,,0,0,"Aaron Charles Huggett,Adrian John Finkelstein",,,,,,,0,,
14606501,1743109490,Here on Earth,9781743109496,,,,ES,2012/4/23,Bolinda Audio,,false,20,9477538,1403,2200,565,87,2010/9/1,Here on Earth,book,152,248,127,29,9,3.89,,Audio CD,,1,1,Tim Flannery,,,,,,326,7,12,"historical-fiction,history,nature,non-fiction,philosophy,politics,science"
14607501,1743192800,"Lieutenant, The",9781743192801,,,,ES,2012/5/21,Bolinda Audio,,false,38,4285471,5966,12791,3522,457,2007/12/31,The Lieutenant,book,598,1471,1082,300,71,3.63,,Audio CD,,9,3,Kate Grenville,,,,,Nicholas Bell,1719,27,113,"adult,adult-fiction,adventure,cultural,fiction,historical,historical-fiction,history,literary-fiction,literature,novels,school,travel"
14609501,1770692673,Words to Inspire,9781770692671,,,,ES,2011/3/25,Word Alive Press,,false,2,14609501,0,0,0,0,2011/3/25,,,0,0,0,0,0,0.00,102,Paperback,,0,0,Bruce William Fraser,,,,,,,0,,
14610001,1780031262,The Ashes Go to Oz,9781780031262,,,,ES,2011/6/1,Indepenpress Publishing,,false,3,14610001,0,0,0,0,2011/6/1,,,0,0,0,0,0,0.00,156,Paperback,,0,0,Liss Griffiths,,,,,,,0,,
14610501,1438000057,Training Your Pet Hamster,9781438000053,,,,ES,2012/10/1,Barron's Educational Series,,false,2,1263266,39,77,22,3,2002/10/15,Training Your Pet Hamster,book,4,9,6,0,3,3.50,117,Paperback,,3,0,"Barbara Somerville,Gerry Bucsis",,,,,,8,2,,"animals,non-fiction"
14611001,1438236743,Reality Breaks,9781438236742,,,,ES,2008/11/12,Createspace Independent Publishing Platform,,false,1,14611001,0,0,0,0,2008/11/12,,book,0,0,0,0,0,0.00,280,Paperback,,0,0,"D. Reynard,J.A.  White",,,,,,,0,,
14611501,1780399677,"No Sense Dwelling in the Past: The Fate of the US Air Force's German Air Force Monograph Project, 1952-1969",9781780399676,,,,ES,2011/11/25,Military Bookshop,,false,3,32202877,1,0,0,0,,,book,0,0,0,0,0,0.00,162,Paperback,,0,0,Ryan Shaughnessy,,,,,,1,0,,
14612001,1780654243,Camilla the Cupcake Fairy Sticker Dolly Dress Up,9781780654249,,,,ES,2012/4/2,Make Believe Ideas,,false,3,14612001,6,5,2,0,2012/4/3,,,0,1,0,0,1,2.50,40,Paperback,,2,0,Lara Ede,,,,,,3,0,,
14612501,1781121044,Ghosting,9781781121047,,,,ES,2012/9/1,Stoke Books,,false,6,2476843,164,229,73,20,2008/1/20,Ghosting,book,9,16,27,18,3,3.14,63,Hardcover,Dyslexia Friendly,2,2,Keith Gray,,,,,,65,5,3,"ghosts,horror,mystery,paranormal,speculative-fiction,supernatural,young-adult"
14613001,1781680213,The Fiery Brook: Selected Writings,9781781680216,,,,ES,2013/1/16,Verso,,false,6,14613001,103,65,17,0,1972/1/1,,,4,7,5,1,0,3.82,320,Paperback,,13,0,Ludwig Feuerbach,,,,Zawar Hanfi,,72,0,4,"anthropology,philosophy,religion"
14613501,1438730993,Malaysia Industrial and Business Directory,9781438730998,,,,ES,2010/1/25,"International Business Publications, USA",,false,2,13760433,0,0,0,0,2006/4/1,,,0,0,0,0,0,0.00,306,Paperback,,0,0,,,,USA International Business Publications,,,,0,,
14614001,1841270857,Earth Story in Genesis: Volume 2,9781841270852,,,,ES,2000/8/1,Bloomsbury T&T Clark,,false,1,14614001,3,0,0,0,2000/8/1,,,0,0,0,0,0,0.00,238,Paperback,,0,0,,,,"Shirley Wurst,Shirley Wurst",,,1,0,,religion
14614501,1841613649,Garfield - Going for Gold,9781841613642,,,,ES,2012/4/1,Ravette Publishing Ltd,,false,1,14614501,8,23,6,0,2012/4/1,,,3,1,1,0,1,3.83,96,Paperback,,6,0,Jim Davis,,,,,,2,0,,
14615001,1438946899,Adobe Bricks Folk Opera,9781438946894,,,,ES,2009/4/24,Authorhouse,,false,3,14615002,0,0,0,0,2009/4/1,,,0,0,0,0,0,0.00,140,Paperback,,0,0,Betty J. Curtis,,,,,,,0,,
14615501,1438967896,Where There's a Will There's a Way,9781438967899,,,,ES,2009/6/8,Authorhouse,,false,1,14615501,0,0,0,0,2009/6/1,,,0,0,0,0,0,0.00,88,Paperback,,0,0,William Walker,,,,,,,0,,
14616001,1438995466,A Christmas for Sammie,9781438995465,,,,ES,2009/12/10,Authorhouse,,false,1,14616001,0,0,0,0,2009/12/10,,,0,0,0,0,0,0.00,24,Paperback,,0,0,Susan Brunn Emanuele,,,,,,,0,,
14616501,1439258775,"Healthcare Solved - Real Answers, No Politics",9781439258774,,,,ES,2009/10/7,Booksurge Publishing,,false,3,14616501,0,0,0,0,2009/9/3,,book,0,0,0,0,0,0.00,226,Paperback,,0,0,Debra A. Smith,,,,,,,0,,
14617001,,Το παιδί της αγάπης,9789604533350,,,,ES,,Ψυχογιός,gre,false,1,14617001,277,735,178,9,,Το παιδί της αγάπης,book,81,52,33,11,1,4.13,370,Paperback,,178,9,"Maria Tzirita,Μαρία Τζιρίτα",,,,,,52,3,3,adult
14617501,1439871426,"Nanotechnology 2011: Advanced Materials, Cnts, Particles, Films and Composites",9781439871423,,,,ES,2011/6/27,CRC Press,,false,1,14617501,0,0,0,0,2011/6/27,,,0,0,0,0,0,0.00,858,Paperback,,0,0,,,,NSTI,,,,0,,
14618001,1440136041,To Touch the White Unfolded Wings of Wonder: Poetry by Chuck Rice,9781440136047,,,,ES,2009/4/9,iUniverse.com,,false,1,14618001,0,0,0,0,2009/4/1,,,0,0,0,0,0,0.00,140,Paperback,,0,0,Chuck Rice,,,,,,,0,,
14618501,1440318352,"Discover Your World in Pen, Ink & Watercolor",9781440318351,,,,ES,2012/12/7,North Light Books,,false,1,14618501,59,113,27,3,2012/12/7,,,12,9,5,1,0,4.19,127,Paperback,,27,3,Claudia Nice,,,,,,19,0,1,"art,fiction,reference"
14619001,1441103821,Early Visions and Representations of America: Alvar Nunez Cabeza de Vaca's Naufragios and William Bradford's Of Plymouth Plantation,9781441103826,,,,ES,2012/9/27,Bloomsbury Academic,,false,6,17073641,4,5,2,0,2012/1/1,,,0,0,1,1,0,2.50,224,Hardcover,,0,0,M. Carmen Gómez-Galisteo,,,,,,3,0,1,"american-history,history,non-fiction,travel"
14619501,1441146229,Exploring the Yogasutra: Philosophy and Translation,9781441146229,,,,ES,2012/5/10,Bloomsbury Academic,,false,4,14619501,5,0,0,0,2012/3/8,,,0,0,0,0,0,0.00,184,Hardcover,,0,0,Daniel Raveh,,,,,,2,0,,
14620001,1441193464,Religious Conflict and Cooperation: An Introduction,9781441193469,,,,ES,2017/10/19,Bloomsbury Academic,,false,1,14620001,1,0,0,0,2013/3/1,,,0,0,0,0,0,0.00,256,Hardcover,,0,0,Scott Daniel Dunbar,,,,,,1,0,,
14620501,1441502467,I Miss the Hugs But Not the Hurts,9781441502469,,,,ES,2009/2/12,Xlibris Corporation,,false,7,20730513,3,0,0,0,2008/8/22,,,0,0,0,0,0,0.00,144,Paperback,,0,0,Tunishai A. Ford,,,,,,3,0,,
14621001,1441517618,The Dark Wolf,9781441517616,,,,ES,2009/6/5,Xlibris Corporation,,false,1,14621001,0,0,0,0,2009/6/5,,,0,0,0,0,0,0.00,710,Paperback,,0,0,Laree D,,,,,,,0,,
14621501,1441533087,The Power of Prepared Speech,9781441533081,,,,ES,2009/6/10,Xlibris Corporation,,false,1,14621501,0,0,0,0,2009/6/10,,,0,0,0,0,0,0.00,80,Paperback,,0,0,"John J. Garcia,M. Robert Jones",,,,,,,0,,
14622001,1441548815,Poems and Sea Stories,9781441548818,,,,ES,2009/12/10,Xlibris Corporation,,false,2,14622001,0,0,0,0,2009/12/10,,,0,0,0,0,0,0.00,86,Paperback,,0,0,James B. Rudd,,,,,,,0,,
14622501,8467470925,Lestat el vampiro (Crónicas vampíricas #2),9788467470925,,,,ES,,Planeta DeAgostini,spa,false,118,43814,228233,659834,162259,3392,1985/1/1,The Vampire Lestat,book,62481,58387,32706,7078,1607,4.07,,,,3,0,Anne Rice,,,,,,34614,60,2203,"adult,adult-fiction,american,classics,contemporary,dark,drama,fantasy,fiction,gothic,historical,historical-fiction,horror,lgbt,literature,modern,novels,paranormal,romance,science-fiction,science-fiction-fantasy,speculative-fiction,supernatural,suspense,thriller,unfinished,urban-fantasy,vampires"
14623001,,Historia natural y moral de los alimentos (Las frutas y las verduras)   ,9788420605449,,,,ES,2007/6/30, Alianza Editorial,--,false,1,14623001,3,0,0,0,2007/6/30,,book,0,0,0,0,0,0.00,,Paperback,,0,0,Maguelonne Toussaint-Samat,,,,,,2,0,,
14623501,,Five Days Grace (Human Target #10),,B001AQE19Y,,,ES,2004/5/19,DC Vertigo,eng,false,2,36716288,2,0,0,0,2004/5/19,,,0,0,0,0,0,0.00,,,1,0,0,Peter Milligan,,,,,,1,0,1,comics
14624001,8467481358,Fables n. 12: L'età oscura,9788467481358,,,,ES,2009/1/1,Planeta DeAgostini,ita,false,11,5973711,15469,47763,11297,466,2009/8/18,"Fables, Volume 12: The Dark Ages",book,4925,4324,1791,212,45,4.23,192,Paperback,,9,1,Bill Willingham,"Andrew Pepoy,David Hahn,Mike Allred,Peter Gross",,,,,240,140,30,"action,adult,adult-fiction,adventure,american,comics,fairy-tales,fantasy,fiction,graphic-novels,graphic-novels-comics,magic,manga,mythology,retellings,supernatural,urban-fantasy,young-adult"
14624501,,Guerra entre Dois Mundos: Ciência vs Espiritualidade,9789898206848,,,,ES,,,por,false,36,10630726,2022,2551,720,117,2010/4/19,,book,133,253,227,86,21,3.54,314,,,3,0,"Deepak Chopra,Leonard Mlodinow",,,,,,97,15,18,"criticism,non-fiction,philosophy,religion,science,spirituality,unfinished"
14625001,3801773109,"Killer's Town (The Phantom, #9)",,,,,ES,1973/12/1,"Avon Books & King Features Syndicate, Inc.",eng,false,3,6709517,72,98,24,0,1973/12/1,,book,8,10,6,0,0,4.08,156,Paperback,,1,0,Lee Falk,,,,,,38,1,-1,"comics,fantasy,fiction,mystery,novels"
14625501,,A Jar of Wasps,,B007QQUEWU,,,ES,2012/4/1,Anarchy Books,en-GB,true,3,14625501,23,37,12,6,2012/1/1,,book,1,3,4,4,0,3.08,191,Kindle Edition,,11,5,Luis Villazon,,,,,,8,1,1,science-fiction
14626001,1929882181,Vincent O' Sullivan: A Quest for Divine Union,9781929882182,,,,ES,,,,false,1,14626001,0,0,0,0,2001/7/1,,book,0,0,0,0,0,0.00,,,,0,0,Afroditi-Maria Panaghis,,,,,,,0,,
14631501,1932201629,Crossgen Ccg Fantasy Deck,9781932201628,,,,ES,2003/9/14,Fast Forward,,false,1,14631501,1,0,0,0,2003/9/14,,,0,0,0,0,0,0.00,,Paperback,,0,0,Fast Forward,,,,,,1,0,,
14632501,3642059066,Atlas of Clinical Hematology,9783642059063,,,,ES,2010/10/13,Springer,,false,4,14632501,2,4,1,0,2004/11/1,,book,0,1,0,0,0,4.00,429,Paperback,,0,0,,,,"Helmut Löffler,Johann Rastetter,Torsten Haferlach",,,1,0,,
14633001,1932507051,Spanish-English Bilingual Bible-PR-VP/GN-Catholic,9781932507058,,,,ES,2004/4/1,American Bible Society,,false,4,14633001,5,10,2,0,,,,2,0,0,0,0,5.00,1926,Hardcover,,2,0,,,,,,,3,0,,
14633501,3642064442,Environmental Effects of Marine Finfish Aquaculture,9783642064449,,,,ES,2010/2/12,Springer,,false,1,14633501,0,0,0,0,2010/11/19,,,0,0,0,0,0,0.00,468,Paperback,,0,0,,,,Barry Hargrave,,,,0,,
14634001,3642067565,Antimicrobial Peptides and Human Disease,9783642067563,,,,ES,2010/2/12,Springer,,false,6,273169,1,0,0,0,2006/1/1,Antimicrobial Peptides and Human Disease (Current Topics in Microbiology and Immunology),,0,0,0,0,0,0.00,266,Paperback,,0,0,,,,William M. Shafer,,,1,0,,
14635001,3850224589,Von Lebenskunst Und Kinderfesten,9783850224581,,,,ES,2011/7/19,Novum Publishing,,false,1,14635001,0,0,0,0,2011/7/19,,,0,0,0,0,0,0.00,110,Paperback,,0,0,Ruth Schmidt-Mumm,,,,,,,0,,
14635501,3852514398,Craft,9783852514390,,,,ES,2011/7/19,Novum Publishing,,false,1,14635501,0,0,0,0,2011/7/19,,,0,0,0,0,0,0.00,166,Paperback,,0,0,Christian Holzer,,,,,,,0,,
14636001,1933254963,Apart,9781933254968,,,,ES,2012/5/8,Ugly Duckling Presse,,false,1,14636001,109,144,34,7,2012/5/8,,book,14,15,4,1,0,4.24,168,Paperback,,34,7,Catherine Taylor,,,,,,64,2,2,"essays,history,literature,non-fiction,philosophy,poetry"
14636501,3863350588,Bill Bollinger: Water Is Life and Like Art It Finds Its Own Level,9783863350581,,,,ES,2012/2/29,"Walther Konig, Cologne",,false,1,14636501,2,0,0,0,2012/2/29,,,0,0,0,0,0,0.00,256,Hardcover,,0,0,,,Christiane Meyer-Stoll,,,,1,0,,
14637001,3642094295,Theory and Mathematical Methods in Bioinformatics,9783642094293,,,,ES,2010/11/19,Springer,,false,1,14637001,1,0,0,0,2008/7/29,,,0,0,0,0,0,0.00,445,Paperback,,0,0,Shiyi Shen,,,,,,1,0,,
14637501,3866402953,Kampf Um ROM,9783866402959,,,,ES,2007/8/6,Contumax Gmbh & Co. Kg,,false,59,2792343,196,366,94,3,1876/1/1,Ein Kampf um Rom,book,35,32,16,4,7,3.89,524,Paperback,,0,0,Felix Dahn,,,,,,70,4,9,"adventure,classics,drama,fiction,historical,historical-fiction,history,literature"
14638001,1933890274,Combined Standards Glossary,9781933890272,,,,ES,2007/2/1,Project Management Institute,,false,3,4138267,4,4,1,0,2004/11/1,Combined Standards Glossary,,0,1,0,0,0,4.00,107,Spiral-bound,,0,0,,,,,,,1,0,,
14638501,1933993847,To the Last Man,9781933993843,,,,ES,2010/2/1,Apocryphile Press,,false,178,121216,1057,2343,621,35,1921/1/1,To the Last Man,book,158,209,216,31,7,3.77,274,Paperback,,0,0,Zane Grey,,,,,,243,21,59,"adult-fiction,american,classics,fiction,high-school,historical-fiction,novels,romance"
14639001,3642138284,Wie Deutschland Zum Leitanbieter Fur Elektromobilitat Werden Kann: Status Quo - Herausforderungen - Offene Fragen,9783642138287,,,,ES,2010/5/6,Springer,,false,1,14639001,0,0,0,0,2010/5/6,,,0,0,0,0,0,0.00,36,Paperback,,0,0,Acatech -. Deutsche Akademie Der Technik,,,,,,,0,,
14639501,386838085X,The Rei(g)N of 'Rule',9783868380859,,,,ES,2011/2/28,Ontos Verlag,,false,1,14639501,0,0,0,0,2011/2/28,,,0,0,0,0,0,0.00,132,Paperback,,0,0,Dana Riesenfeld,,,,,,,0,,
14640001,3882261714,Die Pilgerfahrt Zum Himmlischen Jerusalem: Ein Allegorisches Gedicht Des Spatmittelalters Aus Der Heidelberger Bilderhandschrift Cod.Pal.Lat.1969,9783882261714,,,,ES,1983/1/1,Dr Ludwig Reichert,,false,1,14640001,0,0,0,0,1983/12/31,,,0,0,0,0,0,0.00,122,Paperback,,0,0,Rosemarie Bergmann,,,,,,,0,,
14640501,1934465461,Leadership Careeers in Medical Education,9781934465462,,,,ES,2010/4/1,American College of Physicians,,false,3,24988990,0,0,0,0,2010/4/1,,,0,0,0,0,0,0.00,289,Paperback,,0,0,,,,Louis N. Pangaro,,,,0,,
14641001,1934597694,Gallery of Horror,9781934597699,,,,ES,2011/9/1,"Sunbury Press, Inc.",,false,2,12373381,4,0,0,0,2011/8/6,,book,0,0,0,0,0,0.00,106,Paperback,,0,0,Thomas M. Malafarina,,,,,,3,0,,
14641501,3899712102,Poesie der Predigt: Lothar Steiger zum 70. Geburtstag,9783899712100,,,,ES,2005/1/1,V&r Unipress,,false,1,14641501,0,0,0,0,2005/1/1,,book,0,0,0,0,0,0.00,230,Paperback,,0,0,,,,,,,,0,,
14642001,3899717058,Theodosius Schoepffers 'Gerontologia Seu Tractatus de Jure Senum': Kulturwissenschaftliche Studien Zu Einem Vergessenen Traktat Uber Das Altenrecht,9783899717051,,,,ES,2011/3/4,V&r Unipress,,false,1,14642001,0,0,0,0,2011/3/4,,,0,0,0,0,0,0.00,318,Hardcover,,0,0,,,,"Becker Arnold,Karl August Neuhausen,Marc Laureys",,,,0,,
14642501,3642249175,"Integrated Uncertainty in Knowledge Modelling and Decision Making: International Symposium, IUKM 2011, Hangzhou, China, October 28-30, 2011, Proceedings",9783642249174,,,,ES,2011/10/12,Springer,,false,1,14642501,1,4,1,0,2011/12/15,,,0,1,0,0,0,4.00,267,Paperback,,1,0,,,,"Jonathan Lawry,Van-Nam Huynh,Yongchuan Tang",,,,0,,
14643001,3642259405,Levy Processes at Saint-Flour,9783642259401,,,,ES,2012/4/5,Springer,,false,1,14643001,0,0,0,0,2012/2/14,,book,0,0,0,0,0,0.00,479,Paperback,,0,0,"Ildar A. Ibragimov,Jean Bertoin,Jean Bretagnolle,Jean Jacod,Ronald A. Doney",,,,,,,0,,
14643501,3642283136,Proceedings of the 2011 2nd International Congress on Computer Applications and Computational Science: Volume 1,9783642283130,,,,ES,2012/2/24,Springer,,false,1,14643501,0,0,0,0,2012/2/22,,,0,0,0,0,0,0.00,512,Paperback,,0,0,,,,"Ford Lumban Gaol,Quang Vinh Nguyen",,,,0,,
14644001,3642295479,Numerical Analysis of Vibrations of Structures Under Moving Inertial Load,9783642295478,,,,ES,2012/4/28,Springer,,false,2,14644001,0,0,0,0,2012/5/31,,,0,0,0,0,0,0.00,294,Hardcover,,0,0,"Bart Omiej Dyniewicz,Czes Aw Bajer",,,,,,,0,,
14644501,1935202774,Skin Fruit: A View of a Collection,9781935202776,,,,ES,2012/6/30,Destiny Image Incorporated,,false,1,14644501,3,2,1,1,2012/4/30,,,0,0,0,1,0,2.00,92,Paperback,,1,1,,,,Jeff Koons,,,2,0,,"adult,contemporary"
14645001,3990070002,Black Blood Meets Kan Le,9783990070000,,,,ES,2011/7/20,Novum Publishing,,false,1,14645001,0,0,0,0,2011/7/20,,,0,0,0,0,0,0.00,104,Paperback,,0,0,Julia Hagl,,,,,,,0,,
14645501,3716516937,Animation.Ch: Vision and Versatility in Swiss Animated Film,9783716516935,,,,ES,2012/4/16,Benteli,,false,1,14645501,0,0,0,0,2012/4/16,,,0,0,0,0,0,0.00,320,Hardcover,,0,0,Christian Gasser,,,,,,,0,,
14646001,4431700854,ICM-90 Satellite Conference Proceedings: Special Functions,9784431700852,,,,ES,1991/11/1,Springer,,false,1,14646001,0,0,0,0,1991/11/1,,,0,0,0,0,0,0.00,318,Paperback,,0,0,,,,"Masaki Kashiwara,Tetsuji Miwa",,,,0,,
14646501,3764309350,Finite Element Analysis Assuming Rigid-Ideal-Plastic Material Behavior,9783764309350,,,,ES,1977/1/1,Springer,,false,1,14646501,0,0,0,0,1980/1/1,,,0,0,0,0,0,0.00,17,Paperback,,0,0,E. Anderheggen,,,,,,,0,,
14647001,3764315911,Gewahrleistung Der Sicherheit Von Bauwerken Ein Alle Bereiche Des Bauprozesses Erfassendes Konzept,9783764315917,,,,ES,1984/1/1,Springer,,false,1,14647001,0,0,0,0,1984/1/1,,book,0,0,0,0,0,0.00,49,Paperback,,0,0,"Jörg Schneider,Miroslav Matousek",,,,,,,0,,
14647501,3764322195,Japanische Plakate Sechziger Jahre Bis Heute,9783764322199,,,,ES,1988/10/1,Springer,,false,1,14647501,0,0,0,0,1988/10/1,,,0,0,0,0,0,0.00,211,Hardcover,,0,0,Wichmann,,,,,,,0,,
14648001,555004899X,Only by Grace: Satb,,,,,ES,2000/10/3,Brentwood Benson,,false,1,14648001,0,0,0,0,2000/10/3,,,0,0,0,0,0,0.00,,Paperback,,0,0,,,Charles Billingsley,,,,,0,,
14648501,5557420274,A Christmas Offering: A Praise & Worship Celebration for Any Choir,,,,,ES,2008/3/3,Lillenas Publishing Company,,false,2,14648501,0,0,0,0,2008/3/3,,,0,0,0,0,0,0.00,,Audio CD,,0,0,,,Marty Parks,,,,,0,,
14649001,5557692584,Famous One,,,,,ES,2002/10/1,Allegis Publications,,false,2,14649001,0,0,0,0,2002/9/1,,,0,0,0,0,0,0.00,,Paperback,,0,0,Russell Mauldin,,,,,,,0,,
14649501,5558408995,Harmony in the Heartland,,,,,ES,2006/5/23,Gaither Music Company,,false,1,14649501,0,0,0,0,2006/5/23,,,0,0,0,0,0,0.00,,Audio,,0,0,,,Bill Gaither,,,,,0,,
14650001,3790801275,Interessenlagen Und Interessenkonflikte Bei Der Zwischen- Betrieblichen Kooperation,9783790801279,,,,ES,1973/1/1,Springer,,false,1,14650001,0,0,0,0,1973/1/1,,,0,0,0,0,0,0.00,,Paperback,,0,0,Volker Harms,,,,,,,0,,
14650501,1936140365,Dinosaur Pet,9781936140367,,,,ES,2012/5/1,Imagine,,false,2,14650501,177,379,103,22,2009/1/1,,book,30,23,40,7,3,3.68,28,Hardcover,,92,18,"Marc Sedaka,Neil Sedaka",Tim Bowers,,,,,27,15,1,"animals,childrens,fiction,juvenile,music,picture-books"
14651001,6071605687,Jirafa Africana,9786071605689,,,,ES,2011/6/1,Fondo de Cultura Economica USA,,false,11,31325383,801,1831,460,128,2011/6/1,"Yours Sincerely, Giraffe",book,137,199,105,16,3,3.98,70,Paperback,,7,0,"Jun Takabatake,Megumi Iwasa",,,,,,222,31,7,"adventure,animals,chapter-books,childrens,fantasy,fiction,funny,humor,international,juvenile,middle-grade,picture-books,travel,writing"
14651501,1936309769,Watch Me Draw Dora's Favorite Adventures,9781936309764,,,,ES,2012/8/1,Walter Foster Library,,false,5,14651501,7,6,2,0,2006/9/30,,book,0,1,0,1,0,3.00,24,Hardcover,,2,0,"Dave Aikins,Walter Foster Creative Team",,,,,,1,0,,
14652001,1936360098,"Arizona DUI Defense: The Law and Practice, Third Edition",9781936360093,,,,ES,2012/4/17,Lawyers & Judges Publishing,,false,1,14652001,1,0,0,0,2012/4/17,,,0,0,0,0,0,0.00,522,Hardcover,,0,0,James Nesci,,,,,,1,0,,
14652501,3798503281,Aktuelle Probleme Der Polymer-Physik I: Vortrage Der Arbeitstagung Des Fachausschusses Physik Der Hochpolymeren in Der Fruhjahrstagung 1970 Des Regionalverbandes Hessen-Mittelrhein-Saar Der Deutschen Physikalischen Gesellschaft in Darmstadt Vom 10. 13....,9783798503281,,,,ES,1970/1/1,Springer,,false,1,14652501,0,0,0,0,1970/1/1,,,0,0,0,0,0,0.00,183,Paperback,,0,0,,,,"E.W. Fischer,F. Horst Müller",,,,0,,
14653001,1936681951,Beckett Racing Collectibles Price Guide,9781936681952,,,,ES,2012/3/1,Beckett Media,,false,1,14653001,1,0,0,0,2012/3/1,,,0,0,0,0,0,0.00,432,Paperback,,0,0,,,,Dan Hitt,,,1,0,,
14654001,1936940035,Bare-Bones Spirituality: Teachings in a Secular Age,9781936940035,,,,ES,2011/6/3,Epigraph Publishing,,false,1,14654001,1,0,0,0,2011/6/3,,,0,0,0,0,0,0.00,192,Paperback,,0,0,Peter Broner,,,,,,1,0,,
14655501,1937495264,The Devil and the Diva,9781937495268,,,,ES,2012/2/14,Down & Out Books,,false,4,14655501,63,75,25,5,2012/1/1,The Devil and the Diva,book,3,6,7,6,3,3.00,268,Paperback,,17,4,"David Housewright,Renee Valois",,,,,,20,0,4,
14656001,1937676250,Richie Rich Gems: Treasures,9781937676254,,,,ES,2012/7/17,Ape Entertainment,,false,1,14656001,9,11,3,0,2012/7/10,,,1,1,0,1,0,3.67,112,Paperback,,3,0,Sid Jacobson,"Ernie Colón,Warren Kremer",,,,,3,0,,
14656501,1937928446,How to Find the Right One & Make It Last!: Bring Love and Romance Back to Dating,9781937928445,,,,ES,2012/4/24,Two Harbors Press,,false,2,14656501,9,14,3,2,2012/4/24,,book,2,1,0,0,0,4.67,,Paperback,,2,2,Charles A.  Johnson,,,,,,7,0,,
14657001,3833450630,Revolution und Ökonomie: Gefährliche Wege bei der Suche nach Utopien,9783833450631,,,,ES,2006/8/9,Books on Demand,,false,1,14657001,0,0,0,0,2006/8/9,,,0,0,0,0,0,0.00,156,Paperback,,0,0,Ulrich Adler,,,,,,,0,,
14657501,2012265138,Le Cirque Aux Etoiles,9782012265134,,,,ES,2010/9/1,Hachette Book Group USA,,false,1,14657501,0,0,0,0,2010/9/1,,,0,0,0,0,0,0.00,24,Hardcover,,0,0,Sophie de Mullenheim,,,,,,,0,,
14658001,3833476664,FM-Gespr Che 2008,9783833476662,,,,ES,,,,false,1,14658001,0,0,0,0,2008/8/19,,,0,0,0,0,0,0.00,,,,0,0,Unknown,,,,,,,0,,
14658501,3833490926,Tanz der Katzen: Roman in 38 Kurzgeschichten,9783833490927,,,,ES,2007/6/15,Books on Demand,,false,1,14658501,0,0,0,0,2007/6/15,,,0,0,0,0,0,0.00,224,Paperback,,0,0,Eirenos Epikur,,,,,,,0,,
14659001,3834812994,Wege Zur Innenwelt Des Mathematischen Modellierens: Kognitive Analysen Zu Modellierungsprozessen Im Mathematikunterricht,9783834812995,,,,ES,2010/10/14,Vieweg+teubner Verlag,,false,1,14659001,0,0,0,0,2010/10/14,,,0,0,0,0,0,0.00,187,Paperback,,0,0,Rita Borromeo Ferri,,,,,,,0,,
14659501,383491326X,A Common Tax Base for Multinational Enterprises in the European Union,9783834913265,,,,ES,2009/2/17,Gabler Verlag,,false,2,14659501,1,0,0,0,2009/1/1,,,0,0,0,0,0,0.00,231,Paperback,,0,0,Carsten Wendt,,,,,,1,0,,
14660001,3834921289,Automatische Erzeugung Und Optimierung Von Taktfahrpl Nen in Schienenverkehrsnetzen,9783834921284,,,,ES,2009/12/11,Gabler Verlag,,false,1,14660001,0,0,0,0,2009/12/11,,book,0,0,0,0,0,0.00,268,Paperback,,0,0,"Frank Himpel,Jens Opitz",,,,,,,0,,
14660501,3834928038,Buchfuhrung Und Bilanzierung: Eine Anwendungsorientierte Einfuhrung,9783834928030,,,,ES,2011/10/20,Gabler Verlag,,false,1,14660501,0,0,0,0,2011/10/20,,,0,0,0,0,0,0.00,434,Paperback,,0,0,"Benjamin Auer,Peer Schmidt",,,Matthias Schmidt,,,,0,,
14661001,2226131272,Dans Un Etat Libre,9782226131270,,,,ES,2001/11/1,Albin Michel,,false,48,49742,11165,11940,3420,230,1971/1/1,In a Free State,book,591,1164,1133,398,134,3.49,288,Paperback,,0,0,V.S. Naipaul,,,,,,6866,95,155,"adult-fiction,british-literature,classics,fiction,historical,literary-fiction,literature,modern-classics,non-fiction,novels,politics,short-stories,travel"
14661501,2226151974,Eddy Mitchell,9782226151971,,,,ES,2004/11/1,Albin Michel,,false,1,14661501,1,5,1,0,2004/11/1,,,1,0,0,0,0,5.00,104,Paperback,,1,0,Sam Bernett,,,,,,,0,,
14662001,3836653869,Business-Plan F R Eine Personalagentur Mit Standort in Der Slowakei,9783836653862,,,,ES,,,,false,1,14662001,0,0,0,0,2008/1/30,,,0,0,0,0,0,0.00,,,,0,0,Daniela Karcolova,,,,,,,0,,
14662501,3836662108,Best Ager Im Kino,9783836662109,,,,ES,,,,false,1,14662501,0,0,0,0,2008/6/30,,,0,0,0,0,0,0.00,,,,0,0,Michael Kaschura,,,,,,,0,,
14663001,3836671441,Kmu in China,9783836671446,,,,ES,2009/4/3,Diplomica Verlag Gmbh,,false,1,14663001,0,0,0,0,2009/4/3,,,0,0,0,0,0,0.00,170,Paperback,,0,0,Tharsilla Schulz,,,,,,,0,,
14663501,3836682168,"Liquidit T Der Kapitalm Rkte: Eine Untersuchung Mittels Bid-Ask-Spread, Handelsvolumen Und Marktkapitalisierung",9783836682169,,,,ES,,,,false,1,14663501,0,0,0,0,2009/10/6,,,0,0,0,0,0,0.00,,,,0,0,"Marin Tadinac,Ouafya Sai",,,,,,,0,,
14664501,2253088064,Coffret Allemand Debutant Livre 4 CD,9782253088066,,,,ES,2009/8/1,Livre de Poche,,false,1,14664501,2,0,0,0,2009/8/1,,,0,0,0,0,0,0.00,,Paperback,,0,0,C. Kremp Sorg,,,,,,,0,1,
14665001,2253121339,Le Journal,9782253121336,,,,ES,2007/12/1,Livre de Poche,,false,1,14665001,1,3,1,0,2007/12/1,,,0,0,1,0,0,3.00,,Paperback,,1,0,B. Maris,,,,,,,0,,fiction
14665501,2253130877,Jours de colère: Questions de principe - Tome 8,9782253130871,,,,ES,2004/5/1,Livre de Poche,,false,1,14665501,3,0,0,0,2004/5/1,Jours de colère: Questions de principe - Tome 8,book,0,0,0,0,0,0.00,434,Paperback,,0,0,Bernard-Henri Lévy,,,,,,1,0,,
14666501,3838106202,Stable and Unstable Manifolds in Open Chaotic Systems,9783838106205,,,,ES,2009/4/1,Sudwestdeutscher Verlag Fur Hochschulschriften AG,,false,1,14666501,0,0,0,0,2009/4/1,,,0,0,0,0,0,0.00,120,Paperback,,0,0,Andreas Wingen,,,,,,,0,,
14667001,,Джордж Гордон Байрон. Избранные произведения в 2 томах (комплект),,,,,ES,1987/1/1,Художественная литература. Москва,rus,false,1,14667001,5,18,4,0,1987/1/1,,book,3,0,1,0,0,4.50,1582,Hardcover,,4,0,"Lord Byron,Джордж Гордон Байрон",,,,"Ivan Bunin,Vasily Zhukovsky,Виктор Топоров,Вильгельм Левик",,1,0,,
14667501,3838127501,High Throughput Phenotyping of Field-Grown Maize,9783838127507,,,,ES,2012/3/20,Sudwestdeutscher Verlag Fur Hochschulschriften AG,,false,1,14667501,0,0,0,0,2012/3/20,,,0,0,0,0,0,0.00,152,Paperback,,0,0,Lo C. Winterhalter,,,,,,,0,,
14668001,2759405028,Survival Kit: Fashion,9782759405022,,,,ES,2012/1/3,Assouline Publishing,,false,1,14668001,4,0,0,0,2012/1/3,,book,0,0,0,0,0,0.00,,Unknown Binding,,0,0,"André Courrèges,Cristóbal Balenciaga,Marc Jacobs,Yves Saint-Laurent",,,,,,4,0,,
14668501,3839152291,Gelebte Geschichte - Eine Jugend in Deutschland 1940-1961: Königsberg - Dresden - München,9783839152294,,,,ES,2011/2/21,Books on Demand,,false,1,14668501,0,0,0,0,2011/2/21,,,0,0,0,0,0,0.00,204,Paperback,,0,0,,,,Eberhard Wilms,,,,0,,
14669001,3839192420,Der Legionär - Einsatz und Showdown in München,9783839192429,,,,ES,2009/12/18,Books on Demand,,false,1,14669001,0,0,0,0,2009/12/18,,,0,0,0,0,0,0.00,512,Paperback,,0,0,Clint Leon Powers,,,,,,,0,,
14669501,3842348312,Berliner Luft,9783842348318,,,,ES,2011/2/11,Books on Demand,,false,2,14669501,0,0,0,0,2011/2/11,,,0,0,0,0,0,0.00,464,Paperback,,0,0,Charles Bunyan,,,,,,,0,,
14670001,3842371586,Lili Marlen und die blinde Ziganka: Begegnungen einer Deutschen in Mazedonien - Reiseerzählung,9783842371583,,,,ES,2011/8/25,Books on Demand,,false,3,14670001,0,0,0,0,2011/7/11,,,0,0,0,0,0,0.00,136,Paperback,,0,0,Lilli Buthmann-Condé,,,,,,,0,,
14670501,3842865333,Politikberater ALS Mitregenten: Wissenschaftliche Politikberatung in Frankreich Und Deutschland,9783842865334,,,,ES,2012/2/6,Diplomica Verlag Gmbh,,false,1,14670501,0,0,0,0,2012/2/6,,,0,0,0,0,0,0.00,148,Paperback,,0,0,Kristina Viciska,,,,,,,0,,
14671001,384305424X,Epigramme,9783843054249,,,,ES,,,,false,5,17886379,1,4,1,0,2008/1/1,,book,0,1,0,0,0,4.00,,,,0,0,Franz Grillparzer,,,,,,,0,,
14671501,3843058733,Deutsche Volksm Rchen Aus Schwaben,9783843058735,,,,ES,2010/12/6,Contumax Gmbh & Co. Kg,,false,1,14671501,0,0,0,0,2010/12/6,,,0,0,0,0,0,0.00,290,Paperback,,0,0,Ernst Meier,,,,,,,0,,
14672001,3843064881,Beitrag Zur Berichtigung Der Urtheile Des Publicums Ber Die Franz Sische Revolution,9783843064880,,,,ES,,,,false,7,19464988,1,0,0,0,1793/1/1,,book,0,0,0,0,0,0.00,,,,0,0,Johann Gottlieb Fichte,,,,,,1,0,,philosophy
14672501,3110165554,Analytische Einf�hrung in Die Philosophie Des Geistes,9783110165555,,,,ES,1999/4/22,Walter de Gruyter,,false,3,16996126,0,0,0,0,1999/4/22,,,0,0,0,0,0,0.00,487,Hardcover,,0,0,Ansgar Beckermann,,,,,,,0,,
14673001,384544536X,Burns Like the Sun,9783845445366,,,,ES,2011/9/27,Justfiction Edition,,false,2,14673001,5,9,3,0,2011/9/27,,,1,0,1,0,1,3.00,388,Paperback,,3,0,"Amanda Stafford,Melissa Melton",,,,,,3,0,,"fantasy,romance,thriller,young-adult"
14673501,3110212714,The Composition and Redaction of the Book of Amos,9783110212716,,,,ES,2009/3/18,de Gruyter,,false,2,15057142,0,0,0,0,2009/3/18,,,0,0,0,0,0,0.00,265,Hardcover,,0,0,Tchavdar S. Hadjiev,,,,,,,0,,
14674501,3110245590,"Performing Interpersonal Violence: Court, Curse, and Comedy in Fourth-Century Bce Athens",9783110245592,,,,ES,2012/1/16,Walter de Gruyter,,false,3,16361749,0,0,0,0,2012/1/16,,,0,0,0,0,0,0.00,490,Hardcover,,0,0,Werner Riess,,,,,,,0,,
14675001,3110255030,Old Russian Possessive Constructions: A Construction Grammar Approach,9783110255034,,,,ES,2011/10/17,Walter de Gruyter,,false,4,16996240,0,0,0,0,2011/1/1,,,0,0,0,0,0,0.00,226,Hardcover,,0,0,Hanne Martine Eckhoff,,,,,,,0,,
14675501,3110275325,"Kookkurrenz, Kontrast, Profil: Korpusinduzierte Studien Zur Lexikalisch-Syntaktischen Kombinatorik Franzosischer Substantive",9783110275322,,,,ES,2012/7/16,Walter de Gruyter,,false,2,14675647,0,0,0,0,2012/6/13,,,0,0,0,0,0,0.00,262,Hardcover,,0,0,Sascha Diwersy,,,,,,,0,,
14676001,3110289172,85 Years Ifla: A History and Chronology of Sessions 1927 2012,9783110289176,,,,ES,,,,false,2,14676001,0,0,0,0,2012/8/16,,,0,0,0,0,0,0.00,,,,0,0,,,,Jeffrey M. Wilhite,,,,0,,
14676501,3111734285,A Different God?: Dionysos and Ancient Polytheism,9783111734286,,,,ES,2011/12/23,Walter de Gruyter,,false,5,16361310,19,8,2,0,2011/12/19,,,0,2,0,0,0,4.00,667,Unknown Binding,,0,0,,,,Renate Schlesier,,,16,1,,history
14677001,3111753077,Kulturg Ter Bei Staatensukzession: Die Internationalen Vertr GE Sterreichs Nach Dem Zerfall Der Sterreichisch-Ungarischen Monarchie Im Spiegel Des Akt,9783111753072,,,,ES,,,,false,2,14677001,0,0,0,0,2010/5/19,,,0,0,0,0,0,0.00,,,,0,0,Yves Huguenin-Bergenat,,,,,,,0,,
14677501,3111823857,"Moses Ibn Tibbons Kommentar Zum Hohelied Und Sein Poetologisch-Philosophisches Programm: Synoptische Edition, Bersetzung Und Analyse",9783111823850,,,,ES,,,,false,2,16364751,0,0,0,0,2004/1/1,,,0,0,0,0,0,0.00,,,,0,0,Otfried Fraisse,,,,,,,0,,
14678001,3112144937,Vie Lombarde E Venete: Circolazione E Trasformazione Dei Saperi Letterari Nel Sette-Ottocento Fra L Italia Settentrionale E L Europa Transalp,9783112144930,,,,ES,,,,false,1,14678001,0,0,0,0,2011/10/7,,,0,0,0,0,0,0.00,,,,0,0,,,,"Furio Brugnolo,Helmut Meter",,,,0,,
14680501,,Sinking of the Titanic: Eyewitness Accounts,,B0086X6Y9Y,,,ES,2012/8/9,Tales End Press,eng,true,9,319676,259,343,93,10,1912/1/1,Sinking of the Titanic: Eyewitness Accounts,book,22,32,28,10,1,3.69,,Kindle Edition,,19,0,Jay Henry Mowbray,,,,,,121,5,19,"biography,chapter-books,historical,historical-fiction,history,memoir,non-fiction"
14683001,961201101X,Kratka zgodovina evropske in ameriške dramatike: od antike do postmodernizma,,,,,ES,1994/1/1,"Mihelač, Ljubljana",slv,false,1,14683001,0,0,0,0,1994/1/1,,book,0,0,0,0,0,0.00,201,,,0,0,Denis Poniž,,,,,,,0,,
14685001,8131910296,Zebo & the Dinosaur,9788131910290,,,,ES,2010/12/1,B Jain Publishers Pvt Ltd,,false,1,14685001,0,0,0,0,2010/12/1,,,0,0,0,0,0,0.00,48,Paperback,,0,0,Manish Dasani,,,,,,,0,,
14685501,8132107179,Executive Coaching: A Practitioner's Guide to Creating Excellence,9788132107170,,,,ES,2011/12/16,Sage Publications Pvt. Ltd,,false,5,16995507,1,0,0,0,2011/11/1,,,0,0,0,0,0,0.00,196,Paperback,,0,0,Sunil Unny Guptan,,,,,,1,0,,
14686001,8170337569,Social Development: Challenges Faced in an Unequal and Plural Society,9788170337560,,,,ES,2003/1/1,Rawat Publications,,false,1,14686001,1,0,0,0,2003/1/1,,book,0,0,0,0,0,0.00,397,Hardcover,,0,0,M.S. Gore,,,,,,1,0,,
14686501,8177080970,On-line Marketing: Principles and Current Practices,9788177080971,,,,ES,2005/11/15,New Century Publications,,false,1,14686501,0,0,0,0,2005/11/1,,,0,0,0,0,0,0.00,314,Hardcover,,0,0,Gaytri Varma,,,,,,,0,,
14687001,3474011561,"Seasons of Worship: 100 Modern Worship Songs for Christmas, Easter, Weddings and More",9783474011567,,,,ES,2008/3/1,Worship Together,,false,1,14687001,0,0,0,0,2008/3/1,,,0,0,0,0,0,0.00,412,Paperback,,0,0,,,Various,,,,,0,,
14687501,8408097776,Cancun y el Yucatan de Cerca [With Map],9788408097778,,,,ES,2011/4/1,Lonely Planet,,false,2,9071355,9,22,5,0,2011/1/1,,book,3,1,1,0,0,4.40,160,Paperback,,1,0,"Greg Benchwick,Lonely Planet",,,,,,3,0,,"amazon,travel"
14688001,8421695797,La Maquina Maravillosa,9788421695791,,,,ES,2006/3/30,Bruno,,false,2,13386955,91,171,49,3,1989/1/1,La máquina maravillosa,book,13,13,12,7,4,3.49,153,Paperback,,4,1,Elvira Menéndez,Alicia Canas,Manuel Artigot,,,,19,1,,childrens
14688501,3511036607,Samtliche Schriften. Band 10: Ethik Oder Die Lehren Der Lebensweisheit: Ethik Oder Die Lehren Der Lebensweisheit,9783511036607,,,,ES,1970/12/31,Scientia Verlag,,false,1,14688501,0,0,0,0,1970/12/31,,,0,0,0,0,0,0.00,421,Hardcover,,0,0,Jakob Friedrich Fries,,,"Gert König,Lutz Geldsetzer",,,,0,,
14690001,8466608680,Una Mente Serena,9788466608688,,,,ES,2007/12/1,Ediciones B,,false,2,14690001,3,0,0,0,2006/1/1,,,0,0,0,0,0,0.00,272,Paperback,,0,0,John Selby,,,,,,2,0,1,
14691001,3515083693,"Geography, Gender, and the Workaday World",9783515083690,,,,ES,2003/12/1,Franz Steiner Verlag Wiesbaden GmbH,,false,1,14691001,1,3,1,0,2003/12/1,,,0,0,1,0,0,3.00,,Paperback,,1,0,Susan Hanson,,,,,,,0,,
14692001,3515098941,Plenum Exiliis Mare: Untersuchungen Zum Exil in Der Romischen Kaiserzeit,9783515098946,,,,ES,2011/8/15,Franz Steiner Verlag Wiesbaden GmbH,,false,1,14692001,0,0,0,0,2011/8/15,,,0,0,0,0,0,0.00,378,Paperback,,0,0,Frank Stini,,,,,,,0,,
14693001,3525352808,Der Reichsdeputationstag Zu Worms 1586,9783525352809,,,,ES,1994/6/12,Vandehoeck & Rupprecht,,false,1,14693001,0,0,0,0,1994/6/12,,,0,0,0,0,0,0.00,914,Paperback,,0,0,Holy Roman Empire,,,,,,,0,,
14693501,3525404123,Kreatives und therapeutisches Schreiben: Ein Arbeitsbuch,9783525404126,,,,ES,2013/9/18,Vandenhoeck and Ruprecht,,false,5,14693501,6,8,2,0,2011/7/15,,book,1,0,1,0,0,4.00,132,Paperback,,1,0,Silke Heimes,,,,,,3,1,,non-fiction
14694001,8492567422,Hitler Triunfante: Once Historias Alternativas de la Segunda Guerra Mundial,9788492567423,,,,ES,,,,false,10,54329,261,330,97,22,2002/1/1,Hitler Triumphant: Alternate Decisions of World War II,book,10,36,37,11,3,3.40,,,,5,1,Peter G. Tsouras,,,,,,88,3,8,"collections,fantasy,fiction,historical,historical-fiction,history,war"
14694501,8492861290,"Radar, Number 0: Musac's Journal of Art and Thought",9788492861293,,,,ES,2011/6/1,Actar,,false,1,14694501,1,0,0,0,2011/6/1,,,0,0,0,0,0,0.00,103,Paperback,,0,0,"Andrea Giunta,Natalia Majluf,Nicolás Guagnini",,,,,,1,0,,
14695001,8493689319,del Frio Al Fuego,9788493689315,,,,ES,2009/5/1,"E-Litterae, S.L.",,false,3,14695001,1,2,1,0,1906/1/1,Del frío al fuego (Ellas a bordo),book,0,0,0,1,0,2.00,272,Paperback,,1,0,Felipe Trigo,,,,,,,0,,
14695501,3525633874,An Gott ... Von Lisa Und Tim: Kindergebete,9783525633878,,,,ES,2008/1/23,Vandenhoeck and Ruprecht,,false,1,14695501,0,0,0,0,2008/1/23,,,0,0,0,0,0,0.00,48,Paperback,,0,0,,,,Helmut Hanisch,,,,0,,
14696001,,Na terasi babilonskega stolpa,9789612421748,,,,ES,2008/1/1,Študentska založba,slv,false,1,14696001,11,33,9,0,2008/1/1,,book,2,3,3,1,0,3.67,239,Hardcover,Knjižna zbirka Beletrina,9,0,Sebastijan Pregelj,,,,,,2,1,,
14697001,8497451325,Ordenacin de Los Espacios Litorales En Galicia,9788497451321,,,,ES,2005/1/1,Netbiblo S.L.,,false,1,14697001,0,0,0,0,2005/1/1,,,0,0,0,0,0,0.00,232,Paperback,,0,0,Antonio Grando Dopico,,,,,,,0,,
14698001,3527410295,Industrial Ion Sources: Broadbeam Gridless Ion Source Technology,9783527410293,,,,ES,2011/12/19,Wiley-Vch,,false,5,16689067,0,0,0,0,2011/12/19,,,0,0,0,0,0,0.00,326,Hardcover,,0,0,Viacheslav V. Zhurin,,,,,,,0,,
14698501,3531155032,Ffentlichkeit,9783531155036,,,,ES,2012/7/13,Vs Verlag Fur Sozialwissenschaften,,false,1,14698501,0,0,0,0,2012/7/13,,,0,0,0,0,0,0.00,120,Paperback,,0,0,"Jeffrey Wimmer,Michael Brüggemann",,,,,,,0,,
14701501,3531176331,Der Moderne Film: Geschichte - Theorie - Asthetik,9783531176338,,,,ES,2018/9/24,Springer vs,,false,1,14701501,0,0,0,0,2013/3/1,,,0,0,0,0,0,0.00,224,Paperback,,0,0,Oliver Fahle,,,,,,,0,,
14702001,3531178970,Persönlichkeitspsychologie,9783531178974,,,,ES,2014/6/24,Springer,,false,1,14702001,3,8,2,0,2012/7/29,,book,0,2,0,0,0,4.00,167,Paperback,,2,0,"Marcus Roth,Philipp Y. Herzberg",,,,,,,2,1,
14703501,8847020093,Handbook of Headache: Practical Management,9788847020092,,,,ES,2011/11/10,Springer,,true,3,16064319,0,0,0,0,2011/1/1,,,0,0,0,0,0,0.00,760,ebook,,0,0,,,,"Paolo Martelletti,Timothy J. Steiner",,,,0,,
14704001,8856401215,"2012. IO, Sul Cammino Di Santiago Di Compostela",9788856401219,,,,ES,2010/12/15,Edizioni Polistampa,,false,1,14704001,2,3,1,1,2010/12/15,,,0,0,1,0,0,3.00,208,Paperback,,1,1,Massimo Serafini,,,,,,,0,,
14704501,8859606942,"Amici Di Doccia, III - 2009: Quaderni",9788859606949,,,,ES,2009/12/31,Edizioni Polistampa,,false,1,14704501,0,0,0,0,2009/12/31,,,0,0,0,0,0,0.00,104,Paperback,,0,0,,,,Polistampa Edizioni,,,,0,,
14705001,3540018042,Erwarmung Und Ka1/4hlung Elektrischer Maschinen,9783540018049,,,,ES,1954/1/1,Springer,,false,1,14705001,0,0,0,0,1954/1/1,,,0,0,0,0,0,0.00,,Hardcover,,0,0,Gottfried Gotter,,,,,,,0,,
14706001,3540023755,Einfuhrung in Die Pra- Und Postoperative Wasser- Und Elektrolyttherapie,9783540023753,,,,ES,1959/1/1,Springer,,false,1,14706001,0,0,0,0,1959/1/1,,,0,0,0,0,0,0.00,52,Paperback,,0,0,Rolf Dohrmann,,,,,,,0,,
14706501,3540027130,Kunstliche Radioaktive Isotope in Physiologie Diagnostik Und Therapie/Radioactive Isotopes in Physiology Diagnostics and Therapy,9783540027133,,,,ES,1961/1/1,Springer,,false,2,19362723,0,0,0,0,1961/1/1,,,0,0,0,0,0,0.00,1330,Hardcover,,0,0,,,,"Fritz Turba,Herbert Schwiegk",,,,0,,
14707501,3540033017,Markov Processes: Volume 1,9783540033011,,,,ES,1965/1/1,Springer,,false,2,18236849,2,0,0,0,1965/1/1,,,0,0,0,0,0,0.00,366,Hardcover,,0,0,E.B. Dynkin,,,,"J. Fabius,V. Greenberg",,1,0,1,
14708001,3540036156,Einfuhrung in Die Elektrotechnik Hoherer Frequenzen: Zweiter Band: Elektromagnetische Felder Und Wellen,9783540036159,,,,ES,1966/1/1,Springer,,false,1,14708001,0,0,0,0,1966/1/1,,,0,0,0,0,0,0.00,252,Paperback,,0,0,Hans H. Meinke,,,,,,,0,,
14708501,8932021600,Elsie Piddock Skips in Her Sleep,9788932021607,,,,ES,2010/10/1,Munhakgwa Jiseongsa,,false,15,1294378,532,836,197,38,1937/1/1,Elsie Piddock Skips in Her Sleep (Candlewick Treasures),book,97,65,24,8,3,4.24,42,Hardcover,,0,0,Eleanor Farjeon,,,,,,279,14,,"childrens,classic-literature,contemporary,fantasy,fiction,picture-books"
14709001,3540043055,Production Cellulaire Erythropoietique,9783540043058,,,,ES,1968/1/1,Springer,,false,1,14709001,0,0,0,0,1968/1/1,,,0,0,0,0,0,0.00,,Hardcover,,0,0,N. Odartchenko,,,,,,,0,,
14711001,3540058079,"A Theory of Supercritical Wing Sections, with Computer Programs and Examples: With Computer Programs and Examples",9783540058076,,,,ES,1972/4/21,Springer,,false,3,22650396,0,0,0,0,1972/4/21,,book,0,0,0,0,0,0.00,214,Paperback,,0,0,"David Korn,Frances Bauer,Paul R. Garabedian",,,,,,,0,,
14712501,3540068805,Biochemie Der Pflanzen: Ein Lehrbuch,9783540068808,,,,ES,1974/12/20,Springer,,false,1,14712501,1,0,0,0,1974/12/20,,,0,0,0,0,0,0.00,,Hardcover,,0,0,"G. W. Ber,H. Kindl",,,,,,1,0,,
14713501,3540079939,Entscheidungen Bei Unvollstandiger Information,9783540079934,,,,ES,1976/11/1,Springer,,false,1,14713501,0,0,0,0,1976/12/16,,,0,0,0,0,0,0.00,361,Paperback,,0,0,"E. Kofler,Georg Menges",,,,,,,0,,
14714001,3540089462,Crystals as Giant Molecules,9783540089469,,,,ES,1978/9/1,Springer,,false,3,14714001,0,0,0,0,1978/1/1,,,0,0,0,0,0,0.00,136,Paperback,,0,0,A. Julg,,,,,,,0,,
14714501,3540098488,Halbleiter-Schaltungstechnik,9783540098485,,,,ES,1980/2/26,Springer,,false,18,1287306,25,4,2,0,1969/1/1,Halbleiter-Schaltungstechnik,book,0,0,1,0,1,2.00,,Hardcover,,0,0,"Christoph Schenk,Ulrich Tietze",,,,,,11,0,,
14715001,354010769X,Conformation of Biological Molecules: New Results from NMR,9783540107699,,,,ES,1981/11/1,Springer,,false,3,15912414,0,0,0,0,1981/12/9,,,0,0,0,0,0,0.00,218,Hardcover,,0,0,"G. Govil,R. V. Hosur",,,,,,,0,,
14715501,9004138056,"Theodore de Beze Le Passavant: Edition Critique, Introduction, Traduction Et Commentaire",9789004138056,,,,ES,2004/3/25,Brill,,false,1,14715501,0,0,0,0,2004/1/1,,,0,0,0,0,0,0.00,410,Hardcover,,0,0,"J. L. R. Ledegang-Keegstra,Theodore Beza",,,,,,,0,,
14716001,3540125280,"Traumatology of the Skull Base: Anatomy, Clinical and Radiological Diagnosis Operative Treatment",9783540125280,,,,ES,1983/7/1,Springer,,false,3,4682273,4,5,1,0,1983/9/13,"Traumatology of the Skull Base: Anatomy, Clinical and Radiological Diagnosis, Operative Treatment",,1,0,0,0,0,5.00,242,Hardcover,,0,0,,,,"J. Brihaye,Madjid Samii",,,3,0,,
14716501,3540132546,The Medial Geniculate Body of the Cat,9783540132547,,,,ES,1984/1/1,Springer,,false,2,8283601,1,0,0,0,1984/1/1,,,0,0,0,0,0,0.00,100,Paperback,,0,0,Jeffery A. Winer,,,,,,,0,,
14717001,900418788X,"Systematics of Cyst Nematodes (Nematoda: Heteroderinae), Volume 8 Part A & B",9789004187887,,,,ES,2010/9/10,Brill,,false,1,14717001,0,0,0,0,2010/9/1,,,0,0,0,0,0,0.00,864,Hardcover,,0,0,,,,"Jane Geddes,Mark A. Hall,Stephen T. Driscoll",,,,0,,
14717501,9004205861,Brill's Companion to Propertius,9789004205864,,,,ES,2011/3/4,Brill,,false,1,14717501,0,0,0,0,2011/3/1,,,0,0,0,0,0,0.00,476,Paperback,,0,0,,,,Gabriel Audisio,,,,0,,
14718001,9004219005,Aspects of Manuscript Culture in South India,9789004219007,,,,ES,2012/6/29,Brill,,false,3,18066216,0,0,0,0,2012/1/1,,,0,0,0,0,0,0.00,324,Hardcover,,0,0,,,Saraju Rath,,,,,0,,
14718501,9024717965,Liebe Und Person: Max Schelers Versuch Eines Phanomenologischen Personalismus,9789024717965,,,,ES,1976/5/31,Springer,,false,1,14718501,0,0,0,0,1976/5/31,,,0,0,0,0,0,0.00,269,Paperback,,0,0,H. Leonardy,,,,,,,0,,
14719001,9026516290,The Dynamics of Vehicles on Roads and on Tracks,9789026516290,,,,ES,2000/1/1,Taylor & Francis Group,,false,1,14719001,0,0,0,0,2000/1/1,,,0,0,0,0,0,0.00,804,Hardcover,,0,0,Frohling Robert,,,"Froehling,Robert Frohling",,,,0,,
14719501,3540184686,"Distributed Parameter Systems: Proceedings of the 3rd International Conference Vorau, Styria, July 6 12, 1986",9783540184683,,,,ES,1987/10/28,Springer,,false,2,14719501,0,0,0,0,1987/12/7,,,0,0,0,0,0,0.00,349,Paperback,,0,0,,,,"Franz Kappel,Karl Kunisch,Wilhelm Schappacher",,,,0,,
14720001,9027915504,Essai Pour Une Histoire Structurale Du Phonetisme Francais,9789027915504,,,,ES,2015/4/22,Walter de Gruyter,,false,1,14720001,1,0,0,0,1971/1/1,,,0,0,0,0,0,0.00,136,Hardcover,,0,0,"Alphonse Juilland,André Haudricourt",,,,,,1,0,,
14720501,9031203653,Rood 50 Years Labour Law,9789031203659,,,,ES,1986/7/22,Springer,,false,1,14720501,0,0,0,0,1986/7/22,,,0,0,0,0,0,0.00,,Hardcover,,0,0,M. G. Rood,,,,,,,0,,
14721001,9041128816,International Financial Institutions and International Law,9789041128812,,,,ES,2010/10/1,Kluwer Law International,,false,5,14721001,3,4,1,0,2010/1/1,,book,0,1,0,0,0,4.00,440,Hardcover,,1,0,"Daniel D. Bradlow,David B. Hunter",,,,,,2,0,,
14721501,9046603393,Essential Texts on International and European Criminal Law,9789046603390,,,,ES,2010/3/1,Maklu Pub,,false,3,17077862,1,1,1,0,2009/5/1,,,0,0,0,0,1,1.00,1370,Paperback,,0,0,,,,Gert Vermeulen,,,,0,,
14722001,9048146518,Solution of Crack Problems: The Distributed Dislocation Technique,9789048146512,,,,ES,2010/12/9,Springer,,false,2,3193210,0,0,0,0,1996/2/29,Solution of Crack Problems: The Distributed Dislocation Technique (Solid Mechanics and Its Applications),,0,0,0,0,0,0.00,308,Paperback,,0,0,"D.A. Hills,D.N. Dai,P.A. Kelly",,,,,,,0,,
14722501,3540500901,Advancing Surface Mount Technology: An Ifs Executive Briefing,9783540500902,,,,ES,1988/9/12,Springer,,false,1,14722501,0,0,0,0,1988/9/12,,,0,0,0,0,0,0.00,218,Paperback,,0,0,,,,Stephen McClelland,,,,0,,
14723001,3540507787,Die Beatmung Mit Helium-Sauerstoff Und Stickstoff-Sauerstoff-Gemischen,9783540507789,,,,ES,1989/8/18,Springer,,false,1,14723001,0,0,0,0,1989/8/18,,,0,0,0,0,0,0.00,102,Paperback,,0,0,Karl-Wilhelm Fritz,,,,,,,0,,
14723501,9048163676,Practical Foundations of Business System Specifications,9789048163670,,,,ES,2010/12/1,Springer,,false,2,14723501,0,0,0,0,2003/9/30,,,0,0,0,0,0,0.00,338,Paperback,,0,0,,,,"Haim Kilov,Ken Baclavski",,,,0,,
14724001,9048170354,Environmental Value Transfer: Issues and Methods,9789048170357,,,,ES,2010/11/22,Springer,,false,2,5369721,0,0,0,0,2006/12/20,,,0,0,0,0,0,0.00,292,Paperback,,0,0,,,,"Richard Ready,Stale Navrud",,,,0,,
14724501,3540534814,Entwurfstransaktionen Fur Modulare Objektsysteme: Synchronisierung in Objektorientierten Datenbanksystemen,9783540534815,,,,ES,1990/12/12,Springer,,false,1,14724501,0,0,0,0,1990/12/12,,,0,0,0,0,0,0.00,144,Paperback,,0,0,Henning Eckhardt,,,,,,,0,,
14725001,3540545387,"Werkzeugmaschinen - Grundlagen: Zerspantechnik, Dynamik, Baugruppen Und Steuerungen",9783540545385,,,,ES,1993/1/4,Springer,,false,2,14725001,0,0,0,0,1993/1/4,,,0,0,0,0,0,0.00,401,Paperback,,0,0,Joachim Milberg,,,,,,,0,,
14725501,905325076X,Vesting Antwerpen. De Brialmontforten,9789053250761,,,,ES,1997/1/1,Pandora - Snoeck - Ducaju & Zoon,nl,false,1,14725501,1,2,1,0,1997/1/1,,book,0,0,0,1,0,2.00,164,Hardcover,,1,0,,,,Piet Lombaerde,,,,0,,
14726001,9057023636,Introductory Financial Economics with Spreadsheets,9789057023637,,,,ES,1999/2/22,Routledge,,false,1,14726001,0,0,0,0,1998/12/1,,,0,0,0,0,0,0.00,216,Hardcover,,0,0,"Cornelis Van De Panne,De Panne Van",,,,,,,0,,
14726501,3540580387,Baumanagement,9783540580386,,,,ES,1996/3/21,Springer,,false,1,14726501,0,0,0,0,1996/3/21,,book,0,0,0,0,0,0.00,,Hardcover,Third Edition,0,0,Wolfgang Rvsel,,,,,,,0,,
14727001,906764076X,Analytical Chemistry of Minerals,9789067640763,,,,ES,1987/12/1,CRC Press,,false,1,14727001,0,0,0,0,1987/12/1,,,0,0,0,0,0,0.00,168,Hardcover,,0,0,A.T. Pilipenko,,,A.I. Samchuk,,,,0,,
14727501,9079761214,Why That Face,9789079761210,,,,ES,2011/9/1,Tectum Junior,,false,1,14727501,0,0,0,0,2011/9/1,,,0,0,0,0,0,0.00,16,Board Book,,0,0,Mariarosaria Tagliaferri,Alberto Spada,,,,,,0,,
14728001,3540617663,Fachwarterbuch Elektronische Medien Und Dienste/Dictionary of Electronic Media and Services: Deutsch/Englisch - Englisch/Deutsch. German/English - English/German,9783540617662,,,,ES,1997/1/1,Springer,,false,1,14728001,0,0,0,0,1997/1/1,,,0,0,0,0,0,0.00,497,Hardcover,,0,0,"H. E. Renouard,Renouard",,,,,,,0,,
14728501,9171066837,Chinese Medical Cooperation in Africa,9789171066831,,,,ES,2011/2/21,Nordic Africa Institute,,false,1,14728501,0,0,0,0,2011/2/21,,,0,0,0,0,0,0.00,28,Paperback,,0,0,"Anshan Li,Li Anshan",,,,,,,0,,
14729001,3540635203,Ein Planungsverfahren Zur Kapazitatsabstimmung Fur Modell-Mix-Montagelinien Am Beispiel Einer Automobil-Endmontage,9783540635208,,,,ES,1997/8/20,Springer,,false,1,14729001,0,0,0,0,1997/9/2,,,0,0,0,0,0,0.00,143,Paperback,,0,0,Norbert Leopold,,,,,,,0,,
14730501,3540664491,Strafrechtliche Produktverantwortung Und Zivilrecht: Zur Strafbarkeit Der Mitglieder Mehrkopfiger Geschaftsleitungsgremien Von Wirtschaftsunternehmen Unter Besonderer Berucksichtigung Des Gesellschafts- Und Allgemeinen Zivilrechts,9783540664499,,,,ES,1999/10/19,Springer,,false,1,14730501,0,0,0,0,1999/12/31,,,0,0,0,0,0,0.00,233,Paperback,,0,0,"Hendrik Hahfeld,Hendrik Hvhfeld",,,,,,,0,,
14731001,9264043438,Energy Policies of Iea Countries: Italy 2009,9789264043435,,,,ES,2010/2/24,Organization for Economic Co-Operation & Development,,false,1,14731001,0,0,0,0,2010/2/1,,,0,0,0,0,0,0.00,,Paperback,,0,0,,,,Organisation for Economic Co-operation and Development,,,,0,,
14731501,9287170746,Protection of Individuals with Regard to Automatic Processing of Personal Data in Context of Profiling - Recommendation CM/Rec(2010)13 and Explanatory Memorandum,9789287170743,,,,ES,2011/11/1,Council of Europe,,false,1,14731501,0,0,0,0,2011/11/1,,,0,0,0,0,0,0.00,,Paperback,,0,0,Council of Europe,,,,,,,0,,
14732001,3540797882,Kurzpsychotherapie in Der Rztlichen Praxis,9783540797883,,,,ES,1974/1/1,Springer,,false,1,14732001,0,0,0,0,1974/1/1,,,0,0,0,0,0,0.00,,Paperback,,0,0,H-R Rechenberger,,,,,,,0,,
14732501,3540923748,Osteosyntheses Des Fractures de La Rotule. Super-8 LT,9783540923749,,,,ES,1975/2/1,Springer,,false,4,14732501,0,0,0,0,1973/1/1,,,0,0,0,0,0,0.00,,Hardcover,,0,0,Bernhard G. Weber,,,,,,,0,,
14733001,3540937617,GE-Organische Verbindungen / Organogermanium Compounds 7,9783540937616,,,,ES,1998/2/1,Springer,,false,1,14733001,0,0,0,0,1997/12/18,,,0,0,0,0,0,0.00,347,Hardcover,,0,0,,,,,,,,0,,
14733501,946091828X,"Empirical Research in Vocational Education and Training, Vol. 3/2 (2011)",9789460918285,,,,ES,2012/1/3,Sense Publishers,,false,1,14733501,0,0,0,0,2012/1/3,,,0,0,0,0,0,0.00,82,Paperback,,0,0,,,,Stefan C. Wolter,,,,0,,
14734001,9577479138,The Mysteries Of Animals,9789577479136,,,,ES,2009/2/1,You Fu,,false,1,14734001,0,0,0,0,2009/2/1,,,0,0,0,0,0,0.00,400,Hardcover,,0,0,Haihong Jin,,,,,,,0,,
14734501,9655241173,Between the Lines of the Bible: Exodus: A Study from the New School of Orthodox Torah Commentary,9789655241174,,,,ES,2012/3/1,Urim Publications,,false,1,14734501,10,22,5,0,2012/3/14,,book,2,3,0,0,0,4.40,220,Hardcover,,5,0,Yitzchak Etshalom,,,,,,3,0,1,
14735001,9681623223,Sueno de Un Mediodia de Verano,9789681623227,,,,ES,,,,false,3,28441924,38,105,25,3,1980/1/1,,book,10,10,5,0,0,4.20,,,,1,0,Yiannis Ritsos,,,,,,10,1,,poetry
14735501,9683806538,Dios,9789683806536,,,,ES,,,,false,1,14735501,0,0,0,0,1997/9/9,,,0,0,0,0,0,0.00,,,,0,0,"Arene Fohri,Irene Fohri",,,,,,,0,,
14736001,9748299678,Journey of a Voyage Up the Irrawaddy to Mandalay and Bhamo,9789748299679,,,,ES,2006/7/21,White Orchid Press,,false,5,3660996,3,12,3,1,1871/1/1,Journal of a voyage up the Irrawaddy to Mandalay and Bhamo,,1,1,1,0,0,4.00,102,Paperback,,0,0,James Talboys Wheeler,,,,,,,0,,
14736501,9812304851,The Indonesian Parliament and Democratization,9789812304858,,,,ES,2008/1/2,Institute of Southeast Asian Studies,,false,3,15244004,2,7,2,0,2008/1/1,,,0,1,1,0,0,3.50,256,Hardcover,,0,0,Patrick Ziegenhain,,,,,,,0,,
14737001,981430493X,Barycentric Calculus in Euclidean and Hyperbolic Geometry: A Comparative Introduction,9789814304931,,,,ES,2010/8/26,World Scientific Publishing Company,,false,3,14737001,2,0,0,0,2010/8/26,,,0,0,0,0,0,0.00,344,Hardcover,,0,0,Abraham Albert Ungar,,,,,,2,0,,
14737501,9814374342,Global Solution Curves for Semilinear Elliptic Equations,9789814374347,,,,ES,2012/2/13,World Scientific Publishing Company,,false,1,14737501,1,0,0,0,2012/2/28,,,0,0,0,0,0,0.00,256,Hardcover,,0,0,Philip Korman,,,,,,1,0,,
14738001,9866405028,Blue Bird,9789866405020,,,,ES,2009/6/1,Zhong Guo Dian Li Chu Ban She/Tsai Fong Books,,false,1,14738001,4,3,1,0,2009/6/1,,,0,0,1,0,0,3.00,176,Paperback,,1,0,Maurice Maetrlinck,,,,,,2,0,,
14738501,9948450248,Dubai Mini Visitors Guide: Dxb_min_5,9789948450245,,,,ES,2011/12/1,Explorer Publishing,,false,1,14738501,0,0,0,0,2011/12/1,,,0,0,0,0,0,0.00,,Paperback,,0,0,Explorer Publishing,,,,,,,0,,
14739001,0670049344,The best of the Week 1982-2002,,,,,ES,2002/1/1,Penguin Enterprise,eng,false,1,14739001,3,9,2,0,2002/1/1,,book,1,1,0,0,0,4.50,211,Hardcover,,2,0,Various,,,,,,1,0,,
14739501,,Love Unlisted,,B006VYZXE2,,,ES,2012/1/9,,eng,true,3,12911388,2743,4447,1308,114,2011/10/17,,book,209,393,470,184,52,3.40,226,Kindle Edition,,392,15,Stephanie Haddad,,,,,,1073,32,31,"adult,adult-fiction,chick-lit,contemporary,family,fiction,funny,music,novels,romance"
14740001,1770974539,The Bedraggled Dragon,9781770974531,,,,ES,2012/5/3,FriesenPress,eng,false,2,14740001,3,7,3,1,2012/4/30,,book,0,1,0,1,1,2.33,32,Paperback,,3,1,Diane Purdy,,,,,,,0,,animals
14740501,,The Gangster's Daughter,,B00854FPSK,,,ES,2012/5/21,Astraea Press,en-GB,true,3,14740501,20,32,9,7,2012/1/1,,book,2,2,4,1,0,3.56,,Kindle Edition,,7,4,Kendall Evans,,,,,,6,1,,"fiction,novella,romance,short-stories,suspense"
14741001,,Alien Sex Tape,2940013945555,,,,ES,2012/2/16,Maisie Ruckus,eng,true,3,14741001,15,25,8,2,2012/2/15,,book,3,1,0,2,2,3.12,26,,,7,1,Maisie Ruckus,,,,,,5,-1,1,
14741501,,Masro Fhin: Homecoming,9781476424934,,,,ES,2012/3/1,Robert C. Mason,eng,true,1,14741501,2,8,2,0,2012/3/1,,book,0,2,0,0,0,4.00,,ebook,1st,2,0,Robert C.  Mason,,,,,,,0,,
14742001,,Levji delež,,,,,ES,,,,false,1,14742001,0,0,0,0,,,book,0,0,0,0,0,0.00,,,,0,0,Dimitrij Rupel,,,,,,,0,,
14742501,,Ko se zvezda utrne z neba,,,,,ES,,,,false,1,14742501,0,0,0,0,,,book,0,0,0,0,0,0.00,,,,0,0,Marija Vogrič,,,,,,,0,,
14743001,,Hodnik,,,,,ES,,,,false,1,14743001,8,23,5,0,,,book,3,2,0,0,0,4.60,,,,5,0,Matjaž Župančič,,,,,,,0,,
14743501,1849839786,Living Life the Essex Way,9781849839785,,,,ES,2012/5/1,Simon & Schuster,en-GB,false,7,14743501,256,396,133,11,2012/4/26,,book,23,21,38,32,19,2.98,214,Hardcover,,94,6,Sam Faiers,,,,,,58,4,7,"memoir,non-fiction"
14744001,,Brontë Moors and Villages from Thornton To Haworth,,,,,ES,1932/1/1,The Bodley Head,eng,false,2,14743999,5,0,0,0,1923/1/1,,book,0,0,0,0,0,0.00,190,Hardcover,,0,0,Elizabeth Southwart,Thomas Mackenzie,,,,,5,1,,
14744501,,Las sirenas del invierno,9788408109839,,,,ES,2012/6/1,Planeta,spa,false,18,13554707,1906,3625,1084,200,2012/1/1,The J.M. Barrie Ladies' Swimming Society,book,145,331,409,150,49,3.34,320,Flexible con solapas,,61,10,Barbara J. Zitwer,,,,,,44,33,20,"chick-lit,contemporary,fiction,historical-fiction,modern,romance"
14745001,5554129749,Fourplay,,,,,ES,,,,false,1,14745001,0,0,0,0,,,,0,0,0,0,0,0.00,,,,0,0,,,,,,,,0,,
14746001,5550046210,Halloween: Trick or Truth?,,,,,ES,,,,false,1,14746001,0,0,0,0,,,,0,0,0,0,0,0.00,,,,0,0,,,,,,,,0,,
14746501,5557682872,Treasures,,,,,ES,1995/12/1,Easy 2 Excel,,false,4,15088373,1,0,0,0,1995/12/1,,,0,0,0,0,0,0.00,,,,0,0,Tom Fettke,,,,,,,0,,
14747001,,A Happy Christmas,,,,,ES,1933/1/1,"Hodder and Stoughton Limited, London",eng,false,1,14747001,3,8,2,2,1933/1/1,,book,1,0,1,0,0,4.00,64,Hardcover,,2,2,Hugh Redwood,,,,,,1,0,,
14747501,5559272612,Great Hymns of Faith: Volume Six: Satb,,,,,ES,,,,false,1,14747501,0,0,0,0,,,,0,0,0,0,0,0.00,,,,0,0,,,,,,,,0,,
14748001,,The Middle Princess,9781105757044,,,,ES,2012/5/13,A Place For Us/POFFF.COM,eng,true,1,14748001,2,5,1,0,2012/5/13,,book,1,0,0,0,0,5.00,48,ebook,Second Edition,1,0,Melanie A. Stinson,,,,,,1,0,,
14748501,0005132959,Worship and Praise from Age to Age,9780005132951,,,,ES,1996/7/31,Brentwood Benson,,false,1,14748501,0,0,0,0,1996/7/1,,,0,0,0,0,0,0.00,,Paperback,,0,0,,,L. Mayfield,,,,,0,,
14749001,0006190693,Reason to Rejoice,9780006190691,,,,ES,1983/7/31,Lillenas Publishing Company,,false,1,14749001,0,0,0,0,1983/7/31,,,0,0,0,0,0,0.00,,Paperback,,0,0,,,Mosie Lister,,,,,0,,
14749501,0010671242,Comprehensive Guide to Steam Sterilization and Sterility Assurance in Health Care Facilities,9780010671247,,,,ES,,,,false,1,14749501,0,0,0,0,,,,0,0,0,0,0,0.00,,,,0,0,Aami,,,,,,,0,,
14750001,0026720108,Blueprint Read Sketch,9780026720106,,,,ES,,,,false,1,14750001,0,0,0,0,,,,0,0,0,0,0,0.00,,,,0,0,,,,,,,,0,,
14750501,0028800702,Great Soviet Encyclopedia,9780028800707,,,,ES,1975/9/1,MacMillan Publishing Company,,false,11,14750499,8,5,1,0,1974/12/1,,,1,0,0,0,0,5.00,678,Hardcover,,0,0,Halsey,,,,,,5,0,,
14751001,0030224926,College Physics,9780030224928,,,,ES,1997/11/1,Harcourt Brace College Publishers,,false,58,125143,489,523,138,8,1985/1/1,College Physics,book,49,37,32,14,6,3.79,,Paperback,,0,0,Raymond A. Serway,,,,,,235,2,24,"education,non-fiction,reference,school,science,technology,textbooks"
14751501,0030369266,Cr #29 the Sun Earth Sci 2006,9780030369261,,,,ES,2006/1/1,Holt McDougal,,false,1,14751501,0,0,0,0,,,,0,0,0,0,0,0.00,,Paperback,,0,0,"Holt, Rinehart, and Winston, Inc.",,,,,,,0,,
14752001,0030410746,Elements of Literature: Adapted Reading Bundle Second Course,9780030410741,,,,ES,2004/1/1,Holt McDougal,,false,1,14752001,0,0,0,0,2004/1/1,,,0,0,0,0,0,0.00,,Hardcover,,0,0,"Holt, Rinehart, and Winston, Inc.",,,,,,,0,,
14752501,0030459095,Spn Study GD HS&T 2007 Life,9780030459092,,,,ES,,Holt McDougal,,false,1,14752501,0,0,0,0,,,,0,0,0,0,0,0.00,,Paperback,,0,0,"Holt, Rinehart, and Winston, Inc.",,,,,,,0,,
14753001,0030526930,Teaching Res Ven Conmigo! LV 2 2000,9780030526930,,,,ES,1999/4/1,Holt McDougal,,false,1,14753001,1,0,0,0,1999/4/1,,,0,0,0,0,0,0.00,,Unknown Binding,,0,0,"Holt, Rinehart, and Winston, Inc.",,,,,,,0,1,
14753501,0030564034,Communications Eolang 2001 G 6,9780030564031,,,,ES,,,,false,1,14753501,0,0,0,0,,,,0,0,0,0,0,0.00,,,,0,0,"Holt, Rinehart, and Winston, Inc.",,,,,,,0,,
14754001,0030658489,WV One-Stop Planner Eolit 2000 G 9,9780030658488,,,,ES,,,,false,1,14754001,0,0,0,0,,,,0,0,0,0,0,0.00,,,,0,0,"Holt, Rinehart, and Winston, Inc.",,,,,,,0,,
14754501,0030684064,Holt Reader TM Eolit 2005 G 12,9780030684067,,,,ES,,,,false,1,14754501,0,0,0,0,,,,0,0,0,0,0,0.00,,,,0,0,"Holt, Rinehart, and Winston, Inc.",,,,,,,0,,
14755001,0030745764,Tpr Storytelling Bk Expresate 2006 LV 2,9780030745768,,,,ES,,Holt McDougal,,false,1,14755001,0,0,0,0,,,,0,0,0,0,0,0.00,,Paperback,,0,0,"Holt, Rinehart, and Winston, Inc.",,,,,,,0,,
14755501,0030799473,Crf Ch #4 Holt California Sci 2007 Life,9780030799471,,,,ES,2007/1/1,Holt McDougal,,false,1,14755501,0,0,0,0,,,,0,0,0,0,0,0.00,,Paperback,,0,0,"Holt, Rinehart, and Winston, Inc.",,,,,,,0,,
14756001,0030941814,Il Holt Math Tst Prep Ansky M/S&h/S 2007,9780030941818,,,,ES,2007/1/1,Holt McDougal,,false,1,14756001,0,0,0,0,,,,0,0,0,0,0,0.00,,Paperback,,0,0,"Holt, Rinehart, and Winston, Inc.",,,,,,,0,,
14756501,0030993660,Vocab Wkshp Test G7 Holt Traditions 2008,9780030993664,,,,ES,2008/1/1,Holt McDougal,,false,1,14756501,0,0,0,0,,,,0,0,0,0,0,0.00,,Paperback,,0,0,"Holt, Rinehart, and Winston, Inc.",,,,,,,0,,
14757001,0060211482,Messiah-Audio & Book,9780060211486,,,,ES,1992/10/1,HarperCollins Publishers,,false,70,621409,558,1689,362,18,1980/10/1,The Messiah: An Oratorio Complete Vocal Score (G. Schirmer's Editions of Oratorios and Cantatas),book,271,65,23,2,1,4.67,48,Hardcover,,0,0,Georg Friedrich Händel,,,,,,81,11,4,"art,childrens,classics,history,love,music,non-fiction,picture-books,poetry,reference,teaching,theatre"
14757501,006082199X,Iron Man: Comic Book (Manga),9780060821999,,,,ES,2009/1/1,HarperFestival,,false,1,14757501,2,0,0,0,2009/1/1,,,0,0,0,0,0,0.00,48,Paperback,,0,0,,,,,,,1,0,,
14758001,0061062618,The Curse,9780061062612,,,,ES,,,,false,3,1720001,84,107,31,4,1993/10/1,"The Curse (Dark Moon Legacy, Vol 1)",book,7,7,12,3,2,3.45,,,,0,0,Cynthia Blair,,,,,,32,3,,"high-school,horror,mythology,supernatural,teen,urban-fantasy,werewolves,young-adult"
14758501,0061661252,Emily Post's Parties: A Guide to Planning and Throwing Great Parties at Home,9780061661259,,,,ES,,,,false,1,14758501,5,0,0,0,,,,0,0,0,0,0,0.00,,,,0,0,"Anna Post,Lizzie Post",,,,,,5,0,,
14759001,883680022X,Conversazioni di profughi tedeschi (Unterhaltungen deutscher Ausgewanderten),9788836800223,,,,ES,1984/1/1,Passigli,ita,false,31,6413899,243,427,126,8,1795/1/1,Unterhaltungen Deutscher Ausgewanderten,book,11,47,52,12,4,3.39,198,Paperback,,3,0,Johann Wolfgang von Goethe,,,,,,70,4,2,"academic,classics,fiction,literature"
14759501,3762607559,Der sinnliche Draht zur geistigen Welt,,,,,ES,2000/1/1,Bauer,ger,false,2,14759501,2,2,1,0,1995/1/1,Der sinnliche Draht zur geistigen Welt,book,0,0,0,1,0,2.00,464,Hardcover,,1,0,Linda Roethlisberger,,,,,,,1,1,"psychology,self-help"
14760001,9985630254,Koopaneiu,,,,,ES,1997/1/1,Stella,est,false,99,589899,971,1947,528,39,1913/7/1,The Cave Girl,book,117,187,173,44,7,3.69,157,Paperback,,1,0,Edgar Rice Burroughs,,,,,,262,15,2,"action,adult,adventure,classics,fantasy,fiction,novels,romance,science,science-fiction,science-fiction-fantasy,speculative-fiction"
14760501,1446468267,The Night Circus,9781446468265,,,,ES,2011/1/1,Harvil Seeker,eng,true,132,9361589,1090181,2267487,561475,62147,2011/9/13,The Night Circus,book,228510,186621,99104,33901,13339,4.04,512,ebook,Ebook,31,7,Erin Morgenstern,,,,,,15190,3629,545,"adult,adult-fiction,adventure,contemporary,fantasy,fiction,historical,historical-fiction,literary-fiction,love,magic,magical-realism,mystery,novels,paranormal,romance,supernatural,unfinished,urban-fantasy,young-adult"
14761001,,النبي الأعزل تروتسكي 1921 - 1929,,,,,ES,1982/1/1,المؤسسة العربية للدراسات والنشر ,ara,false,15,184674,1204,1713,391,22,1959/12/31,The Prophet Unarmed: Trotsky 1921-29,book,224,109,46,7,5,4.38,472,Paperback,,10,1,"Isaac Deutscher,إسحق دويتشر",,,,,,122,12,13,"biography,biography-memoir,classics,history,memoir,non-fiction,politics,reference"
14761501,,The Apostle : A Life of Paul,,B006J9DFDA,,,ES,2010/11/1,David,eng,true,20,1718916,3628,5123,1210,149,1969/1/1,The Apostle : A Life of Paul,book,577,396,193,31,13,4.23,306,Kindle Edition,,574,51,John Charles Pollock,,,,,,1399,18,682,"amazon,biography,biography-memoir,christian,christian-fiction,christianity,faith,fiction,historical-fiction,history,non-fiction,philosophy,reference,religion,spirituality,theology"
14762001,,Eaters of the Dead,,,,,ES,1999/1/1,"Recorded Books, LLC",eng,false,92,7673,48573,116689,31884,1436,1976/3/12,Eaters of the Dead,book,7102,11368,9674,2945,795,3.66,6,Audio CD,,8,4,Michael Crichton,,,,,George Guidall,9875,9,649,"action,adult,adult-fiction,adventure,american,classics,contemporary,criticism,epic,fantasy,fiction,historical,historical-fiction,history,horror,literature,medieval,modern,mystery,mystery-thriller,mythology,non-fiction,novels,poetry,science,science-fiction,speculative-fiction,suspense,thriller"
14762501,1477571523,How To Eat A Human Being,9781477571521,,,,ES,2012/6/1,createspace,eng,false,8,14762501,52,89,23,4,2011/8/8,,book,8,8,4,2,1,3.87,220,Paperback,,9,2,Dan Dillard,,,,,,17,1,1,
14763001,0716501732,Irish University Press Series of British Parliamentary Papers: Religion,9780716501732,,,,ES,1968/1/1,Irish Academic Press,,false,1,14763001,0,0,0,0,1968/1/1,,,0,0,0,0,0,0.00,,Hardcover,,0,0,,,Great Britain,,,,,0,,
14764001,0470517026,Child Nursing Clinical Skills: A Scenario-Based Approach,9780470517024,,,,ES,,,,false,1,14764001,0,0,0,0,,,,0,0,0,0,0,0.00,,,,0,0,Jackie Vasey,,,,,,,0,,
14764501,0716725258,Understanding earth: program & chapters 1-23,9780716725251,,,,ES,,,,false,1,14764501,0,0,0,0,,,book,0,0,0,0,0,0.00,,,,0,0,Simon Muir Peacock,,,,,,,0,,
14765001,0470672838,Reformation Thought: An Introduction,9780470672839,,,,ES,2012/3/19,Wiley-Blackwell,,false,21,53952,520,829,210,27,1941/12/12,Reformation Thought: An Introduction,book,58,96,45,9,2,3.95,304,Hardcover,,0,0,Alister E. McGrath,,,,,,175,8,18,"academic,christian,christianity,grad-school,history,non-fiction,philosophy,reference,religion,textbooks,theology"
14765501,0470770031,"Burger's Medicinal Chemistry, Drug Discovery and Development",9780470770030,,,,ES,,,,false,2,14765501,2,5,1,0,,,,1,0,0,0,0,5.00,,,,1,0,Donald J. Abraham,,,,,,1,0,,
14766001,0070493855,Storefronts and Facades,9780070493858,,,,ES,,,,false,3,10080628,3,1,1,0,,,,0,0,0,0,1,1.00,,,,0,0,Martin M. Pegler,,,,,,2,0,,
14766501,0070592365,Concepts of Object-Oriented Programming: With Examples in SmallTalk,9780070592360,,,,ES,1995/5/1,McGraw-Hill Companies,,false,2,3960809,3,3,1,0,1991/6/1,Concepts of Object-Oriented Programming (Programming Languages),,0,0,1,0,0,3.00,320,Hardcover,,0,0,David N. Smith,,,,,,2,0,,
14767001,031244933X,The Bedford Reader 8e and Writer's Reference 5e with 2003 MLA Update: An Electronic Writer's Reference 5.0 [With CDROM],9780312449339,,,,ES,,,,false,100,101301,543,640,178,13,1985/1/1,The Bedford Reader,book,45,61,41,17,14,3.60,,,,0,0,"Dorothy M. Kennedy,Jane E. Aaron,X.J. Kennedy",,,,,,208,12,21,"academic,essays,language,literature,non-fiction,reference,school,teaching,textbooks,writing"
14767501,071720586X,Home and School Reading and Study Guides: The New Book of Knowledge,9780717205868,,,,ES,,,,false,2,14767501,2,2,1,0,2003/1/1,,,0,0,0,1,0,2.00,,,,0,0,Donna M. Lusardi,,,,,,1,0,,
14768001,0471084050,Advances in Enzymology and Related Areas of Molecular Biology,9780471084051,,,,ES,1982/1/25,Wiley-Interscience,,false,274,16919279,139,0,0,0,1944/1/15,,,0,0,0,0,0,0.00,460,Hardcover,,0,0,,,,Alton Meister,,,51,0,49,
14768501,0471107840,"Financial Accounting, Lotus Problems",9780471107842,,,,ES,1995/4/21,Wiley,,false,3,15379425,0,0,0,0,1995/4/21,,,0,0,0,0,0,0.00,191,Paperback,,0,0,"Donald E. Kieso,Jerry J. Weygandt",,,,,,,0,,
14769001,0563443235,Paradise of Earth,9780563443230,,,,ES,2001/7/6,London Bridge,,false,1,14769001,0,0,0,0,,,,0,0,0,0,0,0.00,,Audio CD,,0,0,,,,,,,,0,,
14769501,0471159069,"Intermediate Accounting,, Study Guide",9780471159063,,,,ES,1997/10/16,Wiley,,false,3,14769507,7,10,2,0,1997/8/27,,,2,0,0,0,0,5.00,416,Paperback,,0,0,"Donald E. Kieso,Jerry J. Weygandt",,,,,,2,0,,textbooks
14770001,0471190012,Perspectives in Solid State Chemistry,9780471190011,,,,ES,1999/9/1,Wiley,,false,1,14770001,1,0,0,0,1999/9/1,,,0,0,0,0,0,0.00,410,Paperback,,0,0,,,,K.J. Rao,,,,0,,
14770501,0312858922,Science Fiction & Fantasy Awards,9780312858926,,,,ES,1999/1/1,,,false,1,14770501,0,0,0,0,1999/1/1,,book,0,0,0,0,0,0.00,,,,0,0,Hartwell*,,,,,,,0,,
14771001,0312918712,Edmund's 1992 Used Car Prices October/January,9780312918712,,,,ES,,,,false,1,14771001,0,0,0,0,,,,0,0,0,0,0,0.00,,,,0,0,Edmunds Publications,,,,,,,0,,
14772001,0721630960,Heart Disease: A Textbook of Cardiovascular Medicine,9780721630960,,,,ES,1991/11/1,W.B. Saunders Company,,false,1,14772001,0,0,0,0,1991/11/1,,,0,0,0,0,0,0.00,2112,Hardcover,,0,0,Eugene Braunwald,,,,,,,0,,
14772501,0571505597,"Inner Light 2: Full Score, Score",9780571505593,,,,ES,1998/12/1,Faber & Faber,,false,1,14772501,0,0,0,0,1998/12/1,,book,0,0,0,0,0,0.00,,Paperback,,0,0,,,,,,,,0,,
14773001,0722527888,"Water Birth: The Concise Guide to Using Water During Pregnancy, Birth and Infancy",9780722527887,,,,ES,,,,false,3,1208496,216,275,66,6,1992/1/1,The Water Birth Book: From the World-renowned Natural Childbirth Pioneer,,24,31,9,2,0,4.17,,,,1,0,Janet Balaskas,,,,,,120,4,3,"adult,amazon,education,health,parenting"
14773501,0723267340,The Tale of a Silly Little Duck. Based on the Tale by Beatrix Potter,9780723267348,,,,ES,2012/3/1,Frederick Warne and Company,,false,1,14773501,8,20,5,1,2012/3/1,,,1,3,1,0,0,4.00,26,Paperback,,5,1,Mark Burgess,,,,,,1,0,,
14774001,0723606838,Systemic Disease for Dental Students,9780723606833,,,,ES,,,,false,1,14774001,0,0,0,0,,,,0,0,0,0,0,0.00,,,,0,0,"S.J. Leinster,T.J. Bayley",,,,,,,0,,
14774501,0471452572,Bioinstrumentation,9780471452577,,,,ES,2004/10/6,John Wiley & Sons,,false,2,937288,38,47,12,0,2003/8/18,Bioinstrumentation,,6,2,2,1,1,3.92,383,Hardcover,,0,0,,,John G. Webster,,,,21,0,1,textbooks
14775001,0313333297,The Greenwood Encyclopedia of Daily Life: Print and Online,9780313333293,,,,ES,,,,false,1,14775001,1,0,0,0,,,,0,0,0,0,0,0.00,,,,0,0,,,,Joyce E. Salisbury,,,1,0,,
14775501,0313344019,The Greenwood Encyclopedia of Latin Music: Volume 3,9780313344015,,,,ES,2009/11/1,Greenwood Publishing Group,,false,1,14775501,1,0,0,0,,,,0,0,0,0,0,0.00,400,Hardcover,,0,0,Ilan Stavans,,,,,,1,0,,
14776001,0578071746,Rene's Bouquets for Brides: Twenty-Five Styles of Fashion Forward Floral Creations,9780578071749,,,,ES,2011/6/15,Rene Van Rems,,false,1,14776001,0,0,0,0,2011/7/1,,,0,0,0,0,0,0.00,156,Hardcover,,0,0,René van Rems,,,,,,,0,,
14776501,073476328X,Parallel Visions: Works from the Australian Collection,9780734763280,,,,ES,2002/1/1,Art Gallery of New South Wales,,false,1,14776501,1,0,0,0,2002/1/1,,,0,0,0,0,0,0.00,148,Unknown Binding,,0,0,"Art Gallery of New South Wales,Rupert Bunny",,,,,,1,0,,
14777001,0314077049,"Accounting, Chapters 16-28",9780314077042,,,,ES,,,,false,1,14777001,0,0,0,0,,,,0,0,0,0,0,0.00,,,,0,0,Janet Cassagio,,,,,,,0,,
14777501,0077202821,"Quest Listening and Speaking, 2nd Edition - Intro Level (Low Intermediate) - Student Book W/ Full Audio Download",9780077202828,,,,ES,,,,false,1,14777501,3,0,0,0,,,,0,0,0,0,0,0.00,,,,0,0,"Blass Laurie,Pamela Hartmann",,,,,,3,0,,
14778001,031416894X,"Civil Procedure: Cases, Problems and Exercises: Teacher's Manual",9780314168948,,,,ES,2006/1/1,Thomson West,,false,2,5171827,1,2,1,0,2008/1/1,"Civil Procedure: Cases, Problems and Excercises-Teacher's Manual",book,0,0,0,1,0,2.00,898,Hardcover,,0,0,John T. Cross,,,,,,,0,,
14778501,0077499999,Psychology: The Science of Mind and Behavior,9780077499990,,,,ES,2011/1/14,McGraw-Hill,,false,23,2492250,459,559,148,4,2003/8/28,Psychology: The Science of Mind and Behavior,book,36,56,44,11,1,3.78,1632,Unbound,,1,0,"Michael W. Passer,Ronald E. Smith",,,,,,159,3,19,"academic,business,non-fiction,psychology,reference,school,science,textbooks"
14779001,0735579636,Criminal Law: The Essentials,9780735579637,,,,ES,,,,false,1,14779001,0,0,0,0,,,,0,0,0,0,0,0.00,,,,0,0,Debbie Coughlin,,,,,,,0,,
14779501,0314902058,Advanced Manual for the Lawyer's Assistant,9780314902054,,,,ES,,,,false,3,14779864,2,3,1,0,2006/1/1,,,0,0,1,0,0,3.00,,,,0,0,National Association of Legal Secretarie,,,,,,1,0,,
14780001,0736000224,Resistance Training for Health and Disease,9780736000222,,,,ES,,,,false,1,14780001,0,0,0,0,,,,0,0,0,0,0,0.00,,,,0,0,,,,Michael Pollock,,,,0,,
14780501,0736051333,Journal of Physical Activity and Health - Print Subscription,9780736051330,,,,ES,,,,false,1,14780501,1,0,0,0,,,,0,0,0,0,0,0.00,,,,0,0,Human Kinetics,,,,,,1,0,,
14781001,0471797057,Science Explorations,9780471797050,,,,ES,,,,false,1,14781001,0,0,0,0,,,,0,0,0,0,0,0.00,,,,0,0,A.J. Hirsch,,,,,,,0,,
14781501,0316224138,"NYPD Red (NYPD Red, #1)",9780316224130,,,,ES,2012/10/8,"Little, Brown and Company",eng,false,51,14781501,52417,116594,29709,2094,2012/10/8,NYPD Red,book,9358,11265,7100,1458,528,3.92,512,Hardcover,Large Print,22457,1665,"James Patterson,Marshall Karp",,,,,,13113,141,1210,"action,adult,adult-fiction,adventure,contemporary,crime,detective,fiction,murder-mystery,mystery,mystery-thriller,suspense,thriller"
14782001,0471885282,Medical Word Processing Simulation,9780471885283,,,,ES,1985/2/1,Prentice Hall,,false,1,14782001,0,0,0,0,1985/2/1,,,0,0,0,0,0,0.00,117,Hardcover,,0,0,"Linda F. Klafehn,Marilyn G. Fowler",,,,,,,0,,
14782501,0736841458,Maneras de Comunicar / Ways we Communicate (Yellow Umbrella: Social Studies ~ Spanish),9780736841450,,,,ES,2005/1/1,Capstone Press,,false,2,14782501,0,0,0,0,2002/9/1,,book,0,0,0,0,0,0.00,20,Hardcover,,0,0,"Ellen Catala,Susan Ring",,,,,,,0,,
14783001,0083535047,Medical Rehabilitation Standards Manual 2009,9780083535040,,,,ES,2009/1/1,Carf,,false,1,14783001,0,0,0,0,2009/1/1,,,0,0,0,0,0,0.00,,Paperback,,0,0,CARF,,,,,,,0,,
14783501,0737718595,France,9780737718591,,,,ES,2004/1/1,Greenhaven Press,,false,2,15228720,0,0,0,0,2004/1/1,,,0,0,0,0,0,0.00,,Unknown Binding,,0,0,,,Tara Koellhoffer,,,,,0,,
14784001,0471975591,Analysis & Assessment of Pollution in Water Resources,9780471975595,,,,ES,,,,false,1,14784001,0,0,0,0,,,,0,0,0,0,0,0.00,,,,0,0,"Forest L. Miller,Mark F. Tardiff",,,,,,,0,,
14784501,,Countess Dracula,,,,,ES,,,,false,4,1875341,311,616,178,15,2005/5/1,"Ella, Drácula",book,41,53,47,21,16,3.46,,,,1,0,Javier García Sánchez,,,,,,88,3,2,"biography,historical,historical-fiction,history,novels,vampires"
14785001,0473110199,Born on the Continent: Ubuntu,9780473110192,,,,ES,2006/1/1,Gertrude Matshe,,false,4,7320588,36,93,23,1,2006/1/1,,,10,7,4,1,1,4.04,254,Hardcover,,0,0,Getrude Matshe,,,,,,11,0,2,biography
14785501,0738497398,IBM Websphere Rfid Handbook: A Solution Guide,9780738497396,,,,ES,2006/1/1,IBM.Com/Redbooks,,false,1,14785501,0,0,0,0,2006/1/1,,,0,0,0,0,0,0.00,278,Paperback,,0,0,,,IBM Corporation,,,,,0,,
14786001,0321800362,Beginning & Intermediate Algebra,9780321800367,,,,ES,,,,false,40,417667,67,97,31,0,1996/1/1,Beginning and Intermediate Algebra,book,8,6,6,4,7,3.13,,,,0,0,Margaret L. Lial,,,,,,24,0,3,
14786501,0117017078,Bodywise,9780117017078,,,,ES,1993/12/1,Bernan Press(PA),,false,1,14786501,0,0,0,0,1993/12/1,,,0,0,0,0,0,0.00,64,Paperback,,0,0,"Childrens Hospital Birmingham,Peter Rowan",,,,,,,0,,
14787001,0323092829,Egan's Fundamentals of Respiratory Care - Pageburst E-Book on Vitalsource (Retail Access Card),9780323092821,,,,ES,2008/1/17,Mosby,,false,5,2624740,226,247,56,6,2003/6/11,"Egan's Fundamentals of Respiratory Care, Eighth Edition",,38,9,3,6,0,4.41,,Hardcover,,4,0,"James K. Stoller,Robert L. Wilkins,Robert M. Kacmarek",,,,,,129,0,14,reference
14787501,,"Return to You (Laurel Heights, #3)",,B007USQQ62,,,ES,2012/4/15,"Phoenix Rising Enterprises, Inc.",en-US,true,9,13605143,11621,26116,6844,303,2012/4/15,,book,1758,2630,1983,384,89,3.82,345,Kindle Edition,,1153,15,Kate Perry,,,,,,3212,80,143,"adult,adult-fiction,amazon,chick-lit,contemporary,erotica,fiction,love,new-adult,romance"
14788001,0738817554,Thirteen Nights on Mount Echo,9780738817552,,,,ES,,,,false,2,14788001,0,0,0,0,,,,0,0,0,0,0,0.00,,,,0,0,Stacy Harty,,,,,,,0,,
14788501,032422589X,Auditing: Concepts for a Changing Environment,9780324225891,,,,ES,2005/1/1,Thomson South-Western,,false,12,3631582,10,10,2,0,1996/10/1,,,2,0,0,0,0,5.00,788,Hardcover,,0,0,Larry E. Rittenberg,,,,,,1,0,,
14789001,0324642172,Colorado Real Estate Exam Prep: The Smart Guide to Passing,9780324642179,,,,ES,,,,false,2,14789001,0,0,0,0,2007/1/1,,,0,0,0,0,0,0.00,,,,0,0,Betty J. Armhurst,,,,,,,0,,
14789501,0127850503,Mastery of Obsessive-Compulsive Disorders Therapist Guide: A Cognitive-Behavioral Approach,9780127850504,,,,ES,1997/1/1,Academic Press,,false,1,14789501,1,0,0,0,,,,0,0,0,0,0,0.00,181,Paperback,,0,0,Michael J. Kozak,,,,,,1,0,,psychology
14790001,0330445502,The Science Museum Activity Book,9780330445504,,,,ES,,,,false,1,14790001,2,0,0,0,,,,0,0,0,0,0,0.00,,,,0,0,Gaby Morgan,,,,,,1,0,,"non-fiction,science"
14790501,0738856053,If Cubicles Could Talk: Conversation for the Female New Hire in Corporate America,9780738856056,,,,ES,2001/10/9,Xlibris Corporation,,false,2,14790501,0,0,0,0,2001/10/1,,,0,0,0,0,0,0.00,240,Hardcover,,0,0,Kim Beamon,,,,,,,0,,
14791001,0738864250,Attack of the Movie Stars,9780738864259,,,,ES,,,,false,2,14791004,0,0,0,0,,,,0,0,0,0,0,0.00,,,,0,0,M. E. Daley,,,,,,,0,,
14792001,0739043471,The Music Tree: Christmas: Part 1,9780739043479,,,,ES,,,,false,2,14792173,2,4,1,1,2006/8/1,,,0,1,0,0,0,4.00,,,,0,0,Louise Goss,,,,,,1,4,,"academic,music"
14792501,0739130641,Niccolo Machiavelli: The Laughing Lion and the Strutting Fox,9780739130643,,,,ES,2010/2/3,Lexington Books,,true,1,14792501,6,15,3,0,2009/1/1,,,3,0,0,0,0,5.00,220,ebook,,3,0,Raymond A. Belliotti,,,,,,4,0,,
14793001,0739174800,Participation and Empowerment at the Grassroots: Chinese Village Elections in Perspective,9780739174807,,,,ES,2012/5/16,Lexington Books,,true,4,14793001,1,0,0,0,2012/4/19,,,0,0,0,0,0,0.00,236,ebook,,0,0,Gunter Schubert,,,,,,1,0,,
14793501,0335205127,"How to Win as a Final Year Student: Essays, Exams, and Employment",9780335205127,,,,ES,2001/1/1,Open University Press,,false,3,13706323,1,4,1,0,2000/1/1,,,0,1,0,0,0,4.00,181,Hardcover,,0,0,Phil Race,,,,,,,0,,
14794501,0606141413,Meg Mackintosh and the Mystery in the Locked Library,9780606141413,,,,ES,,,,false,8,426225,138,202,53,7,1993/1/1,Meg Mackintosh and the Mystery in the Locked Library: A Solve-It-Yourself Mystery (Meg Mackintosh Mystery series),book,16,20,11,3,3,3.81,,,,0,0,Lucinda Landon,,,,,,34,7,3,"childrens,fiction,mystery"
14795001,0340972734,A2 Sociology. Religion Workbook,9780340972731,,,,ES,2010/2/1,Philip Allan,,false,1,14795001,1,0,0,0,2010/2/1,,,0,0,0,0,0,0.00,,Paperback,,0,0,Joan Garrod,,,,,,,0,,religion
14795501,0739863517,Manual Software GED 21st Century Pkg,9780739863510,,,,ES,,,,false,1,14795501,1,0,0,0,,,,0,0,0,0,0,0.00,,Paperback,,0,0,Various,,,,,,1,0,,
14796001,0132943611,Digital Media Primer -- Access Card,9780132943611,,,,ES,2012/3/1,Prentice Hall,,false,1,14796001,0,0,0,0,2012/3/1,,,0,0,0,0,0,0.00,,Hardcover,,0,0,Yue-Ling Wong,,,,,,,0,,
14796501,0133217205,"500 Greatest Science Fiction, Fantasy and Horror Films on Video",9780133217209,,,,ES,,,,false,1,14796501,2,0,0,0,,,,0,0,0,0,0,0.00,,,,0,0,Paul M. Sammon,,,,,,2,0,,
14797001,0606272739,100 Native Americans Who Shaped American History,9780606272735,,,,ES,2003/1/1,Turtleback Books,,false,4,1384326,33,34,10,3,2002/6/1,100 Native Americans Who Changed American History (People Who Changed American History),book,2,1,6,1,0,3.40,,Hardcover,,0,0,Bonnie Juettner,,,,,,11,2,1,"adult,biography,historical,history,reference,sociology"
14797501,0609811002,Computadoras Para Todos,9780609811009,,,,ES,,,,false,1,14797501,0,0,0,0,,,,0,0,0,0,0,0.00,,,,0,0,Jaime A. Restrepo,,,,,,,0,,
14798001,0138807744,System Prog Parallel Logic Lang,9780138807740,,,,ES,1990/1/1,Prentice Hall,,false,1,14798001,0,0,0,0,1990/1/1,,book,0,0,0,0,0,0.00,194,Paperback,,0,0,Ian Foster,,,,,,,0,,
14798501,0613102606,Postcards from France,9780613102605,,,,ES,1998/5/1,Turtleback Books,,false,5,855538,345,551,158,20,1997/3/1,Postcards from France,book,23,50,68,15,2,3.49,,Hardcover,,0,0,Megan McNeill Libby,,,,,,147,9,1,"biography,france,humor,memoir,non-fiction,teen,travel,young-adult"
14799001,052108699X,A Dictionary of the Flowering Plants and Ferns,9780521086998,,,,ES,1973/7/26,Cambridge University Press,,false,6,14799001,2,0,0,1,1973/8/31,,book,0,0,0,0,0,0.00,1236,Hardcover,,0,1,J.C. Willis,,,,,,1,0,,
14799501,0140569758,"Angelina, Star of the Show",9780140569759,,,,ES,2005/1/27,Puffin Books,,false,6,1812771,258,566,150,13,2005/1/27,"Angelina, Star of the Show (Angelina Ballerina)",book,34,53,58,5,0,3.77,24,Paperback,,3,0,Katharine Holabird,,,,,,27,13,,"childrens,fiction,picture-books"
14800001,0521223776,The Roman World Foundation Course 2 Teacher's Handbook,9780521223775,,,,ES,1980/5/30,Cambridge University Press,,false,1,14800001,0,0,0,0,1980/4/10,,,0,0,0,0,0,0.00,160,Paperback,,0,0,Cambridge School Classics Project,,,,,,,0,,
14800501,0373155417,One Fateful Summer,9780373155415,,,,ES,1994/1/1,Harlequin Books,,false,5,3200170,66,95,30,2,1993/12/1,"One Fateful Summer (Harlequin Romance No, 3295)",,3,5,17,4,1,3.17,,Paperback,Larger Print Romance,1,0,Margaret Way,,,,,,2,2,1,
14801001,0613520815,I Like Bagels,9780613520812,,,,ES,,,,false,1,14801001,0,0,0,0,,,,0,0,0,0,0,0.00,,,,0,0,R. Pickering,,,,,,,0,,
14801501,0613589858,Let's Go to a Car Race,9780613589857,,,,ES,,,,false,1,14801501,0,0,0,0,,,,0,0,0,0,0,0.00,,,,0,0,C. Foley,,,,,,,0,,
14802001,0745141609,Golden Fox,9780745141602,,,,ES,,,,false,43,74773,4866,11160,2876,65,1990/1/1,Golden Fox,book,816,1110,771,148,31,3.88,,,,0,0,Wilbur Smith,,,,,,981,12,68,"action,adult,adventure,fiction,historical,historical-fiction,history,modern,mystery,non-fiction,novels,religion,romance,thriller,war,young-adult"
14803001,0613716833,Bible Wars & Weapons,9780613716833,,,,ES,2002/9/1,Turtleback Books,,false,2,1019921,24,35,8,1,,,,5,1,2,0,0,4.38,,Hardcover,,0,0,Rick Osborne,,,,,,8,0,1,non-fiction
14803501,0745640656,Native Americans and the Media,9780745640655,,,,ES,2013/3/5,Polity Press,,false,2,14803504,0,0,0,0,2013/3/5,,,0,0,0,0,0,0.00,216,Hardcover,,0,0,Scott Sochay,,,,,,,0,,
14804001,052133926X,The Web of Words Teacher's Book,9780521339261,,,,ES,1987/7/23,Cambridge University Press,,false,1,14804001,2,0,0,0,1987/7/23,,,0,0,0,0,0,0.00,72,Paperback,,0,0,"Michael N. Long,Ronald Carter",,,,,,2,0,,
14804501,0373334044,Pecados de Familia,9780373334049,,,,ES,1997/3/1,Bianca,,false,15,6305688,131,191,59,7,1996/10/1,Relative Sins (Romance),book,11,13,21,7,7,3.24,158,Paperback,,0,0,Anne Mather,,,,,,39,10,1,"adult,family,harlequin,romance"
14805001,0373352662,Noviazgo Fingido,9780373352661,,,,ES,1998/10/23,Silhouette Deseo,,false,7,5560523,46,53,16,3,1995/12/1,,book,2,5,5,4,0,3.31,160,Paperback,,0,0,Pamela Macaluso,,,,,,13,1,,"chick-lit,christmas,contemporary,harlequin,romance"
14805501,0153050047,Being Healthy 1994: Grade 8,9780153050046,,,,ES,,,,false,1,14805501,0,0,0,0,,,,0,0,0,0,0,0.00,,,,0,0,Harcourt Brace,,,,,,,0,,
14806001,0153176512,Science 00 Y001 California: CA Pe Gr2 Harc Sci 2000 2000,9780153176517,,,,ES,1999/7/22,Harcourt School Publishers,,false,1,14806001,1,4,1,0,1999/7/22,,,0,1,0,0,0,4.00,344,Hardcover,,1,0,,,,,,,,0,,
14806501,0613747267,Maisy's Party Book,9780613747264,,,,ES,1999/8/1,Turtleback Books,,false,3,3040900,12,10,2,0,1999/8/1,,,2,0,0,0,0,5.00,,Hardcover,,0,0,Lucy Cousins,,,,,,7,1,,
14807001,015340616X,Harcourt School Publishers Math: Pattern Blevel KS(Set/500) Grade K-6,9780153406164,,,,ES,2003/10/1,Harcourt School Publishers,,false,1,14807001,0,0,0,0,2003/10/1,,,0,0,0,0,0,0.00,,Unknown Binding,,0,0,,,,,,,,0,,
14807501,0521457505,SMP 11-16 Teacher's Guide to Book G9,9780521457507,,,,ES,1995/2/9,Cambridge University Press,,false,1,14807501,0,0,0,0,1995/2/9,,,0,0,0,0,0,0.00,37,Paperback,,0,0,School Mathematics Project,,,,,,,0,,
14808001,0153490233,Harcourt School Publishers Math Florida: Volusiae Teacher Kit Grade 1,9780153490231,,,,ES,2005/7/1,Harcourt School Publishers,,false,1,14808001,0,0,0,0,2005/7/1,,,0,0,0,0,0,0.00,,Unknown Binding,,0,0,,,,,,,,0,,
14808501,0153554487,CA Gr LVL Replacement Pkg Gr 6 Sci 08,9780153554483,,,,ES,,,,false,1,14808501,0,0,0,0,,,,0,0,0,0,0,0.00,,Hardcover,,0,0,Harcourt School Publishers,,,,,,,0,,
14809001,0153593474,Harcourt Social Studies Ohio: Student Edition & eBook Bundle Grade 1 2007,9780153593475,,,,ES,2006/7/1,Harcourt School Publishers,,false,1,14809001,0,0,0,0,2006/7/1,,,0,0,0,0,0,0.00,,Hardcover,,0,0,,,,,,,,0,,
14809501,0153736410,Equipment Kit Unit B Gr 5 Sci 09,9780153736414,,,,ES,,,,false,1,14809501,0,0,0,0,,,,0,0,0,0,0,0.00,,Paperback,,0,0,Harcourt School Publishers,,,,,,,0,,
14810001,0153823194,Harcourt School Publishers Storytown California: Time-SVR Lsn Res W/Mgt Sys Gk,9780153823190,,,,ES,2009/10/22,Harcourt School Publishers,,false,1,14810001,0,0,0,0,2009/10/22,,,0,0,0,0,0,0.00,,Unknown Binding,,0,0,,,,,,,,0,,
14810501,0521627915,Washing Up South African Edition,9780521627917,,,,ES,1998/9/1,Cambridge University Press,,false,1,14810501,1,0,0,0,1998/9/1,,,0,0,0,0,0,0.00,16,Paperback,,0,0,"Deran Reddy,Reddy Deran",Clare Menck,,,,,,0,,
14811001,0750267372,It's Good to Be Me!: Raising Self-Esteem to Find Your Inner Hero.,9780750267373,,,,ES,2012/6/14,Wayland,,false,3,14811001,4,7,2,0,2012/6/14,,book,1,0,0,1,0,3.50,64,Hardcover,,1,0,Louise Spilsbury,,,,,,1,1,,"non-fiction,self-help"
14811501,0521752930,Information Processing and Technology: The Hsc Course,9780521752930,,,,ES,2002/7/12,Cambridge University Press,,false,1,14811501,0,0,0,0,2002/7/12,,,0,0,0,0,0,0.00,288,Paperback,,0,0,Carole Wilson,,,,,,,0,,
14812001,0158131606,Msp Therapist Guide,9780158131603,,,,ES,,,,false,1,14812001,0,0,0,0,,,,0,0,0,0,0,0.00,,,,0,0,Craske,,,,,,,0,,
14812501,0613777670,Many Ways to Learn: Young People's Guide to Learning Disabilities,9780613777674,,,,ES,,,,false,1,14812501,0,0,0,0,,,,0,0,0,0,0,0.00,,,,0,0,Judith Stern,,,,,,,0,,
14813501,0613784464,Lickety-Split Princess,9780613784467,,,,ES,2001/5/1,Turtleback Books,,false,2,1202993,3,5,1,0,2001/5/1,The Lickety-Split Princess,book,1,0,0,0,0,5.00,,Hardcover,,0,0,Lynn Manuel,,,,,,2,0,,
14815501,0752419455,Prehistoric Rock Art in Northumberland,9780752419459,,,,ES,2002/3/1,"Tempus Publishing, Limited",,false,1,14815501,6,10,2,0,2001/11/30,,,2,0,0,0,0,5.00,192,Paperback,,2,0,Stan Beckensall,,,,,,,0,,"history,non-fiction,reference"
14816001,0529104598,Strong's Concordance,9780529104595,,,,ES,1995/8/1,Nelson Bibles,,false,2,14815992,6,4,1,1,1995/8/1,,,0,1,0,0,0,4.00,1424,Paperback,,0,0,James Strong,,,,,,2,2,1,
14816501,0529108607,Pocket Bible-NASB,9780529108609,,,,ES,1999/8/13,Nelson Bibles,,false,5,14817607,3,5,1,0,1920/1/1,,,1,0,0,0,0,5.00,1213,Leather Bound,,0,0,,,,,,,1,0,1,
14817501,0193859696,Overture for the End of a Century: Full Score,9780193859692,,,,ES,1994/11/17,"Oxford University Press, USA",,false,1,14817501,0,0,0,0,1994/11/17,,,0,0,0,0,0,0.00,36,Paperback,,0,0,Libby Larsen,,,,,,,0,,
14818501,0194344444,Open Sesame Pic Dict Spanish (Castilian),9780194344449,,,,ES,1996/9/1,"Oxford University Press, USA",,false,1,14818501,1,0,0,0,1996/9/1,,,0,0,0,0,0,0.00,96,Paperback,,0,0,Schimpff,,,,,,,0,,
14819001,0194353915,Tiny Talk 2 Puppets Mike & Julie - Boxed,9780194353915,,,,ES,,,,false,1,14819001,0,0,0,0,,,,0,0,0,0,0,0.00,,,,0,0,Rivers,,,,,,,0,,
14819501,0613812190,Brilliant Brain Battles Bad Guys,9780613812191,,,,ES,,,,false,2,1522197,2,0,0,0,2000/4/1,,,0,0,0,0,0,0.00,,,,0,0,Ellen Arnold,,,,,,,0,,
14820501,061381729X,All Aboard Trucks,9780613817295,,,,ES,1989/3/15,Turtleback Books,,false,2,3875254,20,16,5,1,1989/1/1,All Aboard Trucks (All Aboard Books),book,0,1,4,0,0,3.20,,Hardcover,,0,0,Lynn Conrad,Richard Courtney,,,,,4,0,2,"non-fiction,picture-books"
14821001,0613820649,Fish,9780613820646,,,,ES,2003/10/1,Turtleback Books,,false,7,15560238,1,4,1,0,2003/10/1,,book,0,1,0,0,0,4.00,,Hardcover,,0,0,Angela Royston,,,,,,,1,,
14821501,0613824733,Mystical Land: Short Stories for Children,9780613824736,,,,ES,2001/6/1,Turtleback Books,,false,3,14821501,0,0,0,0,2001/5/29,,,0,0,0,0,0,0.00,,Hardcover,,0,0,Wayde Bulow,,,,,,,0,,
14822001,0195215427,Oxford Portraits in Science Set,9780195215427,,,,ES,,,,false,2,15235226,0,0,0,0,,,,0,0,0,0,0,0.00,,,,0,0,,,,Owen Gingerich,,,,0,,
14822501,0375777091,Random House Webster's Pocket Health & Medicine Dictionary,9780375777097,,,,ES,,,,false,3,13314559,3,5,1,0,1992/10/6,,,1,0,0,0,0,5.00,,,,0,0,,,,,,,2,0,,
14823001,0613835158,On the Move,9780613835152,,,,ES,,,,false,4,3504666,7,16,4,0,1973/6/1,On the Move,book,1,2,1,0,0,4.00,,,,0,0,Harriet May Savitz,,,,,,2,0,,fiction
14823501,037586508X,Calvin Coconut: Rocket Ride,9780375865084,,,,ES,2013/9/10,Yearling,,false,7,13330560,95,182,45,11,2012/1/1,,,16,17,10,2,0,4.04,160,Paperback,,0,0,Graham Salisbury,,,,,,29,6,1,"family,humor,middle-grade,realistic-fiction"
14824001,0613841840,Piensajuegos - N 7,9780613841849,,,,ES,,,,false,1,14824001,0,0,0,0,,,,0,0,0,0,0,0.00,,,,0,0,Sigmar,,,,,,,0,,
14824501,0613846257,Ortografia 4,9780613846257,,,,ES,1999/1/1,Turtleback Books,,false,1,14824501,0,0,0,0,,,,0,0,0,0,0,0.00,,Hardcover,,0,0,Liliana Heredia,,,,,,,0,,
14825001,,El Desterrado (La Tribu de Uno #1),9788448038038,,,,ES,1996/1/1,Timun Mas,spa,false,1,14825001,22,33,9,0,1996/1/1,,book,1,5,2,1,0,3.67,293,Paperback,,9,0,Hawkem Simon,,,,,,5,0,,
14825501,0198310862,Complete Business Studies for Cambridge IGCSE & O Level,9780198310860,,,,ES,2011/3/1,"Oxford University Press, USA",,false,4,14825501,119,49,12,1,2011/3/1,,book,6,3,2,0,1,4.08,464,Paperback,,12,1,Brian Titley,,,,,,77,0,12,
14826001,0198488009,"My Phonics Kit. Roderick Hunt, Alex Brychta, Annemarie Young",9780198488002,,,,ES,2012/1/1,"Oxford University Press, USA",,false,1,14826001,16,25,7,0,2012/1/1,,,3,0,3,0,1,3.57,54,Paperback,,7,0,Roderick Hunt,,,,,,7,0,,
14826501,0198780044,Idea of Natural Inequality 3 Other Essays,9780198780045,,,,ES,1997/10/1,"Oxford University Press, USA",,false,1,14826501,4,0,0,0,,,,0,0,0,0,0,0.00,,Paperback,,0,0,André Béteille,,,,,,4,0,,
14827001,0613861361,Wee Sing for Baby,9780613861366,,,,ES,2002/4/15,Turtleback Books,,false,17,1709357,37,36,9,1,1996/1/1,Wee Sing for Baby (Price Stern Sloan Classic),book,4,2,2,1,0,4.00,,Hardcover,,0,0,Pamela Conn Beall,,,,,,10,1,,music
14827501,0613865464,La Biblia Ilustrada / Picture Bible,9780613865463,,,,ES,,,,false,23,269602,587,1327,296,38,1920/1/1,The Picture Bible,book,195,65,26,4,6,4.48,,,,0,0,Iva Hoth,,,C. Elvan Olmstead,,,165,4,18,"american,christian,christianity,comics,faith,graphic-novels,history,middle-grade,non-fiction,religion,school,short-stories,young-adult"
14828001,0755317602,Border Flowers. Lucy Summers,9780755317608,,,,ES,2010/2/1,Headline,,false,1,14828001,0,0,0,0,2010/2/1,,,0,0,0,0,0,0.00,128,Paperback,,0,0,Lucy Summers,,,,,,,0,,
14829001,0613874145,Moses and the Ten Commandments,9780613874144,,,,ES,2002/5/1,Turtleback Books,,false,2,15115712,1,0,0,0,2002/5/1,,,0,0,0,0,0,0.00,,Hardcover,,0,0,,,,,,,1,0,,
14829501,0538880147,Case-Westbrook Farm,9780538880145,,,,ES,,,,false,1,14829501,0,0,0,0,,,,0,0,0,0,0,0.00,,,,0,0,Puia,,,,,,,0,,
14830001,0613879910,Maddie in Danger,9780613879910,,,,ES,1995/3/22,Turtleback Books,,false,5,10374655,10,16,5,0,1994/5/1,Sophie est en danger,book,1,0,3,1,0,3.20,,Hardcover,,0,0,Louise Leblanc,,,,,,2,0,,humor
14830501,0613883756,Que Mundo Ruidoso!,9780613883757,,,,ES,1995/4/1,Turtleback Books,,false,1,14830501,0,0,0,0,,,,0,0,0,0,0,0.00,,Hardcover,,0,0,Francisco Velasco,,,,,,,0,,
14831001,0547008856,Curious George's Dinosaur Discovery,9780547008851,,,,ES,2009/9/7,Houghton Mifflin Harcourt (HMH),,false,17,1353039,751,1359,350,47,2006/1/1,Curious George's Dinosaur Discovery (Curious George),book,109,112,111,15,3,3.88,32,Paperback,,0,0,Margret Rey,,,,,,115,16,4,"animals,childrens,fiction,picture-books,school,science"
14831501,0547074352,Journeys: Decodable Reader Level 1 Unit 1,9780547074351,,,,ES,2009/5/6,Houghton Mifflin,,false,1,14831501,0,0,0,0,2009/5/6,,,0,0,0,0,0,0.00,136,Paperback,,0,0,,,,,,,,0,,
14832001,0613891155,March on London,9780613891158,,,,ES,,,,false,68,2180194,228,461,124,2,,,book,36,36,36,13,3,3.72,,,,0,0,G.A. Henty,,,,,,70,3,3,"adventure,classics,education,fiction,historical-fiction,history,novels"
14832501,0613893751,Gemelas - Escuela Superior 22,9780613893756,,,,ES,1995/4/1,Turtleback Books,,false,1,14832501,0,0,0,0,,,,0,0,0,0,0,0.00,,Hardcover,,0,0,Francine Pascal,,,,,,,0,,
14833001,0613896327,Arthur's Magic Math Glasses: Math with Other and Stencils,9780613896320,,,,ES,,,,false,1,14833001,2,0,0,0,,,,0,0,0,0,0,0.00,,,,0,0,Marc Brown,,,,,,2,0,,
14833501,0547720335,Houghton Mifflin Harcourt Journeys North Carolina: Writing for North Carolina Grade 04,9780547720333,,,,ES,2011/7/30,Houghton Mifflin,,false,1,14833501,0,0,0,0,2011/7/30,,,0,0,0,0,0,0.00,64,Paperback,,0,0,,,,,,,,0,,
14834001,061390222X,King Arthur: With 15 Stickers,9780613902229,,,,ES,1999/7/7,Turtleback Books,,false,1,14834001,0,0,0,0,,,,0,0,0,0,0,0.00,,Hardcover,,0,0,A.G. Smith,,,,,,,0,,
14834501,038718032X,Solar Thermal Energy Utilization. German Studies on Technology and Applications: Volume 3: Solar Thermal Energy for Chemical Processes,9780387180328,,,,ES,,,,false,2,14834501,0,0,0,0,1987/9/25,,,0,0,0,0,0,0.00,,,,0,0,,,,Manfred Becker,,,,0,,
14835001,0387190228,"Frontiers of Particle Beams: Proceedings of a Topical Course, Held by the Joint Us-Cern School on Particle Accelerators at South Padre Island, Texa",9780387190228,,,,ES,,,,false,2,14835001,0,0,0,0,1988/1/1,,,0,0,0,0,0,0.00,,,,0,0,Melvin Month,,,,,,,0,,
14835501,0203120078,Urban Spaces in Japan: Culturaland Social Perspectives,9780203120071,,,,ES,2012/4/1,Routledge,,false,1,14835501,0,0,0,0,2012/4/1,,,0,0,0,0,0,0.00,,Unknown Binding,,0,0,,,Christoph Brumann,,,,,0,,
14836001,0613916034,"Cyberethics, Second Edition: Morality and Law in Cyberspace",9780613916035,,,,ES,,,,false,5,2340443,73,100,30,2,2001/11/1,CyberEthics: Morality and Law in Cyberspace,,5,7,12,5,1,3.33,,,,0,0,Richard A. Spinello,,,,,,24,2,1,"adult,non-fiction,philosophy,reference,school,technology"
14836501,0203135180,Architecture for Rapid Change and Scarce Resources,9780203135181,,,,ES,2012/2/1,Routledge,,false,7,17543598,0,0,0,0,2011/9/30,,,0,0,0,0,0,0.00,321,Hardcover,,0,0,Sumita Sinha,,,,,,,0,,
14837001,0387546030,"Cancer Therapy: Differentiation, Immunomodulation, & Angiogenesis",9780387546032,,,,ES,1993/1/1,Springer,,false,3,4486549,0,0,0,0,1993/1/1,,,0,0,0,0,0,0.00,288,Hardcover,,0,0,Natale D'Alessandro,,,,,,,0,,
14837501,0613930061,Buscando a Nemo Vitrales Para Colorear,9780613930062,,,,ES,,,,false,1,14837501,1,0,0,0,,,,0,0,0,0,0,0.00,,,,0,0,Walt Disney Company,,,,,,1,0,,
14838001,0759628017,Journals of the Narrow Road,9780759628014,,,,ES,,,,false,1,14838001,0,0,0,0,,,,0,0,0,0,0,0.00,,,,0,0,David Lythberg,,,,,,,0,,
14838501,0203807243,The Global Economics of Sport,9780203807248,,,,ES,2014/9/16,Routledge,,false,9,17008968,4,4,1,0,2012/1/1,,,0,1,0,0,0,4.00,140,Hardcover,,0,0,,,Chris Gratton,,,,1,0,,
14839501,0203835018,Cantonese: A Comprehensive Grammar,9780203835012,,,,ES,2011/12/1,Routledge,,false,7,12513015,36,27,6,0,2011/1/25,,,4,1,1,0,0,4.50,,Hardcover,,0,0,Stephen Matthews,,,,,,17,0,6,reference
14840001,0759698082,The Ogunquit Five,9780759698086,,,,ES,,,,false,3,17627009,0,0,0,0,2002/3/1,,,0,0,0,0,0,0.00,,,,0,0,John Zane,,,,,,,0,,
14840501,0760113483,Joy! a Soulful Celebration of the Season,9780760113486,,,,ES,1997/3/1,Brentwood-Benson Music Publishing,,false,5,14840513,0,0,0,0,1997/3/1,,,0,0,0,0,0,0.00,,Audio,,0,0,,,Dave Williamson,,,,,0,,
14841501,0613954602,Traditional African Costumes Paper Dolls,9780613954600,,,,ES,,,,false,1,14841501,3,0,0,0,,,,0,0,0,0,0,0.00,,,,0,0,Yuko Green,,,,,,1,0,,
14842001,0393954587,Psychology 1984 Test Item Supp,9780393954586,,,,ES,1920/1/1,W. W. Norton & Company,,false,1,14842001,0,0,0,0,1920/1/1,,,0,0,0,0,0,0.00,,Paperback,,0,0,Jonides,,,,,,,0,,
14842501,0205585523,Student Workbook for Social Research Methods: Quantitative and Qualitative Methods,9780205585526,,,,ES,2009/11/1,Prentice Hall,,false,5,14842501,30,34,9,0,2002/10/21,,,2,3,4,0,0,3.78,112,Paperback,,8,0,W. Lawrence Neuman,,,,,,9,0,,
14843001,0761343881,Blizzards,9780761343882,,,,ES,2010/3/1,Lerner Publishing Group,,false,4,14843001,10,21,5,0,2008/9/1,,book,3,0,2,0,0,4.20,32,Paperback,,4,0,Lisa Bullard,,,,,,2,1,2,"non-fiction,picture-books"
14844001,0613973534,Lo que cuentan los onas,9780613973533,,,,ES,1997/7/28,Turtleback Books,,false,3,10943936,1,0,0,0,1997/1/1,Lo que cuentan los onas,book,0,0,0,0,0,0.00,,Paperback,,0,0,Miguel Ángel Palermo,,,,,,,0,,
14844501,0613977505,Adventures in the Grove: A Collection of Children's Short Stories,9780613977500,,,,ES,,,,false,1,14844501,0,0,0,0,,,,0,0,0,0,0,0.00,,,,0,0,Norm M. Gillam,,,,,,,0,,
14845001,0395617200,Houghton Mifflin Teacher's Book,9780395617205,,,,ES,1992/5/1,Houghton Mifflin,,false,34,10541012,3,4,1,0,1990/9/1,,,0,1,0,0,0,4.00,,Paperback,,0,0,Houghton Mifflin,,,,,,1,0,1,
14845501,0395740592,Sonny's Best Friend,9780395740590,,,,ES,,,,false,1,14845501,5,7,2,0,,,book,0,1,1,0,0,3.50,,,,2,0,Mindy Menschell,Darcia LaBrosse,,,,,1,0,,
14846001,0613988795,Mi Primera Biblioteca - Historias de Ayer y de Hoy,9780613988797,,,,ES,2001/7/1,Turtleback Books,,false,1,14846001,0,0,0,0,,,,0,0,0,0,0,0.00,,Hardcover,,0,0,Gaviota Ediciones,,,,,,,0,,
14846501,0395963613,Public Speaking Connecting You and Readers Guide,9780395963616,,,,ES,1999/1/1,Houghton Mifflin,,false,1,14846501,0,0,0,0,1999/1/1,,,0,0,0,0,0,0.00,,Unknown Binding,,0,0,Patricia Hayes Andrews,,,,,,,0,,
14847001,0398058989,Creative Long-Term Care Administration,9780398058982,,,,ES,,,,false,4,15273940,1,0,0,0,,,,0,0,0,0,0,0.00,,,,0,0,George Kenneth Gordon,,,,,,1,0,,
14847501,0231526504,Empire and Nation: Selected Essays,9780231526500,,,,ES,2010/5/10,Columbia University Press,,true,6,7644785,41,28,6,1,2010/4/22,,book,4,2,0,0,0,4.67,384,ebook,,0,0,Partha Chatterjee,,,,,,28,0,3,
14848001,0615199666,Life as a Leaf: Growing Integrity in Children,9780615199665,,,,ES,2000/9/1,Vine Publications,,false,1,14848001,0,0,0,0,2000/9/1,,,0,0,0,0,0,0.00,82,Paperback,,0,0,Donna Leigh St Peter,,,,,,,0,,
14849501,0762842237,Cactus Country,9780762842230,,,,ES,,,,false,2,6942012,5,3,1,0,1997/1/1,,,0,0,1,0,0,3.00,,,,0,0,John A. Murray,,,,,,1,0,,"reference,travel"
14850001,0618059008,"A People and a Nation Complete, Fifth Edition and Internet Guide and Atlas of Western Civilization 1998",9780618059003,,,,ES,1998/1/1,Houghton Mifflin,,false,1,14850001,0,0,0,0,,,book,0,0,0,0,0,0.00,,Unknown Binding,,0,0,Mary Beth Norton,,,,,,,0,,
14850501,0256269270,Student Study Guide to Accompany Elementary Statistics,9780256269277,,,,ES,1997/7/1,McGraw-Hill Science/Engineering/Math,,false,4,2462459,7,0,0,0,2005/12/30,Student Study Guide for use with Elementary Statistics: A Step By Step Approach,,0,0,0,0,0,0.00,,Paperback,,0,0,Allan G. Bluman,,,,,,6,0,,
14851001,0618180176,Houghton Mifflin Reading Spanish: Student Edition Level 1.3 Sorpresas 2003,9780618180172,,,,ES,2002/6/17,Houghton Mifflin,,false,1,14851001,0,0,0,0,2002/6/17,,,0,0,0,0,0,0.00,240,Hardcover,,0,0,,,,,,,,0,,
14851501,0763794139,Clinical Handbook for Pediatric Nurse Practitioners,9780763794132,,,,ES,2012/1/15,Jones & Bartlett Publishers,,false,1,14851501,1,0,0,0,2012/1/15,,,0,0,0,0,0,0.00,300,Paperback,,0,0,Ancona,,,,,,,0,,
14852001,0405068468,"History of Chicago: From the Earliest Period to the Present Time, Set",9780405068461,,,,ES,,,,false,10,3996860,3,0,0,0,1975/1/1,History of Chicago (The Mid-American frontier),,0,0,0,0,0,0.00,,,,0,0,Alfred Theodore Andreas,,,,,,3,0,,
14852501,0618244522,Houghton Mifflin Reading Spanish: Theme Paperback Theme 6 Level 5 Gata Garcia,9780618244522,,,,ES,2002/8/30,Houghton Mifflin,,false,1,14852501,0,0,0,0,2002/8/30,,,0,0,0,0,0,0.00,128,Paperback,,0,0,,,,,,,,0,,
14853001,061827278X,"Basic College Math and Student Solutions Manual, Seventh Edition [With CDROM]",9780618272785,,,,ES,,,,false,1,14853001,0,0,0,0,,,,0,0,0,0,0,0.00,,,,0,0,Richard N. Aufmann,,,,,,,0,,
14853501,076442789X,Vbs-Serengeti the Mane Event Leader Manual,9780764427893,,,,ES,2005/2/1,Group Publishing (CO),,false,1,14853501,0,0,0,0,2005/2/1,,,0,0,0,0,0,0.00,,Paperback,,0,0,,,,,,,,0,,
14854001,0412051613,Real Analysis and Probability,9780412051616,,,,ES,1989/4/1,CRC Press,,false,13,218519,48,40,11,0,1989/1/1,Real Analysis and Probability,,3,3,3,2,0,3.64,448,Paperback,,0,0,R.M. Dudley,,,,,,21,3,3,"academic,science"
14854501,061840838X,Trigonometry and Student Study Guide Sixth Edition [With CDROM],9780618408382,,,,ES,,,,false,1,14854501,1,0,0,0,,,,0,0,0,0,0,0.00,,,,0,0,Ron Larson,,,,,,1,0,,
14855001,0618441689,Writers Express Four Point Zero CD-ROM 3rd Edition,9780618441686,,,,ES,,,,false,13,487410,6,0,0,0,1993/10/1,The Writer's Express: A Paragraph and Essay Text With Readings,book,0,0,0,0,0,0.00,,,,0,0,Kathleen T. McWhorter,,,,,,3,0,,
14855501,0415016703,Understanding Genocide,9780415016704,,,,ES,2007/1/1,Routledge,,false,1,14855501,2,0,0,0,,,,0,0,0,0,0,0.00,,Hardcover,,0,0,Richard Freeman,,,,,,2,0,,
14856001,0618508260,"Mathematical Excursions [with CD, Study and Solutions Manual, & Eduspace/Blackboard]",9780618508266,,,,ES,2004/2/24,Houghton Mifflin,,false,19,14862898,1,0,0,0,2003/7/24,,book,0,0,0,0,0,0.00,,Paperback,International Third Edition,0,0,Richard N. Aufmann,,,,,,1,0,,
14856501,0618532676,Crossley World in the Twentieth Century Plus Student Resource Companion,9780618532674,,,,ES,,,,false,1,14856501,0,0,0,0,,,,0,0,0,0,0,0.00,,,,0,0,Crossley,,,,,,,0,,
14857001,0273734873,Microeconomics,9780273734871,,,,ES,2012/6/1,Pearson Education,,false,6,14857001,8,15,4,0,2008/4/24,,,0,3,1,0,0,3.75,664,Paperback,,1,0,Saul Estrin,,,,,,2,0,1,
14857501,0618593985,"Rusch, Fuentes: Conversacion, with in Text CD, with Workbook/Lab Manual, with Answer Key, 3rd Edition",9780618593989,,,,ES,,,,false,85,785013,24,15,4,0,1996/1/1,Fuentes:conversations With Cd + Cd-rom + Workbook/Labmanual + Answer Key 3rd Ed,book,1,1,2,0,0,3.75,,,,0,0,Debbie Rusch,,,,,,16,0,,
14858001,0275901386,Religion and the Presidential Election,9780275901387,,,,ES,1985/2/15,Praeger,,false,1,14858001,0,0,0,0,1985/2/15,,,0,0,0,0,0,0.00,177,Hardcover,,0,0,Paul Lopatto,,,,,,,0,,
14859001,0618650172,"Hmco, Hm College Reading Series Book 2, 2nd Edition Plus Nist, Hm Reading CDROM, 5th Edition",9780618650170,,,,ES,,,,false,1,14859001,0,0,0,0,,,,0,0,0,0,0,0.00,,,,0,0,HMCO,,,,,,,0,,
14859501,061866646X,Basic Spanish Grammar Plus Audio CD Program 6th Edition Plus Spanish for Communications 4th Edition,9780618666461,,,,ES,,,,false,8,14860109,2,2,1,0,2003/11/4,,book,0,0,0,1,0,2.00,,,,0,0,Peter Jarvis,,,,,,2,0,,
14860001,0766809625,Alternating Current Fundamentals,9780766809628,,,,ES,,,,false,10,2181787,6,11,3,0,1979/10/1,,,2,0,0,0,1,3.67,,,,0,0,"John R. Duff,Stephen L. Herman",,,,,,3,0,,
14860501,0618701176,English for Academic Success College Oral Communication Book Four Plus Audio CD Plus Reading Book Four Plus Vocabulary Book Four Plus Writing Book Four,9780618701179,,,,ES,2006/6/14,Houghton Mifflin,,false,1,14860501,0,0,0,0,2006/6/14,,,0,0,0,0,0,0.00,,,,0,0,Byrd,,,,,,,0,,
14861001,0415266653,Body: Crit Concepts Soc Scie V3,9780415266659,,,,ES,,,,false,1,14861001,0,0,0,0,,,,0,0,0,0,0,0.00,,,,0,0,Andrew Blaikie,,,,,,,0,,
14861501,0618750150,Calculus Single Variable 8th Edition Plus Student Solutions Guide Volume 1 Plusms CD Plus DVD Plus Smarthinking,9780618750153,,,,ES,,,,false,1,14861501,0,0,0,0,,,,0,0,0,0,0,0.00,,,,0,0,Ron Larson,,,,,,,0,,
14862001,076753736X,Crash,9780767537360,,,,ES,,,,false,1,14862001,0,0,0,0,,,,0,0,0,0,0,0.00,,,,0,0,Estelle Kleinman,,,"Joyce Friedland,Rikki Kessler",,,,0,,
14862501,0295987111,Redrawing Boundaries: Current Issues in Western American Art,9780295987118,,,,ES,,,,false,1,14862501,0,0,0,0,,,,0,0,0,0,0,0.00,,,,0,0,,,,,,,,0,,
14863001,0618817379,Understanding Research Methods and Statistics Second Edition Plus Stangor Student Support Package,9780618817375,,,,ES,2006/7/12,Houghton Mifflin,,false,1,14863001,0,0,0,0,2006/7/12,,,0,0,0,0,0,0.00,,,,0,0,Heiman,,,,,,,0,,
14863501,0415367905,Moving on: The Changing Lives of Young People After Parental Divorce,9780415367905,,,,ES,,,,false,2,6230965,0,0,0,0,,Moving On: The Changing Lives of Young People after Parental Divorce,,0,0,0,0,0,0.00,,,,0,0,"Bren Neale,Jennifer Flowerdew",,,,,,,0,,
14864001,0618869441,Houghton Mifflin Science Spanish: Independent Book on Level Chapter 3 Level 4 La Energfa de Los Maizales,9780618869442,,,,ES,2007/9/26,Houghton Mifflin,,false,1,14864001,0,0,0,0,2007/9/26,,,0,0,0,0,0,0.00,20,Paperback,,0,0,,,,,,,,0,,
14864501,0618887954,Norton Intermediate Accounting with Bridge CD Plus Working Papers Second Edition Plus Eduspace,9780618887958,,,,ES,,,,false,1,14864501,0,0,0,0,,,book,0,0,0,0,0,0.00,,,,0,0,Curtis L. Norton,,,,,,,0,,
14865001,0768906814,TOEFL Success CBT W/ CDROM 2002 [With CD],9780768906813,,,,ES,,,,false,2,14865001,1,0,0,0,,,,0,0,0,0,0,0.00,,,,0,0,Peterson's,,,,,,1,0,,
14865501,0618965211,Houghton Mifflin Social Studies Nevada: Independent Books LV 4 on Level Mormon Fort,9780618965212,,,,ES,2007/6/11,Houghton Mifflin,,false,1,14865501,1,0,0,0,2007/6/11,,,0,0,0,0,0,0.00,8,Paperback,,0,0,,,,,,,1,0,,
14866001,0768919444,Peterson's Collegedata Complete Set 06,9780768919448,,,,ES,2005/10/23,Peterson Nelnet Co,,false,1,14866001,0,0,0,0,2005/10/23,,,0,0,0,0,0,0.00,,Hardcover,,0,0,Peterson's,,,,,,,0,,
14866501,0619174927,Windows 2000 Network Infrastructure Implementation [With CDROM],9780619174927,,,,ES,,,,false,1,14866501,0,0,0,0,,,,0,0,0,0,0,0.00,,,,0,0,Instructor Led Training,,,,,,,0,,
14867001,0620458267,Iago's Last Dance: A Trilogy of Plays,9780620458269,,,,ES,,,,false,1,14867001,0,0,0,0,,,,0,0,0,0,0,0.00,,,,0,0,Mike Van Graan,,,,,,,0,,
14867501,0769211364,Bradley's New Playing Classical Music!: Level 3,9780769211367,,,,ES,1994/10/1,Alfred Music,,false,1,14867501,1,0,0,0,1994/10/1,,,0,0,0,0,0,0.00,52,Paperback,,0,0,,,,"Alfred A. Knopf Publishing Company,Richard    Bradley",,,1,0,,
14868001,0415516927,"Inherited Wealth, Justice and Equality",9780415516921,,,,ES,2012/11/13,Routledge,,false,6,17128927,0,0,0,0,2012/1/1,,,0,0,0,0,0,0.00,242,Hardcover,,0,0,,,,"Guido Erreygers,John Cunliffe",,,,0,,
14868501,0415554217,Anthropological Linguistics: Multiculturalism,9780415554213,,,,ES,,,,false,6,12281943,5,0,0,0,2010/12/1,,,0,0,0,0,0,0.00,,,,0,0,Bambi B. Schieffelin,,,,,,5,0,,
14869001,0769239706,"Jorge Bolet Memorial Editions, Vol 5: Nine Works by Franz Liszt",9780769239705,,,,ES,1995/3/1,Alfred Music,,false,1,14869001,0,0,0,0,1995/3/1,,,0,0,0,0,0,0.00,244,Paperback,,0,0,,,,Teresa Escandon,,,,0,,
14869501,0634009133,Nostalgia Favorites,9780634009136,,,,ES,2002/5/13,Stephens Development,,false,1,14869501,0,0,0,0,2002/5/13,,,0,0,0,0,0,0.00,30,Paperback,Large Print,0,0,,,Anonymous,,,,,0,,
14870001,0415597463,Coaching with Meaning and Spirituality,9780415597463,,,,ES,2013/3/22,Routledge,,false,3,17773201,1,0,0,0,2013/1/1,,,0,0,0,0,0,0.00,224,Paperback,,0,0,Peter Hyson,,,,,,,0,,
14870501,0769265626,A Dozen and One,9780769265629,,,,ES,1998/8/1,Alfred Music,,false,5,14870409,0,0,0,0,1996/5/1,,,0,0,0,0,0,0.00,40,Paperback,,0,0,,,John Brimhall,,,,,0,,
14871001,0415617715,Human Rights and Democracy in Eu Foreign Policy: The Cases of Ukraine and Egypt,9780415617710,,,,ES,2011/12/13,Routledge,,false,7,14871001,0,0,0,0,2011/12/13,,,0,0,0,0,0,0.00,204,Hardcover,,0,0,Rosa Balfour,,,,,,,0,,
14871501,0415667275,"Principles of Structure, Fifth Edition",9780415667272,,,,ES,2012/12/8,CRC Press,,false,2,14871501,2,0,0,0,2012/12/8,,,0,0,0,0,0,0.00,232,Paperback,,0,0,"Ken Wyatt,Richard Hough",,,,,,,0,2,
14872001,0634061739,Playing in the Style of the Fender Stratocaster Greats,9780634061738,,,,ES,2012/6/2,Hal Leonard Publishing Corporation,,false,1,14872001,1,0,0,0,2003/7/1,,,0,0,0,0,0,0.00,,Audiobook,,0,0,,,,,,,,0,,
14872501,0769299466,More Giants of Jazz Piano,9780769299464,,,,ES,2000/7/1,Alfred Music,,false,1,14872501,0,0,0,0,2000/7/1,,,0,0,0,0,0,0.00,148,Paperback,,0,0,,,Alfred A. Knopf Publishing Company,,,,,0,,
14873001,0634086138,Guitar Tab 2004: 15 of the Hottest Hits!,9780634086137,,,,ES,2004/8/1,Hal Leonard Publishing Corporation,,false,1,14873001,0,0,0,0,2004/8/1,,,0,0,0,0,0,0.00,112,Paperback,,0,0,,,,,,,,0,,
14873501,0415698146,"International Investment Management: Theory, Ethics and Practice",9780415698146,,,,ES,2016/4/8,Routledge,,false,5,14873501,1,0,0,0,2016/2/8,,,0,0,0,0,0,0.00,588,Paperback,,0,0,"Kara Tan Bhala,Warren Yeh",,,,,,1,0,,
14874001,0415783143,The Routledge Companion to International Management Education,9780415783149,,,,ES,2013/6/4,Routledge,,false,7,18561755,1,1,1,0,2013/1/1,,,0,0,0,0,1,1.00,414,Hardcover,,0,0,,,,"Denise Tsang,Guy Ellis,Hamid H. Kazeroony",,,1,0,,
14874501,0769606822,Hours of Fun,9780769606828,,,,ES,,,,false,7,14874538,0,0,0,0,,,,0,0,0,0,0,0.00,,,,0,0,Landoll Inc.,,,,,,,0,,
14875001,0415894166,Adolescent Development and School Achievement in Urban Communities: Resilience in the Neighborhood,9780415894166,,,,ES,2012/12/21,Routledge,,false,8,17711138,6,11,3,0,2012/1/1,,,0,2,1,0,0,3.67,280,Paperback,,0,0,,,,"Gary Creasey,Patricia A. Jarvis",,,3,0,,
14875501,0662054792,International Mobility of Highly Skilled Workers: A Synthesis of Key Findings and Policy Implications,9780662054795,,,,ES,2008/1/1,Micro-Economic Policy Analysis Branch Industry Canada,,false,1,14875501,0,0,0,0,2008/1/1,,,0,0,0,0,0,0.00,31,Hardcover,,0,0,,,Government of Canada,,,,,0,,
14876001,0415946328,Research Collections 2003 Catalog,9780415946322,,,,ES,,,,false,1,14876001,0,0,0,0,,,,0,0,0,0,0,0.00,,,,0,0,Catalog,,,,,,,0,,
14876501,0310601959,Bible Reference Gift Set 1 GM,9780310601951,,,,ES,,,,false,1,14876501,1,0,0,0,,,,0,0,0,0,0,0.00,,,,0,0,Anonymous,,,,,,1,0,,
14877501,0773416099,"Historias, Mitos y Leyendas de La Laguna Blanca, Neuquen, Argentina: The Oral Memories of a Member of the Mapuche Tribe",9780773416093,,,,ES,2012/1/24,Edwin Mellen Press,,false,1,14877501,5,5,1,1,2012/1/24,,,1,0,0,0,0,5.00,186,Hardcover,,1,1,Carlos Quilaqueo,,,,,,3,0,1,"classics,history"
14878001,0310675537,No Accident,9780310675532,,,,ES,1996/6/1,Zondervan Publishing Company,,false,1,14878001,0,0,0,0,1996/6/1,,book,0,0,0,0,0,0.00,,Paperback,,0,0,Donna Lagerquist,,,,,,,0,,
14879001,0773457461,The Physiological Basis and Quantum Versions of Memory and Consciousness,9780773457461,,,,ES,,,,false,1,14879001,3,0,0,0,,,book,0,0,0,0,0,0.00,,,,0,0,Arthur J. Hudson,,,,,,3,0,,
14879501,0773465979,"The Hybridization of an Assembly of God Church: Proselytism, Retention, and Re-Affiliation",9780773465978,,,,ES,2003/11/6,Edwin Mellen Press,,false,1,14879501,0,0,0,0,2003/11/6,,,0,0,0,0,0,0.00,354,Unknown Binding,,0,0,Malcolm Gold,,,,,,,0,,
14880001,0671475657,BATMAN,9780671475659,,,,ES,1983/10/1,Simon Pulse,,false,1,14880001,3,5,1,0,1983/10/1,,book,1,0,0,0,0,5.00,,Paperback,,1,0,Elliot S. Maggin,,,,,,2,0,,
14880501,0431193738,Your Local History,9780431193731,,,,ES,2010/9/1,Raintree,,false,2,14880492,1,0,0,0,2009/9/1,,book,0,0,0,0,0,0.00,32,Paperback,,0,0,Brian Williams,,,,,,,0,,
14881001,0434979643,Row Your Boat,9780434979646,,,,ES,,,,false,1,14881001,2,7,2,0,,,,1,0,0,1,0,3.50,,,,2,0,,Stephen Lambert,,,,,,0,,
14881501,077481943X,Parity Democracy: Women's Political Representation in Fifth Republic France,9780774819435,,,,ES,2010/11/22,UBC Press,,false,5,17031361,0,0,0,0,2010/1/1,,,0,0,0,0,0,0.00,160,Hardcover,,0,0,Jocelyne Praud,,,,,,,0,,
14882001,0671850423,Wildflowers,9780671850425,,,,ES,1995/1/1,Prentice Hall,,false,2,5862206,3,13,3,0,1995/1/1,Wildflowers (Burpee American Gardening Series),,2,0,1,0,0,4.33,,Paperback,,0,0,Juliet Alsop Hubbard,,,,,,,0,,
14882501,0439374790,Dinosaurs,9780439374798,,,,ES,,,,false,1,14882501,0,0,0,0,,,,0,0,0,0,0,0.00,,,,0,0,Simon Beecroft,,,,,,,0,,
14883001,0673469328,Explorations in Finite Math T/A Lial/Miller/Greenwell's Math 5e and: Math with Apps 6e,9780673469328,,,,ES,,,,false,1,14883001,0,0,0,0,,,book,0,0,0,0,0,0.00,,,,0,0,David I. Schneider,,,,,,,0,,
14883501,0674381211,Hasidism: Continuity or Innovation?,9780674381216,,,,ES,1989/1/1,Harvard University Press,,false,2,1367485,6,12,3,0,1988/5/30,Hasidism: Continuity or Innovation? (Harvard Judaic Texts and Studies),,1,1,1,0,0,4.00,60,Paperback,,0,0,,,,Bezalel Safran,,,2,0,,religion
14884501,0679016082,Fodors-Canada '89,9780679016083,,,,ES,1988/10/30,Fodor's Travel Publications,,false,15,6875319,37,44,12,2,1901/12/1,,book,3,3,5,1,0,3.67,560,Paperback,,0,0,Fodor's Travel Publications Inc.,,,,,,11,1,,"reference,travel"
14885001,0784764360,4's and 5's/Primary Teaching Pictures,9780784764367,,,,ES,2004/4/1,Standard Publishing Company,,false,7,14884925,0,0,0,0,,,,0,0,0,0,0,0.00,,Paperback,,0,0,,,,,,,,0,-1,
14885501,0784790043,Numbers/Counting: Bible Story: God's Ten Special Rules,9780784790045,,,,ES,,,,false,1,14885501,0,0,0,0,,,,0,0,0,0,0,0.00,,,,0,0,,,,,,,,0,,
14886501,0785340238,Tesoro de Los Cuentos de Hadas,9780785340232,,,,ES,,,,false,1,14886501,2,4,1,0,,,,0,1,0,0,0,4.00,,,,1,0,Walt Disney Company,,,,,,1,0,,
14887001,0684052679,Sleeping Doll,9780684052670,,,,ES,,,,false,69,1050383,26468,59060,15035,934,2007/6/5,The Sleeping Doll,book,4211,6435,3644,588,157,3.93,,,,0,0,Jeffery Deaver,,,,,,7349,29,296,"adult,adult-fiction,contemporary,crime,detective,fiction,murder-mystery,mystery,mystery-thriller,psychology,suspense,thriller"
14887501,0684313529,Encyclopedia of India,9780684313528,,,,ES,2006/1/1,Charles Scribner's Sons,,false,6,580986,28,7,2,0,2005/1/1,Encyclopedia of India,book,0,1,1,0,0,3.50,4,Hardcover,,0,0,,,Stanley Wolpert,,,,16,1,,
14888001,0444801936,Integrative Control Functions of the Brain,9780444801937,,,,ES,,Elsevier Science & Technology,,false,2,4431932,1,0,0,0,,Integrative Control Functions of the Brain,,0,0,0,0,0,0.00,,Hardcover,,0,0,Masao Ito,,,,,,1,0,,
14889001,0687495644,"NOT A BOOK: Lenten Bulletin He Was Oppressed, Regular Size (Package of 50)",9780687495641,,,,ES,2005/12/1,Abingdon Press,,false,2,14889009,0,0,0,0,2006/1/1,,book,0,0,0,0,0,0.00,,Loose-Leaf,,0,0,,,,,,,,0,,
14889501,0688107079,1 Graphis Letterheads,9780688107079,,,,ES,1991/6/1,William Morrow & Company,,false,1,14889501,0,0,0,0,1991/6/1,,,0,0,0,0,0,0.00,,Hardcover,,0,0,Graphis,,,,,,,0,,
14890001,044664708X,Dead or Alive,9780446647083,,,,ES,1971/9/12,Warner Books (NY),,false,4,3724911,26,59,14,3,1971/1/1,Dead or Alive,book,5,7,2,0,0,4.21,,Paperback,,0,0,Max Brand,,,,,,8,0,,
14890501,044696042X,Benjamin's Gift,9780446960427,,,,ES,1999/6/15,Oxmoor House,,true,12,479547,88,166,50,5,1999/1/1,Benjamin's Gift,,5,18,17,8,2,3.32,,ebook,,0,0,Michael  Golding,,,,,,27,1,,"family,fantasy,fiction,romance,science-fiction"
14891001,068981853X,Thank You and Good-Bye,9780689818530,,,,ES,,Simon & Schuster,,false,1,14891001,2,0,0,0,,,,0,0,0,0,0,0.00,,Hardcover,,0,0,Lynn Plourde,Ron Finger,,,,,2,0,,
14891501,078721745X,Pak: Racial and Ethnic Groups in America,9780787217457,,,,ES,,,,false,1,14891501,0,0,0,0,,,,0,0,0,0,0,0.00,,,,0,0,Juan L. Gonzales,,,,,,,0,,
14892001,0692007814,Wind and Water: Poems,9780692007815,,,,ES,,,,false,1,14892001,0,0,0,0,,,,0,0,0,0,0,0.00,,,,0,0,John J. McKenna,,,,,,,0,,
14892501,0697243095,Botany : Student Study Art Notebook,9780697243096,,,,ES,1995/1/1,William C. Brown,,false,1,14892501,0,0,0,0,1995/1/1,,book,0,0,0,0,0,0.00,104,Paperback,,0,0,"Kingsley R. Stern,Randall C. Moore,W. Dennis Clark",,,,,,,0,,
14893001,0702013110,Advanced Medicine 24,9780702013119,,,,ES,,,,false,1,14893001,0,0,0,0,,,,0,0,0,0,0,0.00,,,,0,0,Roger Sheppard,,,,,,,0,,
14893501,0702180513,Supervision in Nursing Practice,9780702180514,,,,ES,2009/9/1,Juta & Company,,false,1,14893501,1,4,1,0,2009/9/1,,,0,1,0,0,0,4.00,80,Paperback,,1,0,Karien Jooste,,,,,,1,0,,
14894501,045521798X,Fleming's the Law of Torts,9780455217987,,,,ES,,,,false,12,4601344,10,16,4,0,1971/1/1,Law of Torts,,1,2,1,0,0,4.00,,,,0,0,John G. Fleming,,,,,,5,0,,textbooks
14895001,0710305974,Kenana - English Version,9780710305978,,,,ES,2001/1/5,Kegan Paul,,false,1,14895001,0,0,0,0,2001/1/5,,,0,0,0,0,0,0.00,237,Hardcover,,0,0,"El_nazir,Govind Desia,Osman El Nazir",,,,,,,0,,
14895501,0470102535,Wiley Handbook of Current and Emerging Drug Therapies,9780470102534,,,,ES,,,,false,8,14895507,0,0,0,0,,,,0,0,0,0,0,0.00,,,,0,0,John Wiley & Sons,,,,,,,0,,
14896001,0712346848,Editing Historical Records,9780712346849,,,,ES,2001/9/1,British Library,,false,1,14896001,3,7,2,0,2001/9/1,,,0,1,1,0,0,3.50,104,Hardcover,,2,0,P.D.A. Harvey,,,,,,1,0,,reference
14896501,0715140280,Where Two or Three...: Help and Advice for Churches with Few or No Children,9780715140284,,,,ES,2004/9/17,Church House Pub,,false,1,14896501,3,6,2,1,2004/9/17,,,0,1,0,1,0,3.00,56,Paperback,,2,1,Margaret Withers,,,,,,1,0,,
14897501,0897243269,"Play Now Library, Bk 11: Crazy for You",9780897243261,,,,ES,1994/8/1,Alfred Music,,false,1,14897501,1,4,1,0,1994/8/1,,,0,1,0,0,0,4.00,,Paperback,,1,0,,,Alfred A. Knopf Publishing Company,,,,,0,,
14898001,0897248538,Warner Bros. Presents Christmas Favorites: Piano/Vocal/Chords,9780897248532,,,,ES,1995/9/1,Alfred Music,,false,1,14898001,0,0,0,0,1995/9/1,,,0,0,0,0,0,0.00,200,Paperback,,0,0,Alfred A. Knopf Publishing Company,,Warner Brothers,Carol Cuellar,,,,0,,
14898501,1552740544,Fairy Tale Garden Song Book [With Cassette],9781552740545,,,,ES,,,,false,1,14898501,0,0,0,0,,,,0,0,0,0,0,0.00,,,,0,0,Cethial & Bossche,,,,,,,0,,
14899001,1410712648,200 Actividades Sencillas Para Empezar Su Propio Negocio,9781410712646,,,,ES,,,,false,3,17631041,0,0,0,0,2003/4/11,,,0,0,0,0,0,0.00,,,,0,0,Pedro Ponceano,,,,,,,0,,
14899501,1553393740,"Statistics, Science and Public Policy XV: Ethics, Security and Society: Proceedings of the Conference on Statistics, Science and Public Policy Held at",9781553393740,,,,ES,,,,false,2,14899501,0,0,0,0,,,,0,0,0,0,0,0.00,,,,0,0,A.M. Herzberg,,,,,,,0,,
14900001,1848564279,Green Lantern: Agent Orange,9781848564275,,,,ES,2010/1/29,Titan Publishing Company,,false,7,6345452,2405,6461,1693,89,2009/11/10,"Green Lantern, Volume 8: Agent Orange",book,417,665,509,87,15,3.82,128,Hardcover,,6,1,Geoff Johns,"Jonathan Glapion,Philip Tan",,,,,169,26,11,"action,comics,fantasy,graphic-novels,philosophy,science-fiction,superheroes"
14900501,0593014642,"One Day for Life: Photographs by the people of Britain, taken on a single day",,,,,ES,1987/1/1,Bantam Press,eng,false,1,14900501,16,23,8,1,1987/1/1,,book,1,1,3,2,1,2.88,319,Hardcover,,8,1,Sarah Ferguson,,,,,,6,0,,non-fiction
14901001,0789014149,"Welfare, Work, and Well-Being",9780789014146,,,,ES,2001/9/6,CRC Press,,false,2,14901001,0,0,0,0,2001/9/6,,,0,0,0,0,0,0.00,299,Paperback,,0,0,Mary Clare Lennon,,,,,,,0,,
14901501,1848771878,Treasure: Fortunes Lost and Found,9781848771871,,,,ES,2010/8/1,Templar Books,,false,4,11060290,10,9,2,1,2010/8/1,,,1,1,0,0,0,4.50,64,Hardcover,,2,1,Glenn Murphy,,,,,,3,0,,history
14902001,1848846258,Tracing Your Naval Ancestors,9781848846258,,,,ES,2011/12/13,Pen & Sword Books,,false,2,14902001,8,0,0,0,2012/3/19,,,0,0,0,0,0,0.00,208,Paperback,,0,0,Simon Fowler,,,,,,7,0,1,
14902501,1848980612,Light and Sound: The Best Start in Science,9781848980617,,,,ES,2009/9/1,Ticktock Publishing Ltd,,false,5,1142383,10,7,2,0,2005/8/1,Light & Sound (Check It Out!),book,0,1,1,0,0,3.50,24,Paperback,,0,0,Clint Twist,,,,,,2,3,1,
14903001,0898682177,Henry the Owl,9780898682175,,,,ES,,,,false,4,3310744,9,28,7,0,1993/10/1,Henry Owl,,4,1,1,0,1,4.00,,,,0,0,Wendy Kanno,Bob Reese,,,,,1,2,,
14903501,1849120064,London in 3D: A Look Back in Time,9781849120067,,,,ES,2010/7/1,Casemate Publishers and Book Distributors,,false,3,22360922,338,70,15,2,2010/1/1,,,12,1,2,0,0,4.67,96,Hardcover,,0,0,Greg Dinkins,,,,,,-31,3,,"history,non-fiction"
14904001,1849232776,Southwell's,9781849232777,,,,ES,2008/12/8,FeedARead.com,,false,1,14904001,0,0,0,0,2008/12/8,,,0,0,0,0,0,0.00,346,Paperback,,0,0,Jay Whitfield,,,,,,,0,,
14904501,1555409458,Rock Inscriptions and Graffiti Project: Catalogue of Inscriptions,9781555409456,,,,ES,1994/1/1,Society of Biblical Literature,,false,3,4821991,0,0,0,0,1992/1/1,Rock Inscriptions and Graffiti Project: Catalogue of Inscriptions: 001 (Rock Inscriptions & Graffiti Project),,0,0,0,0,0,0.00,248,Hardcover,,0,0,Michael Edward Stone,,,,,,,0,,
14905001,0791038211,Native Americans of the Southwest,9780791038215,,,,ES,,,,false,2,14905001,2,4,1,0,,,,0,1,0,0,0,4.00,,,,0,0,Chelsea House Publishers,,,,,,1,0,,
14905501,0898989051,Popular Piano Duets Complete,9780898989052,,,,ES,1994/6/1,Alfred Music,,false,1,14905501,0,0,0,0,1994/6/1,,,0,0,0,0,0,0.00,108,Paperback,,0,0,,,Robert Schultz,,,,,0,,
14906001,1555711715,Collection Techniques for a Small Business,9781555711719,,,,ES,1994/1/25,Oasis,,false,2,14906001,0,0,0,0,1955/1/1,,,0,0,0,0,0,0.00,308,Paperback,,0,0,"Gini Graham Scott,Gini Graham-Scott,John J. Harrison",,,,,,,0,,
14906501,1412847451,The Transformation of the American Democratic Republic,9781412847452,,,,ES,2012/7/15,Routledge,,false,8,16602170,8,13,3,1,2012/1/1,,,2,0,1,0,0,4.33,554,Hardcover,,0,0,Stephen M. Krason,,,,,,3,0,,
14907001,0791068498,Junior Library of American Indians,9780791068496,,,,ES,,,,false,4,14907001,0,0,0,0,,,,0,0,0,0,0,0.00,,,,0,0,,,,,,,,0,0,
14907501,1850434565,British Women's History Since 1914: Sources and Readings,9781850434566,,,,ES,2015/10/29,I. B. Tauris,,false,1,14907501,1,0,0,0,2015/2/4,,,0,0,0,0,0,0.00,288,Paperback,,0,0,Janet H. Howarth,,,,,,1,0,,
14908001,1850703647,Curr Rsrch Gyno/Obst 2 Vol Set,9781850703648,,,,ES,1991/12/15,CRC Press,,false,1,14908001,2,0,0,0,1991/12/15,,,0,0,0,0,0,0.00,,Hardcover,,0,0,"Frank R. Spellman,Irini Moustaki,Joanne Drinan",,,,,,1,0,1,
14908501,1556427069,The Handbook of Digestive Diseases,9781556427060,,,,ES,2004/6/29,Slack,,false,2,4057287,0,0,0,0,2004/5/27,Handbook of Digestive Diseases,,0,0,0,0,0,0.00,,Paperback,,0,0,Anil Minocha MD; FACP; FACG,,,,,,,0,,
14909001,1413421415,Scriptures from the Orient,9781413421415,,,,ES,2003/10/8,Xlibris,,false,5,291846,4,0,0,0,2004/7/8,"Scriptures from the Orient: The Symbolic Version of the Dhammapada The Symbolic Version of Tao Te Ching of Lao Tzu, The Symbolic Version of the Kitab i Aqdas , The Symbolic Versi",,0,0,0,0,0,0.00,724,Hardcover,,0,0,Anthony John Monaco,,,,,,3,0,,
14909501,0791800636,The Internet for Scientists and Engineers: Online Tools and Resources,9780791800638,,,,ES,,,,false,8,3707071,4,0,0,0,1995/2/1,,,0,0,0,0,0,0.00,,,,0,0,Brian J. Thomas,,,,,,1,0,,
14910001,1851965858,"Guilty Money: The City of London in Victorian and Edwardian Culture, 1815-1914",9781851965854,,,,ES,2009/2/1,Pickering & Chatto Publishers,,true,1,14910001,0,0,0,0,2009/2/1,,,0,0,0,0,0,0.00,289,ebook,,0,0,R.C. Michie,,,,,,,0,,
14910501,1852300361,Psicologia de La Direccion,9781852300364,,,,ES,1990/2/22,Plaza y Janes,,false,1,14910501,0,0,0,0,1990/2/22,,,0,0,0,0,0,0.00,144,Paperback,,0,0,Mike Woods,,,,,,,0,,
14911001,0791843017,Proceedings of the Asme Int'l Mechanical Engineering Congress & Expo: Vol 7 Engnrg Education & Prof Development,9780791843017,,,,ES,,,,false,1,14911001,0,0,0,0,,,,0,0,0,0,0,0.00,,,,0,0,American Society of Mechanical Engineers,,,,,,,0,,
14911501,0791849341,"Proceedings of the 18th International Conference on Nuclear Engineering --2010: Presented at 18th International Conference on Nuclear Engineering: May 17-21, 2010, Xi'an, China",9780791849347,,,,ES,2011/1/1,American Society of Mechanical Engineers,,false,1,14911501,0,0,0,0,2011/1/1,,,0,0,0,0,0,0.00,7,Hardcover,,0,0,,,Zhongguo He Xue Hui,,,,,0,,
14912501,1853020443,The Science and Practice of Gerontology: A Multidisciplinary Approach,9781853020445,,,,ES,,,,false,1,14912501,0,0,0,0,,,,0,0,0,0,0,0.00,,,,0,0,"Ann H. Sontz,Nancy J. Osgood",,,,,,,0,,
14913001,0906273919,Cruising Around the Caribbean,9780906273913,,,,ES,2000/1/1,Hunter Publishing (NJ),,false,1,14913001,0,0,0,0,2000/1/1,,,0,0,0,0,0,0.00,359,Paperback,,0,0,,,,,,,,0,,
14913501,1413473636,Just a Life: A Memoir,9781413473636,,,,ES,,,,false,1,14913501,0,0,0,0,,,,0,0,0,0,0,0.00,,,,0,0,Hugo W. Matson,,,,,,,0,,
14914001,1853339814,Comp.Int.Market 1992 Technical S.1 '94,9781853339813,,,,ES,1994/5/17,Springer,,false,1,14914001,0,0,0,0,1994/5/17,,,0,0,0,0,0,0.00,,Unknown Binding,,0,0,,,,Richard A. Brealey,,,,0,,
14914501,1413485650,Soulful Branches: Simply Words-Volume I,9781413485653,,,,ES,2005/1/1,Xlibris Corporation,,false,2,14914501,5,4,1,2,2005/1/1,,book,0,1,0,0,0,4.00,260,Hardcover,,1,2,Queen Of Spades,,,,,,3,0,,
14915001,1853594377,Sociopolitics of English Language Teachi,9781853594373,,,,ES,2000/3/3,Multilingual Matters Limited,,false,3,1028118,6,14,3,0,2000/2/15,The Sociopolitics of English Language Teaching (Bilingual Education & Bilingualism 21),,2,1,0,0,0,4.67,272,Hardcover,,0,0,,,,Joan Kelly Hall,,,2,0,1,
14915501,155723258X,Afternoon Tailspinners: Disney 4 Story Gift Set,9781557232588,,,,ES,,,,false,1,14915501,1,0,0,0,,,book,0,0,0,0,0,0.00,,,,0,0,Walt Disney Company,,,,,,1,0,,
14916001,1853831689,Recycling and the Politics of Urban Waste,9781853831683,,,,ES,1994/4/1,Routledge,,false,1,14916001,0,0,0,0,1994/4/1,,,0,0,0,0,0,0.00,160,Paperback,,0,0,"Matthew Gandy,Matthew Lardy",,,,,,,0,,
14916501,0793518792,Christmas Time,9780793518791,,,,ES,1979/10/1,Hal Leonard Publishing Corporation,,false,1,14916501,0,0,0,0,1979/10/1,,,0,0,0,0,0,0.00,48,Paperback,,0,0,Will Schmid,,,,,,,0,,
14917001,1854107283,Richard Trevithick: The Man and His Machine,9781854107282,,,,ES,2000/9/1,Aurum Press,,false,1,14917001,1,0,0,0,2000/9/1,,,0,0,0,0,0,0.00,256,Hardcover,,0,0,Anthony Burton,,,,,,1,0,,
14917501,1557759952,Full Dollarization: The Pros and Cons,9781557759955,,,,ES,,,,false,5,14917499,0,0,0,0,,,,0,0,0,0,0,0.00,,,,0,0,"Andrew Berg,Eduardo Borensztein",,,,,,,0,,
14918001,1854354485,Cultures of the World Set 4,9781854354488,,,,ES,1995/2/1,Cavendish Square Publishing,,false,1,14918001,1,0,0,0,1995/2/1,,,0,0,0,0,0,0.00,,Hardcover,,0,0,Benchmark,,,,,,1,0,,
14918501,155800761X,Guerrilla Public Relations,9781558007611,,,,ES,,,,false,17,1067111,190,242,70,4,1993/1/1,Guerrilla PR,book,11,24,24,8,3,3.46,,,,0,0,Michael Levine,,,,,,78,1,12,"business,non-fiction,self-help"
14919001,1413747760,The Gift from the Hand of the Monkey,9781413747768,,,,ES,,,,false,1,14919001,1,0,0,0,,,,0,0,0,0,0,0.00,,,,0,0,Linda Jackson,,,,,,1,0,,
14919501,0793592763,Stephen Covello-Arioso: For Flute and Piano,9780793592760,,,,ES,1998/4/1,Hal Leonard Publishing Corporation,,false,1,14919501,0,0,0,0,1998/4/1,,,0,0,0,0,0,0.00,4,,,0,0,G. Schirmer Inc.,,,,,,,0,,
14920001,1413761372,Was That You?,9781413761375,,,,ES,,,,false,1,14920001,0,0,0,0,,,,0,0,0,0,0,0.00,,,,0,0,Philip C. Dejulio,,,,,,,0,,
14921001,0797428046,Grandmothers and Orphan Care in Zimbabwe,9780797428041,,,,ES,,,,false,1,14921001,1,0,0,0,,,,0,0,0,0,0,0.00,,,,0,0,Neddy Matshalaga,,,,,,1,0,,
14921501,0914732412,The Bhagavad Giat or Song Divine,9780914732419,,,,ES,,,,false,1,14921501,0,0,0,0,,,,0,0,0,0,0,0.00,,,,0,0,,,,,,,,0,,
14922001,1856072126,Greek Philosophy and the Christian Notion of God,9781856072120,,,,ES,1999/5/27,International Scholars Publications,,false,2,14922001,0,0,0,0,1999/4/20,,,0,0,0,0,0,0.00,154,Hardcover,,0,0,Gerard Watson,,,,,,,0,,
14922501,1559213574,University and Corporate America: Bridging the Two Worlds,9781559213578,,,,ES,2005/9/1,Moyer Bell,,false,1,14922501,0,0,0,0,2005/9/1,,,0,0,0,0,0,0.00,352,Paperback,,0,0,Lloyd Elliott,,,,,,,0,,
14923001,141403492X,The Thinking Traveler: 1946-2003,9781414034928,,,,ES,,,,false,1,14923001,0,0,0,0,,,,0,0,0,0,0,0.00,,,,0,0,John Money,,,,,,,0,,
14923501,0801664039,Structure & Function of the Body,9780801664038,,,,ES,,,,false,48,1310134,213,360,89,6,1900/3/1,Structure & Function of the Body,book,37,28,17,5,2,4.04,,,,0,0,Gary A. Thibodeau,,,,,,56,3,19,"education,medical,reference,school,science,textbooks"
14924001,0801802652,Revenue Sharing and the City,9780801802652,,,,ES,,,,false,1,14924001,0,0,0,0,,,,0,0,0,0,0,0.00,,,,0,0,Walter W. Heller,,,,,,,0,,
14924501,1857287436,Ancient Naval Warfare,9781857287431,,,,ES,,Routledge,,false,1,14924501,2,0,0,0,,,,0,0,0,0,0,0.00,256,Hardcover,,0,0,Philip de Souza,,,,,,1,0,,
14925001,1857434854,A Dictionary of the European Union,9781857434859,,,,ES,2008/6/6,Routledge,,false,15,16749831,4,0,0,0,2002/3/10,,,0,0,0,0,0,0.00,474,Hardcover,,0,0,"David Phinnemore,Lee McGowan",,,,,,2,0,,
14925501,1857752341,General Practice Employment Handbook,9781857752342,,,,ES,1998/1/1,Radcliffe Medical Press,,false,1,14925501,0,0,0,0,1998/1/1,,,0,0,0,0,0,0.00,176,Hardcover,,0,0,Norman Ellis,,,,,,,0,,
14926001,0918259819,Positively Pregnant,9780918259813,,,,ES,,,,false,1,14926001,0,0,0,0,,,,0,0,0,0,0,0.00,,,,0,0,Steve Phillips,,,,,,,0,,
14926501,1560229381,An Encyclopedia of Small Fruit,9781560229384,,,,ES,2008/3/25,Food Products Press,,false,2,5240995,3,5,1,0,2008/3/28,,,1,0,0,0,0,5.00,146,Hardcover,,0,0,Robert E. Gough,,,,,,3,0,,
14927501,1560530634,Dental Secrets,9781560530633,,,,ES,1994/1/1,Hanley & Belfus,,false,8,362332,851,558,137,7,1994/1/1,Dental Secrets,,68,34,19,9,7,4.07,233,Paperback,,0,0,,,Stephen T. Sonis,,,,586,2,42,"classics,education"
14928001,1859221866,Annual of Cardiac Surgery,9781859221860,,,,ES,1995/1/1,W.B. Saunders Company,,false,1,14928001,0,0,0,0,1995/1/1,,,0,0,0,0,0,0.00,,Hardcover,,0,0,Yacoub,,,,,,,0,,
14928501,0921057431,On Secluded Waters: Three Epic Poems,9780921057437,,,,ES,1994/4/1,Aardvark Enterprises,,false,1,14928501,0,0,0,0,1994/4/1,,,0,0,0,0,0,0.00,24,Paperback,,0,0,Duffy Bebout,,,,,,,0,,
14929001,0802390773,An Irish Whistle Book Demo CD,9780802390776,,,,ES,2000/12/1,Ossian,,false,1,14929001,0,0,0,0,2000/12/1,,,0,0,0,0,0,0.00,,Audio CD,,0,0,,,,,,,,0,,
14931001,0803124880,Safety in Ice Hockey:,9780803124882,,,,ES,,,,false,1,14931001,1,0,0,0,,,,0,0,0,0,0,0.00,,,,0,0,"Alan B. Ashare,C.R. Castaldi",,,,,,1,0,,
14931501,141760185X,Poemas de Navidad / Christmas Poems,9781417601851,,,,ES,,,,false,1,14931501,0,0,0,0,,,,0,0,0,0,0,0.00,,,,0,0,,,,,,,,0,,
14932001,0803476108,Heartbreak Trail to Pueblo,9780803476103,,,,ES,2011/10/1,AmazonEncore,,false,3,18800062,7,24,6,0,2011/10/1,,,3,1,1,1,0,4.00,192,Hardcover,,1,0,Jim Kennison,,,,,,3,0,,
14932501,0803603762,The Arthritis Handbook,9780803603769,,,,ES,1996/1/1,F. A. Davis Company,,false,1,14932501,0,0,0,0,1996/1/1,,,0,0,0,0,0,0.00,187,Paperback,,0,0,Arthritis Foundation,,,,,,,0,,
14933001,0930030753,Pacific Boating Almanac 1994 Cruising Guide: Channel Islands and California,9780930030759,,,,ES,1993/9/1,LPC Group,,false,1,14933001,0,0,0,0,1993/9/1,,,0,0,0,0,0,0.00,,Paperback,,0,0,Peter L. Griffes,,,,,,,0,,
14933501,0930390970,Caste and Class Controversy on Race and Poverty: Round Two of the Willie/Wilson Debate,9780930390976,,,,ES,1989/1/1,Rowman & Littlefield Publishers,,false,1,14933501,0,0,0,0,1989/1/1,,,0,0,0,0,0,0.00,192,Hardcover,,0,0,Charles V. Willie,,Harry Edwards,,,,,0,,
14934001,1562220667,Mel Bay Presents British Fingerpicking Guitar,9781562220662,,,,ES,,,,false,1,14934001,0,0,0,0,,,,0,0,0,0,0,0.00,,,,0,0,Stefan Grossman,,,,,,,0,,
14934501,1562435795,Intermediate Microsoft Access 97: Day 2 [With Disk],9781562435790,,,,ES,,,,false,1,14934501,0,0,0,0,,,,0,0,0,0,0,0.00,,,,0,0,DDC Publishing,,,,,,,0,,
14935001,0931462843,"Gruenfeld Defense, Russian Variations",9780931462849,,,,ES,,,,false,2,14935001,0,0,0,0,1985/7/1,,,0,0,0,0,0,0.00,,,,0,0,Eric Schiller,,,,,,,0,,
14935501,186340029X,Fiddlers Bridge,9781863400299,,,,ES,,,,false,1,14935501,0,0,0,0,,,,0,0,0,0,0,0.00,,,Large Print,0,0,Rit Denton,,,,,,,0,,
14936001,0932076084,"North African Villages: Morocco, Algeria, & Tunisia",9780932076083,,,,ES,1989/10/1,Documan Press Ltd,,false,1,14936001,0,0,0,0,1989/10/1,,,0,0,0,0,0,0.00,,Hardcover,,0,0,,,,,,,,0,,
14937001,1869141105,"Slavery, Emancipation and Colonial Rule in South Africa",9781869141103,,,,ES,2007/7/1,University of Kwazulu Natal Press,,false,1,14937001,1,0,0,0,2007/7/1,,,0,0,0,0,0,0.00,256,Paperback,,0,0,Wayne Dooling,,,,,,,0,,
14937501,186962162X,Classic: The Revival of Classic Boating in New Zealand,9781869621629,,,,ES,,,,false,1,14937501,1,0,0,0,,,,0,0,0,0,0,0.00,,,,0,0,Ivor Wilkins,,,,,,1,0,,
14938001,0933291779,To Judge or Not to Judge,9780933291775,,,,ES,1998/12/12,Foundation for a Course in Miracles,,false,1,14938001,1,0,0,0,1998/12/12,,,0,0,0,0,0,0.00,,Audio,,0,0,Kenneth Wapnick,,,,,,,0,,
14938501,1870612035,Sundowner,9781870612036,,,,ES,1992/9/1,Enitharmon Press,,false,1,14938501,1,2,1,0,1992/11/11,,,0,0,0,1,0,2.00,56,Paperback,,1,0,Phoebe Hesketh,,,,,,1,0,,
14939001,1563476584,Composite Materials for Aircraft Structures,9781563476587,,,,ES,2004/7/1,AIAA (American Institute of Aeronautics & Astronautics),,false,3,926333,13,0,0,0,2004/7/1,Composite Materials for Aircraft Structures (Aiaa Education Series),book,0,0,0,0,0,0.00,,Hardcover,,0,0,Alan Baker,,,,,,7,0,1,
14939501,1418481068,The Adventures of Archie Reynolds,9781418481063,,,,ES,,,,false,2,8590476,3,2,1,1,2003/7/1,,book,0,0,0,1,0,2.00,,,,0,0,Gifford Bailey,,,,,,2,0,,
14940001,0934613028,Ijcai Proceedings 1985,9780934613026,,,,ES,,,,false,1,14940001,0,0,0,0,,,,0,0,0,0,0,0.00,,,,0,0,,,,IJCAI,,,,0,,
14940501,0934798575,The Best of Tech Topics,9780934798570,,,,ES,,,,false,3,6545807,5,3,1,0,1997/12/1,The Best of Tech Topics,,0,0,1,0,0,3.00,,,,0,0,Bob Livingston,,,,,,1,0,,
14941001,1418913413,"Flying Colors Nonfiction: Shells, Level Blue [With Teacher's Guide]",9781418913410,,,,ES,,,,false,3,14941001,4,10,2,0,2005/8/1,,,2,0,0,0,0,5.00,,,,1,0,Julie Haydon,,,,,,4,0,,
14941501,1873797338,Class Struggle and Resistance in Africa,9781873797334,,,,ES,2002/5/28,New Clarion Press,,false,6,3466960,70,38,9,1,2002/5/28,Class Struggle and Resistance in Africa (Haymarket Books),book,4,3,2,0,0,4.22,224,Paperback,,0,0,,,,Leo Zeilig,,,57,1,1,"class,economics,history,politics"
14942001,0806515112,501 Business Leads: The Ultimate Guide to Cutting Through Red Tape and Making the Contacts You Need,9780806515113,,,,ES,,,,false,1,14942001,0,0,0,0,,,,0,0,0,0,0,0.00,,,,0,0,Gale Cengage Learning,,,,,,,0,,
14942501,1420077090,Kaizen for the Shopfloor Leaders Guide,9781420077094,,,,ES,2000/6/7,Productivity Press,,false,1,14942501,4,6,2,0,2000/6/5,,,1,0,0,0,1,3.00,,Paperback,,2,0,Productivity Press Development Team,,,,,,2,0,,
14943001,1875690581,Scales and Modes for Guitar,9781875690589,,,,ES,2005/2/1,L.T.P. Publications,,false,2,14943001,3,7,2,0,2005/2/1,,,1,0,0,1,0,3.50,,Paperback,,2,0,Peter Gelling,,,,,,1,0,,
14943501,1420801694,Happy Tears: An Adoption Story,9781420801699,,,,ES,,,,false,1,14943501,0,0,0,0,,,,0,0,0,0,0,0.00,,,,0,0,Connie Kamp,,,,,,,0,,
14944001,0807200700,Something Queer at the Haunted School,9780807200704,,,,ES,1986/3/1,Listening Library,,false,7,2256041,128,304,72,11,1982/6/1,"Something Queer at the Haunted School (Something Queer Mysteries, Book 5)",book,33,25,11,3,0,4.22,,Audiobook,,0,0,Elizabeth Levy,,,,,,22,3,1,"american,chapter-books,childrens,fiction,horror,literature,middle-grade,mystery,picture-books,queer"
14944501,1420827782,Sleeping with Dragons,9781420827781,,,,ES,,,,false,3,14944501,0,0,0,0,2005/3/16,,book,0,0,0,0,0,0.00,,,,0,0,Leslie J. Weddell,,,,,,,0,,
14945001,1420844903,Pilates 4 Kidzz,9781420844900,,,,ES,2005/4/1,Authorhouse,,false,1,14945001,0,0,0,0,2005/4/1,,,0,0,0,0,0,0.00,96,Paperback,,0,0,,,,,,,,0,,
14945501,1877802840,Relational Democracy,9781877802843,,,,ES,2008/11/1,"Center for Basque Studies UV of Nevada, Reno",,false,2,7027404,1,2,1,0,2008/1/1,,,0,0,0,1,0,2.00,253,Paperback,,0,0,Pedro Ibarra G'Uell,,,,,,,0,,
14946001,093854019X,Providing Constructive Feedback:,9780938540199,,,,ES,,,,false,1,14946001,1,0,0,0,,,,0,0,0,0,0,0.00,,,,0,0,Westberg,,,,,,1,0,,
14946501,1565930452,Pain: A Handbook for Nurses,9781565930452,,,,ES,1992/1/1,Chapman & Hall,,false,1,14946501,0,0,0,0,1992/1/1,,,0,0,0,0,0,0.00,,Hardcover,,0,0,Beatrice Sofaer,,,,,,,0,,
14947001,1421537494,Pokemon Diamond and Pearl Adventure February 2010 Carton Packaging Ppk40,9781421537498,,,,ES,,,,false,1,14947001,23,33,7,1,,,,6,0,1,0,0,4.71,,,,7,1,Viz Kids,,,,,,12,0,,
14947501,1566372380,From School to Work: Student Activity Guide,9781566372381,,,,ES,,,,false,3,3348859,0,0,0,0,1994/9/1,From School to Work/Student Activity Guide,,0,0,0,0,0,0.00,,,,0,0,J.J. Littrell,,,,,,,0,,
14948001,1878591142,Golfing in British Columbia,9781878591142,,,,ES,2003/4/30,Mac Productions,,false,2,14948005,0,0,0,0,,,,0,0,0,0,0,0.00,400,Paperback,,0,0,Daniel E. MacMillan,,,,,,,0,,
14948501,1566701236,Environmental Management Handbook,9781566701235,,,,ES,1994/7/15,CRC Press,,false,2,4672211,0,0,0,0,1992/1/1,"Environmental Management Handbook, The Holistic Approach from Problems to Strategies",,0,0,0,0,0,0.00,759,Hardcover,,0,0,Sven-Olof Ryding,,,,,,,0,,
14949001,1566774330,Chemical Solution Deposition of Semiconducting and Non-Metallic Films: Proceedings of the International Symposium,9781566774338,,,,ES,2006/1/1,Electrochemical Society,,false,1,14949001,0,0,0,0,2006/1/1,,,0,0,0,0,0,0.00,234,Hardcover,,0,0,,,Electrochemical Society,,,,,0,,
14949501,,How To Market A Book,,B008840PCI,,,ES,2012/6/1,Booktrope Editions,en-US,true,3,15904474,267,193,46,11,2012/5/31,,book,20,19,5,0,2,4.20,,ebook,,19,2,"Katherine Sears,Lori Culwell",,,,,,208,1,2,"non-fiction,writing"
14950001,1567261906,Cost Estimating and Pricing (Actionpack),9781567261905,,,,ES,2007/2/1,Berrett-Koehler Publishers,,false,1,14950001,2,0,0,0,,,,0,0,0,0,0,0.00,162,Paperback,,0,0,Gregory A. Garrett,,,,,,1,0,,
14950501,0809595656,Barlasch of the Guard,9780809595655,,,,ES,2004/1/1,Wildside Press,,false,24,1327805,30,37,9,2,1971/1/1,Barlasch of the Guard,book,4,3,1,1,0,4.11,252,Hardcover,,0,0,,,Henry Seton Merriman,,,,17,1,1,"historical,historical-fiction"
14951001,1423363922,Goal Setting: How to Create an Action Plan and Achieve Your Goals,9781423363927,,,,ES,2008/6/1,Brilliance Audio,,false,15,2983183,185,122,36,6,1993/10/29,Goal Setting: How to Create an Action Plan and Achieve Your Goals,book,5,11,14,5,1,3.39,,Audio,Abridged,0,0,"Michael S. Dobson,Susan B. Wilson",,,,,Jim Bond,103,6,14,"business,non-fiction,personal-development,psychology,reference,self-help"
14951501,1880266113,Lifestyles of Faith: Book 2,9781880266113,,,,ES,,,,false,1,14951501,0,0,0,0,,,,0,0,0,0,0,0.00,,,,0,0,Marilyn Kunz,,,,,,,0,,
14952001,1423469208,High School Musical 3: Violin,9781423469209,,,,ES,,,,false,1,14952001,3,5,1,0,,,,1,0,0,0,0,5.00,,,,1,0,,,,,,,3,0,,
14952501,1567840701,Hop to the Top,9781567840704,,,,ES,1994/12/1,Newbridge Educational Publishing,,false,2,14952501,5,5,2,1,,,,0,0,1,1,0,2.50,16,Paperback,,1,0,"Helen Lester,Patrick Girouard",,,,,,,0,,
14953001,0942349032,Secrecy and Democracy,9780942349030,,,,ES,1990/9/1,Educators for Social Responsibility,,false,1,14953001,0,0,0,0,,,,0,0,0,0,0,0.00,,Paperback,,0,0,Steven Cohen,,,,,,,0,,
14953501,1568218427,Couples in Collusion,9781568218427,,,,ES,1996/5/1,Jason Aronson,,false,3,2300203,14,21,6,0,1977/7/1,Couples in Collusion (Couples in Collusion CL),,2,0,3,1,0,3.50,,Paperback,,0,0,Jurg Willi,,,,,,7,0,,psychology
14954001,1568304471,Redefining Design,9781568304472,,,,ES,1998/1/1,Hayden Books,,false,1,14954001,0,0,0,0,1998/1/1,,,0,0,0,0,0,0.00,304,Paperback,,0,0,"Planet Des,Planet Design Company",,,,,,,0,,
14954501,1425007805,"Sacred Fount, the (Large Print)",9781425007805,,,,ES,,,,false,96,551959,541,655,202,37,1901/1/1,Sacred Fount ,book,38,58,45,37,24,3.24,,,Large Print,0,0,Henry James,,,,,,265,9,8,"american,americana,classics,english-literature,fantasy,fiction,historical-fiction,literary-fiction,literature,mystery,novels,queer,romance"
14955001,1425013902,"Neal, the Miller",9781425013905,,,,ES,,,,false,22,7857484,6,13,3,0,1895/1/1,,book,1,2,0,0,0,4.33,,,,0,0,James Otis,,,,,,2,0,1,history
14956001,1568985711,Princeton Backlist Catalog,9781568985718,,,,ES,,,,false,1,14956001,0,0,0,0,,,,0,0,0,0,0,0.00,,,,0,0,Princeton Architectural Press,,,,,,,0,,
14956501,1569010277,The Confession,9781569010273,,,,ES,,,,false,1,14956501,0,0,0,0,,,,0,0,0,0,0,0.00,,,,0,0,John Grazer,,,,,,,0,,
14957001,1569014809,A Day of Reckoning,9781569014806,,,,ES,,,,false,1,14957001,0,0,0,0,,,,0,0,0,0,0,0.00,,,,0,0,Kurt Arnusch,,,,,,,0,,
14957501,0945267053,Cas-We All Live Together-Vol 3,9780945267058,,,,ES,,,,false,1,14957501,0,0,0,0,,,,0,0,0,0,0,0.00,,,,0,0,Greg Scesla,,,,,,,0,,
14958001,0945495420,The Electrical Plan Reading Workbook,9780945495420,,,,ES,2002/1/1,Henry Publications,,false,1,14958001,0,0,0,0,2002/1/1,,,0,0,0,0,0,0.00,134,Hardcover,,0,0,Tom Henry,,,,,,,0,,
14958501,1425133134,Alex & Luiza,9781425133139,,,,ES,,,,false,1,14958501,0,0,0,0,,,,0,0,0,0,0,0.00,,,,0,0,Zo? Hamlet,,,,,,,0,,
14959001,0946378231,Britain's Railway Steamers: Scottish & Irish Companies + Macbrayne and Stena,9780946378234,,,,ES,,,,false,1,14959001,1,0,0,0,1994/4/1,,,0,0,0,0,0,0.00,,,,0,0,Duncan Haws,,,,,,1,0,,
14959501,1569911703,What's in the Bag? a Shoplifting Treatment and Education Program,9781569911709,,,,ES,2003/1/1,American Correctional Association,,false,2,14959501,0,0,0,0,2003/1/1,,,0,0,0,0,0,0.00,2,Hardcover,,0,0,Gail Caputo,,,,,,,0,,
14960001,1883726239,Bradford's Crs on Family Law and Domestic Matters,9781883726232,,,,ES,,,,false,1,14960001,0,0,0,0,,,,0,0,0,0,0,0.00,,,,0,0,Bradford Publishing,,,,,,,0,,
14960501,0813554527,You're the First One I've Told: The Faces of HIV in the Deep South,9780813554525,,,,ES,2013/3/15,Rutgers University Press,,false,5,14960504,8,13,3,0,2013/1/1,,,2,0,1,0,0,4.33,272,Paperback,,3,0,"Brian Pence,Kathryn Whetten-Goldstein",,,,,,5,0,,
14961001,1570433526,Key of Opportunity: An Illustrated Eck Parable,9781570433528,,,,ES,2011/10/1,Eckankar,,false,1,14961001,0,0,0,0,2011/10/1,,,0,0,0,0,0,0.00,,Paperback,,0,0,Harold Klemp,,,,,,,0,,
14961501,0813828287,Canine & Feline Behavior Mngmt-9,9780813828282,,,,ES,,,,false,1,14961501,0,0,0,0,,,,0,0,0,0,0,0.00,,,,0,0,Hetts,,,,,,,0,,
14962001,1425722296,Toxic Faith - Liberal Cure,9781425722296,,,,ES,2006/7/1,Xlibris Corporation,,false,1,14962001,0,0,0,0,2006/7/1,,book,0,0,0,0,0,0.00,152,Hardcover,,0,0,"Daniel C. Strieter,Tho Bruch",,,,,,,0,,
14962501,1884807666,Animal Counting 123,9781884807664,,,,ES,,,,false,1,14962501,0,0,0,0,,,,0,0,0,0,0,0.00,,,,0,0,,,,,,,,0,,
14963001,0814622798,"Sundays and Weekdays Cycles A, B, C",9780814622797,,,,ES,,,,false,1,14963001,0,0,0,0,,,,0,0,0,0,0,0.00,,,,0,0,Liturgical Press,,,,,,,0,,
14963501,1570881286,Camp County Cemeteries: Cemeteries in and Around Camp County,9781570881282,,,,ES,2008/1/1,Camp County Genealogical Society 2007-,,false,1,14963501,0,0,0,0,2008/1/1,,,0,0,0,0,0,0.00,,Paperback,,0,0,,,Camp County Genealogical Society,,,,,0,,
14964001,1425742483,Something Borrowed,9781425742485,,,,ES,,,,false,2,14964001,1,0,0,0,2007/8/30,,,0,0,0,0,0,0.00,,,,0,0,Robert Lewis,,,,,,1,0,,
14964501,1885479034,Learn to Meditate: Journey Toward Self-Discovery,9781885479037,,,,ES,,,,false,1,14964501,2,4,1,1,,,,0,1,0,0,0,4.00,,,,1,1,George McKeever,,,,,,1,0,,
14965001,1571322205,The Three Little Pigs and Other Fun Fairy Tales [With Booklet W/Games and Activities and Barney Crayons],9781571322203,,,,ES,,,,false,1,14965001,0,0,0,0,,,,0,0,0,0,0,0.00,,,,0,0,Lyrick Studios,,,,,,,0,,
14965501,0955266114,Reflections,9780955266119,,,,ES,,,,false,1,14965501,0,0,0,0,,,,0,0,0,0,0,0.00,,,,0,0,D. Allison,,,,,,,0,,
14966001,1425769624,Trespass the Heart,9781425769628,,,,ES,,,,false,2,14966001,0,0,0,0,,,,0,0,0,0,0,0.00,,,,0,0,S.L. Miller,,,,,,,0,,
14966501,1886223130,Between Galicia and Hungary: The Jews of Stropkov,9781886223134,,,,ES,2002/12/31,Avotaynu,,false,1,14966501,4,10,2,1,2002/1/1,,book,2,0,0,0,0,5.00,204,Unknown Binding,,2,1,Melody Amsel-Arieli,,,,,,2,0,,
14967001,188637550X,Best Stocks to Trade for 1995,9781886375505,,,,ES,,,,false,1,14967001,0,0,0,0,,,,0,0,0,0,0,0.00,,,,0,0,William F. Eng,,,,,,,0,,
14967501,1572156147,"Three & Four Ingredients 500 Recipes: Delicious, No-Fuss Dishes Using Just Four Ingredients or Less, from Breakfasts and Snacks to Main Courses and Desserts, All Shown in 500 Fabulous Photographs",9781572156142,,,,ES,2010/10/1,JG Press,,false,2,14967501,3,4,1,0,2010/10/1,,book,0,1,0,0,0,4.00,256,Hardcover,,1,0,Jenny  White,,,,,,1,0,,
14968001,0815710070,de-Alerting Strategic Forces,9780815710073,,,,ES,1999/10/1,Brookings Institution Press,,false,1,14968001,1,0,0,0,1999/10/1,,,0,0,0,0,0,0.00,90,Paperback,,0,0,Bruce G. Blair,,,,,,1,0,,
14968501,1572582529,God Unfolds Your Future,9781572582521,,,,ES,,,,false,1,14968501,0,0,0,0,,,,0,0,0,0,0,0.00,,,,0,0,Ronald C. Gregory,,,,,,,0,,
14969001,1887334416,"Preservation Priorities in Latin America: A Report from the Sixtieth Ifla Meeting, Havana, Cuba",9781887334419,,,,ES,,,,false,1,14969001,0,0,0,0,,,,0,0,0,0,0,0.00,,,,0,0,Dan Hazen,,,,,,,0,,
14969501,1427188424,The Appalachians,9781427188427,,,,ES,2011/9/1,Crabtree Publishing Company,,false,4,14970250,2,3,1,0,2011/8/15,,,0,0,1,0,0,3.00,48,Hardcover,,0,0,Molly Aloian,,,,,,,0,,
14970001,1887654968,Hey God What Is Death,9781887654968,,,,ES,2008/7/1,Premium Press America,,false,1,14970001,0,0,0,0,2008/7/1,,,0,0,0,0,0,0.00,,Hardcover,,0,0,Roxie Gibson,,,,,,,0,,
14970501,0816324328,William Miller and the Rise of Adventism,9780816324323,,,,ES,2010/1/1,Pacific Press Publishing Association,,false,1,14970501,32,49,11,2,2011/1/1,,book,6,4,1,0,0,4.45,336,Hardcover,,11,2,George R. Knight,,,,,,19,1,1,"biography,history,religion"
14971001,1427795657,The Illustrated Home,9781427795656,,,,ES,2007/1/1,Kaplan Publishing,,false,1,14971001,0,0,0,0,2007/1/1,,,0,0,0,0,0,0.00,364,Paperback,,0,0,Carson Dunlop,,,,,,,0,,
14971501,1888343613,The Nursing Assistant's Handbook,9781888343618,,,,ES,,,,false,2,2865596,65,63,13,1,2006/8/15,"The Nursing Assistant's Handbook, 2nd Edition",,12,0,1,0,0,4.85,,,,1,0,Hartman Publishing,,,,,,40,0,2,"education,school"
14972001,1888608730,Midwest Fruit and Vegetable Book: Minnesota,9781888608731,,,,ES,,,,false,1,14972001,1,5,1,0,,,,1,0,0,0,0,5.00,,,,1,0,Jim Fizzell,,,,,,1,0,,
14972501,1574071718,"Posb KJV DLX, 1 Kings",9781574071719,,,,ES,2009/2/1,Leadership Ministries Worldwide,,false,1,14972501,1,3,1,0,2009/2/1,,,0,0,1,0,0,3.00,,Paperback,,1,0,,,,,,,,0,,
14973001,0963126504,The Pleasure of Your Company: Hors D'Oeuvres & Party Planning,9780963126504,,,,ES,1991/1/1,"Pleasure of Your Company, the",,false,1,14973001,1,0,0,0,,,,0,0,0,0,0,0.00,100,Paperback,,0,0,"Diane Phillips,Nonnie Cameron",,,,,,1,0,,
14973501,1429265493,Organic Chemistry [with WebAssign 6-Months Access Code],9781429265492,,,,ES,2010/6/15,W. H. Freeman,,false,74,209165,415,527,149,14,1987/5/1,Organic Chemistry: Structure and Function,book,35,55,28,17,14,3.54,,Hardcover,,0,0,K. Peter C. Vollhardt,,,,,,142,3,17,"canon,non-fiction,reference,school,science,textbooks"
14974001,1429601752,3-D Shapes Set,9781429601757,,,,ES,2007/9/1,Capstone Press,,false,2,14974001,0,0,0,0,2007/9/1,,,0,0,0,0,0,0.00,96,Hardcover,,0,0,Nathan Olson,,,,,,,0,,
14974501,081761124X,Tall Buildings,9780817611248,,,,ES,,,,false,1,14974501,0,0,0,0,,,,0,0,0,0,0,0.00,,,,0,0,Zimmerli,,,,,,,0,,
14975001,157490308X,Gun and Star,9781574903089,,,,ES,2001/1/1,Sagebrush Large Print Westerns,,false,2,14975270,1,0,0,0,2001/1/1,,,0,0,0,0,0,0.00,156,Unknown Binding,,0,0,D.B. Newton,,,,,,,0,,
14975501,157502618X,Rejection: Turning Your Lemons Into Lemonade!,9781575026183,,,,ES,,,,false,1,14975501,0,0,0,0,,,,0,0,0,0,0,0.00,,,,0,0,Marc Royer,,,,,,,0,,
14976001,1432707817,The Poetry Journal,9781432707811,,,,ES,,,,false,1,14976001,0,0,0,0,,,,0,0,0,0,0,0.00,,,,0,0,Angela Brown,,,,,,,0,,
14976501,0964105209,Management Application of Value Engineering: For Business and Government,9780964105201,,,,ES,1994/12/31,Foundation,,false,1,14976501,1,5,1,0,1994/12/31,,,1,0,0,0,0,5.00,202,Hardcover,,1,0,Donald E. Parker,,,,,,,0,,
14977001,0819112380,Russia Versus China and What Next?,9780819112385,,,,ES,,,,false,1,14977001,0,0,0,0,,,,0,0,0,0,0,0.00,,,,0,0,"Jo,Ying-Hsien Pi,Yung-hwan Jo",,,,,,,0,,
14977501,1891280155,El Poder del Rosario,9781891280153,,,,ES,,,,false,1,14977501,1,0,0,0,,,,0,0,0,0,0,0.00,,,,0,0,,,,,,,,0,,
14978001,1433114410,"The Long History of New Media: Technology, Historiography, and Contextualizing Newness",9781433114410,,,,ES,2011/5/31,"Peter Lang Inc., International Academic Publishers",,false,2,11249413,14,12,3,1,2011/5/6,,,0,3,0,0,0,4.00,350,Hardcover,,0,0,,,,David W. Park,,,4,0,2,
14978501,1891771531,"A Laboratory for Art: Harvard's Fogg Museum and the Emergence of Conservation in America, 1900-1950",9781891771538,,,,ES,2010/5/31,Harvard Art Museum.,,false,1,14978501,3,0,0,0,2010/5/1,,,0,0,0,0,0,0.00,365,Hardcover,,0,0,Francesca G. (Francesca Gabrielle Bewer,,,,,,3,0,,
14979001,0819168920,Women and the Arizona Political Process,9780819168924,,,,ES,1988/3/31,University Press of America,,false,2,4400564,0,0,0,0,,,,0,0,0,0,0,0.00,202,Paperback,,0,0,Rita Mae Kelly,,,,,,,0,,
14979501,1575871165,I Hate Florida,9781575871165,,,,ES,1999/1/1,Crane Hill Publishers,,false,2,14979501,0,0,0,0,1995/1/1,,,0,0,0,0,0,0.00,96,Paperback,,0,0,Paul Finebaum,,,,,,,0,,
14980001,1575939398,Baptism,9781575939391,,,,ES,1998/4/1,Living Stream Ministry,,false,2,1481151,24,28,6,0,1998/4/15,New Believer's Series: Baptism,,4,2,0,0,0,4.67,,Paperback,,0,0,Watchman Nee,,,,,,15,0,,
14980501,1434217868,The Scary Night: A Robot and Rico Story,9781434217868,,,,ES,2009/8/1,Stone Arch Books,,false,8,6749861,67,130,36,3,2009/8/1,,book,11,6,13,6,0,3.61,,Paperback,,0,0,Anastasia Suen,,,,,,9,23,1,science-fiction
14981001,1434385779,Paris Snow,9781434385772,,,,ES,,,,false,1,14981001,1,4,1,0,,,,0,1,0,0,0,4.00,,,,1,0,Denise Martine,,,,,,,0,,
14981501,0965726207,Song of the Dolphins: A South Seas Mystical Adventure,9780965726207,,,,ES,1998/10/1,Soular Publishing,,false,1,14981501,0,0,0,0,,,,0,0,0,0,0,0.00,,Hardcover,,0,0,Derek Ryan,,,,,,,0,,
14982001,1576975045,Descubre la Biblia = Discover the Bible,9781576975046,,,,ES,,American Bible Society,,false,2,25561735,5,4,1,0,1998/1/1,,,0,1,0,0,0,4.00,,Paperback,,0,0,,,,,,,1,0,1,
14982501,1435897633,What to Do When Your Family Is on Welfare,9781435897632,,,,ES,2010/1/1,PowerKids Press,,false,5,6970630,0,0,0,0,2010/1/1,,,0,0,0,0,0,0.00,24,Hardcover,,0,0,Rachel Lynette,,,,,,,0,,
14983001,1894122283,Guide to Undergraduate Business Programs in the USA,9781894122283,,,,ES,,,,false,1,14983001,0,0,0,0,,,,0,0,0,0,0,0.00,,,,0,0,Education International,,,,,,,0,,
14983501,1436310598,Addiction Ain't Nothing But an Attitude,9781436310598,,,,ES,,,,false,2,14983505,0,0,0,0,,,,0,0,0,0,0,0.00,,,,0,0,Coach Cecero,,,,,,,0,,
14984001,0819488275,Field Guide to Radiometry,9780819488275,,,,ES,2012/5/3,SPIE-International Society for Optical Engineering,,false,2,14984001,0,0,0,0,2011/11/7,,,0,0,0,0,0,0.00,110,Hardcover,,0,0,Barbara G. Grant,,,,,,,0,,
14984501,143632470X,Destiny of the World and Other Stories,9781436324700,,,,ES,,,,false,2,4051966,1,0,0,0,,Destiny of the World and other Stories,,0,0,0,0,0,0.00,,,,0,0,Nandinee Kutty,,,,,,1,0,,
14985001,1578194423,"[Masekhet Berakhot] =: Traite Berakhot: La Guemara: L'Edition Classique de Vilna Accompagnee de Notes Explicatives, Veritable Aide A L'Etude",9781578194421,,,,ES,,,,false,1,14985001,1,5,1,1,,,,1,0,0,0,0,5.00,,,,1,1,Aharon Marciano,,,,,,,0,,
14985501,0967082927,Mine,9780967082929,,,,ES,,,,false,1,14985501,0,0,0,0,,,book,0,0,0,0,0,0.00,,,,0,0,Jessica Jones,,,,,,,0,,
14986001,0967354617,On the Banks of Gauley: A Frontier Novel,9780967354613,,,,ES,,,,false,1,14986001,6,4,1,0,,,,0,1,0,0,0,4.00,,,,1,0,Rock Foster,,,,,,4,0,,
14986501,1896329993,Secrets in Love,9781896329994,,,,ES,,,,false,1,14986501,0,0,0,0,,,,0,0,0,0,0,0.00,,,,0,0,Anita Jean,,,,,,,0,,
14987001,0967737605,I Sit on My Tushi,9780967737607,,,,ES,2000/2/15,Yvonne Straus,,false,2,14987001,1,0,0,0,,,,0,0,0,0,0,0.00,,Audiobook,Abridged,0,0,,,,"J. Wulff,Yvonne Straus",,,1,0,,
14987501,1578987393,Other People's Money: And How the Bankers Use It,9781578987399,,,,ES,2009/5/1,Martino Fine Books,,false,46,1125344,557,318,90,15,1914/1/1,Other People's Money and How the Bankers Use It,book,22,26,26,10,6,3.53,,Hardcover,,0,0,Louis D. Brandeis,,,,,,387,1,28,"american-history,business,college,economics,history,non-fiction,politics,sociology,technology"
14988001,1438504322,The House of Mystery,9781438504322,,,,ES,2008/10/1,Book Jungle,,false,23,15108066,6,1,1,0,1904/1/1,,book,0,0,0,0,1,1.00,,Paperback,,0,0,Will Irwin,,,,,,4,0,,
14988501,143850618X,The Amateur Army,9781438506180,,,,ES,,,,false,16,8860065,23,50,13,2,2005/6/16,The Amateur Army,,3,5,5,0,0,3.85,,,,0,0,Patrick MacGill,,,,,,1,0,1,"history,non-fiction"
14989001,0970024118,Pauls Adventure,9780970024114,,,,ES,,,,false,1,14989001,0,0,0,0,,,,0,0,0,0,0,0.00,,,,0,0,Gary Shipman,,,,,,,0,,
14989501,1438510926,The Contest in America,9781438510927,,,,ES,,,,false,28,7550067,89,111,30,3,1862/1/1,,book,8,12,4,5,1,3.70,,,,0,0,John Stuart Mill,,,,,,50,0,5,"british-literature,classics,english-literature,essays,history,philosophy,politics,reference,war"
14990001,0970489803,From My Window: Relevant Expressions of an Ordinary Woman,9780970489807,,,,ES,,,,false,1,14990001,0,0,0,0,,,,0,0,0,0,0,0.00,,,,0,0,Felicia T. Scott,,,,,,,0,,
14990501,0821379631,Building Equality and Opportunity Through Social Guarantees: New Approaches to Public Policy and the Realization of Rights,9780821379639,,,,ES,2014/6/19,World Bank Publications,,false,2,14990501,1,0,0,0,2009/6/28,,,0,0,0,0,0,0.00,300,Hardcover,,0,0,,,,"Andrew Norton,Estanislao Gacitua-Mario,Sophia Georgieva",,,1,0,,
14991001,143851753X,The Second Deluge,9781438517537,,,,ES,,,,false,45,2806447,55,29,8,3,1912/1/1,The Second Deluge,book,3,2,1,1,1,3.62,,,,0,0,Garrett P. Serviss,,,,,,29,2,7,"fiction,science-fiction"
14991501,1901268497,Dairy Free Cooking: Tips on Healthy Eating Following Cancer. Lois Whittaker,9781901268492,,,,ES,2010/2/1,Evans Mitchell Books,,false,1,14991501,0,0,0,0,2010/2/1,,,0,0,0,0,0,0.00,88,Paperback,,0,0,Lois Whittaker,,,,,,,0,,
14992001,1580620361,Virginia JobBank,9781580620369,,,,ES,1998/5/1,Adams Media Corporation,,false,2,14474085,0,0,0,0,2005/1/1,,,0,0,0,0,0,0.00,336,Paperback,,0,0,,,,Adams Media,,,,0,,
14992501,0821762435,New in Town,9780821762431,,,,ES,,,,false,1,14992501,3,5,1,0,,,,1,0,0,0,0,5.00,,,,1,0,Kim Whalen,,,,,,1,0,,
14993501,1581139063,Proceedings of the ACM Sigada Annual International Conference (Sigada 2004): The Engineering of Correct and Reliable Software for Real-Time & Distribu,9781581139068,,,,ES,,,,false,1,14993501,0,0,0,0,,,,0,0,0,0,0,0.00,,,,0,0,Association for Computing Machinery,,,,,,,0,,
14994501,1903734142,Rheumatology Highlights 2001-2002 Fast Facts Series,9781903734148,,,,ES,2002/4/1,Health Press (UK),,false,1,14994501,0,0,0,0,2002/4/1,,book,0,0,0,0,0,0.00,92,Paperback,,0,0,Paul A. Bacon,,,,,,,0,,
14995001,1439203709,Bohemus: Amazing Stories of His Life on Four Continents with History Attached to Places Visited or Lived Through,9781439203705,,,,ES,,,,false,2,14995001,0,0,0,0,,,,0,0,0,0,0,0.00,,,,0,0,Joseph Jaroslav Urban,,,,,,,0,,
14995501,097277372X,Campaign Suite Extended,9780972773720,,,,ES,,,,false,1,14995501,0,0,0,0,,,,0,0,0,0,0,0.00,,,,0,0,,,,,,,,0,,
14996001,0972927107,Heroes of History,9780972927109,,,,ES,,,,false,1,14996001,1,0,0,0,,,book,0,0,0,0,0,0.00,,,,0,0,John J. McLaughlin Cumberland Hill School,,,,,,,0,1,
14996501,1904608272,Using a Property Company to Save Tax,9781904608271,,,,ES,,,,false,2,14996501,3,5,1,0,2013/1/11,,,1,0,0,0,0,5.00,,,,1,0,Carl Bayley,,,,,,2,0,,
14997001,0821875760,Linear and Quasi-Linear Evolution Equations in Hilbert Spaces,9780821875766,,,,ES,2013/3/19,American Mathematical Society,,false,1,14997001,1,0,0,0,2013/3/19,,,0,0,0,0,0,0.00,377,Hardcover,,0,0,Pascal Cherrier,,,,,,,0,,
14997501,0974060119,Foundation of Radiological Physics,9780974060118,,,,ES,2004/1/1,C.B. Saw Pub,,false,2,14997501,3,5,1,0,2004/1/1,,,1,0,0,0,0,5.00,520,Hardcover,,1,0,Cheng B. Saw,,,,,,2,0,,
14998001,1905122160,Mawsauat Makkah Al-Mukarramah Wa-Al-Madainah Al-Munawwarah,9781905122165,,,,ES,,,,false,2,14998001,0,0,0,0,,,,0,0,0,0,0,0.00,,,,0,0,Abbas Ibn Salih Tashkandi,,,,,,,0,,
14998501,0974443905,Maximum Liberty,9780974443904,,,,ES,,,,false,1,14998501,0,0,0,0,,,,0,0,0,0,0,0.00,,,,0,0,Anonymous,,,,,,,0,,
14999001,1905425546,Vulcanologists' Workshop,9781905425549,,,,ES,,,,false,1,14999001,0,0,0,0,,,,0,0,0,0,0,0.00,,,,0,0,Laurence James,,,,,,,0,,
14999501,082304811X,Simple Notebook Style: Blue Cover,9780823048113,,,,ES,1998/3/1,Watson-Guptill Publications,,false,1,14999501,0,0,0,0,1998/3/1,,,0,0,0,0,0,0.00,128,Hardcover,,0,0,Various,,,,,,,0,,
15000001,0823234541,Freedom and Law: A Jewish-Christian Apologetics,9780823234547,,,,ES,2011/6/1,Fordham University Press,,false,3,15000001,2,0,0,0,2011/9/1,,,0,0,0,0,0,0.00,,Hardcover,,0,0,Randi Rashkover,,,,,,1,0,,
15000501,0823663604,The Tactics of Psychotherapy: An Application of Psychoanalytic Theory to Psychotherapy,9780823663606,,,,ES,,,,false,1,15000501,1,0,0,0,,,,0,0,0,0,0,0.00,,,,0,0,William F. Murphy,,,,,,1,0,,
15001001,0823953599,All in a Day's Work,9780823953592,,,,ES,,,,false,1,15001001,0,0,0,0,,,,0,0,0,0,0,0.00,,,,0,0,,,,,,,,0,,
15001501,1443838896,Marxist Perspectives on Irish Society,9781443838894,,,,ES,2012/4/1,Cambridge Scholars Publishing,,false,1,15001501,0,0,0,0,2012/4/1,,,0,0,0,0,0,0.00,209,Paperback,,0,0,,,,Micheal Oflynn,,,,0,,
15002001,144410425X,"Aqa A2 Business Studies: Workbook, Teacher Notes Unit 3",9781444104257,,,,ES,2009/10/1,Hodder Education,,false,1,15002001,0,0,0,0,2009/10/1,,,0,0,0,0,0,0.00,16,Paperback,,0,0,John Wolinski,,,,,,,0,,
15002501,1583390774,Bible Truths for Little Children,9781583390771,,,,ES,,,,false,3,15002501,1,5,1,0,,,,1,0,0,0,0,5.00,,,,1,0,Triangle Press,,,,,,,0,,
15003001,0824708598,"Encyclopedia of Surface and Colloid Science, Second Edition",9780824708597,,,,ES,,,,false,4,9977643,17,3,2,0,2000/3/8,,,0,0,0,1,1,1.50,,,,0,0,,,,"Arthur T. Hubbard,P. Somasundaran,Ponisseril Somasundaran",,,11,0,,
15003501,1906768129,Holy Land: Biblical Sites in Original Photographs. Felicity Cobbing and David Jacobson,9781906768126,,,,ES,2011/3/1,Stacey International Publishers,,false,1,15003501,0,0,0,0,2011/3/1,,,0,0,0,0,0,0.00,264,Hardcover,,0,0,Felicity Cobbing,,,,,,,0,,
15004001,1583817425,"Science Education and Outreach: Forging a Path to the Future: Proceedings of a Conference Held at Milbrae, California, USA, 12-16 September 2009",9781583817421,,,,ES,2010/1/1,Astronomical Society of the Pacific,,false,1,15004001,0,0,0,0,,,,0,0,0,0,0,0.00,553,Hardcover,,0,0,,,Jonathan Barnes,,,,,0,,
15004501,0976943239,Environmental Benefits of Conservation Practices on Cropland: The Status of Our Knowledge,9780976943235,,,,ES,,,,false,1,15004501,0,0,0,0,,,,0,0,0,0,0,0.00,,,,0,0,Max Schnepf,,,,,,,0,,
15005001,1446346471,Sales Presentation Techniques,9781446346471,,,,ES,2011/9/1,David & Charles Publishers,,false,1,15005001,0,0,0,0,2011/9/1,,,0,0,0,0,0,0.00,,Paperback,,0,0,Schiffm S,,,,,,,0,,
15005501,1584231629,Counterblast 1954,9781584231622,,,,ES,2011/1/1,Gingko Press,,false,7,225124,160,189,46,1,1969/1/1,Counterblast,book,15,23,7,0,1,4.11,32,Hardcover,,2,0,Marshall McLuhan,,,,,,93,2,1,"non-fiction,philosophy,politics,technology"
15006001,1907519130,"Arrowland (The Afterblight Chronicles, #10)",9781907519130,,,,ES,2010/9/1,Abaddon Books,,true,3,15006001,117,146,41,4,2010/7/1,,book,8,13,15,4,1,3.56,237,Kindle Edition,,20,2,Paul Kane,,,,,,62,1,,"post-apocalyptic,science-fiction"
15006501,1448850592,Chipmunks,9781448850594,,,,ES,2012/1/1,PowerKids Press,,false,4,14496528,4,6,2,0,2011/8/15,,,0,0,2,0,0,3.00,,Hardcover,,0,0,Emily Sebastian,,,,,,,3,,
15007001,1448862337,What's a Mammal?,9781448862337,,,,ES,2012/1/1,PowerKids Press,,false,3,14497645,2,5,2,1,2012/1/1,,,0,0,1,1,0,2.50,24,Hardcover,,0,0,Anna Kaspar,,,,,,,2,,"animals,childrens,nature,non-fiction,science"
15007501,1584768878,EZ Page Turners Set,9781584768876,,,,ES,,,,false,1,15007501,0,0,0,0,,,,0,0,0,0,0,0.00,,,,0,0,Various,,,,,,,0,,
15008001,0826476325,A Short History of the Catholic Church,9780826476326,,,,ES,2005/7/15,Continuum,,false,1,15008001,1,0,0,0,,,,0,0,0,0,0,0.00,344,Paperback,,0,0,Brian Hebblethwaite,,,,,,1,0,,
15008501,0826940625,Instructional Analysis and Course Development,9780826940629,,,,ES,2010/1/1,American Technical Publishers,,false,1,15008501,1,0,0,0,2010/1/1,,,0,0,0,0,0,0.00,426,Hardcover,,0,0,Howard Dexter Lee,,,,,,,0,,
15009001,0827347693,Complete Fuel Systems and Emission Control: Student Technician's Shop Manual,9780827347694,,,,ES,,,,false,2,15009001,0,0,0,0,1989/1/1,,,0,0,0,0,0,0.00,,,,0,0,Robert Scharff,,,,,,,0,,
15009501,1585004197,And One for the Pot,9781585004195,,,,ES,,,,false,2,14913776,0,0,0,0,,,,0,0,0,0,0,0.00,,,,0,0,Joseph Healy,,,,,,,0,,
15010001,192160641X,Best of Canberra: The Full-Color Guide,9781921606410,,,,ES,,,,false,1,15010001,2,0,0,0,,,,0,0,0,0,0,0.00,,,,0,0,Christina Zissis,,,,,,1,0,,
15010501,0979197627,True to the Word,9780979197628,,,,ES,,,,false,1,15010501,0,0,0,0,,,,0,0,0,0,0,0.00,,,,0,0,An Sean Fields,,,,,,,0,,
15011001,1449650155,Principles of Environmental Chemistry,9781449650155,,,,ES,2013/2/28,Jones & Bartlett Publishers,,false,9,15947255,27,27,9,0,2004/8/1,,,0,3,4,1,1,3.00,712,Hardcover,,0,0,James E. Girard,,,,,,14,0,,"school,science,textbooks"
15011501,0830632425,Exploring Earth from Space,9780830632428,,,,ES,,,,false,2,15011501,1,0,0,0,1989/11/1,,,0,0,0,0,0,0.00,,,,0,0,Jon Erickson,,,,,,1,0,,
15012001,1929006004,Sailing Designs: Volume 1 (1974-1977),9781929006007,,,,ES,,,,false,1,15012001,1,4,1,0,,,,0,1,0,0,0,4.00,,,,1,0,Robert H. Perry,,,,,,,0,,
15012501,1450754996,Nizam-I Sukhan: Nukat-I Barjastah Va Muhimm Dar Qavaid-I Hakim Bar Shir-I Kilasik-I Parsi,9781450754996,,,,ES,2011/1/1,Little Shell,,false,1,15012501,0,0,0,0,2011/1/1,,,0,0,0,0,0,0.00,313,Hardcover,,0,0,Akbar Sudayf,,,,,,,0,,
15013001,0831727551,Elvis,9780831727550,,,,ES,,,,false,4,15013001,4,4,1,0,1992/1/1,,,0,1,0,0,0,4.00,,,,0,0,William Allen,,,,,,1,0,,
15013501,1929569467,Foundation Theology 2007: Student Essays for Ministry Professionals,9781929569465,,,,ES,,,,false,1,15013501,0,0,0,0,,,,0,0,0,0,0,0.00,,,,0,0,John H. Morgan,,,,,,,0,,
15014001,1451175728,Foye's Principles of Medicinal Chemistry,9781451175721,,,,ES,2012/3/16,LWW,,false,13,2124134,275,272,71,1,2002/2/1,Foye's Principles of Medicinal Chemistry,,27,20,13,7,4,3.83,1520,Hardcover,,2,0,,,,Thomas L. Lemke,,,24,3,11,"academic,reference,science,textbooks"
15014501,1451582757,The Confident Butterfly,9781451582758,,,,ES,2010/4/21,Createspace,,false,1,15014501,1,0,0,0,2010/4/21,,,0,0,0,0,0,0.00,40,Paperback,,0,0,Angela Dawnell Chase,Sharon Tabor-Cottet,,,,,1,0,,
15016501,1587218208,Nothing But the Truth,9781587218200,,,,ES,2000/9/1,Authorhouse,,false,1,15016501,0,0,0,0,,,,0,0,0,0,0,0.00,236,Paperback,,0,0,Dick Johnson,,,,,,,0,,
15017001,1587282623,Junk,9781587282621,,,,ES,,Two-Can Publishers,,false,2,15016834,0,0,0,0,,,,0,0,0,0,0,0.00,,Hardcover,,0,0,Diane James,,,,,,,0,,
15017501,1587299453,Pink Pirates: Contemporary American Women Writers and Copyright,9781587299452,,,,ES,2010/1/1,University of Iowa Press,,false,3,8864803,10,3,1,0,2010/1/1,,,0,0,1,0,0,3.00,220,Hardcover,,0,0,Caren Irr,,,,,,7,0,,"feminism,non-fiction"
15018001,0834213443,Methods of Testing Protein Functionality,9780834213449,,,,ES,1996/7/1,Aspen Publishers,,false,1,15018001,1,0,0,0,,,,0,0,0,0,0,0.00,,Hardcover,,0,0,G. M. Hall,,,,,,1,0,,
15018501,1931179093,Lenny's Neighborhood: Lenny's New Hairdo [With Audio CD],9781931179096,,,,ES,,,,false,1,15018501,0,0,0,0,,,,0,0,0,0,0,0.00,,,,0,0,Kurt Reetz,,,,,,,0,,
15019001,0835243605,TV & Radio,9780835243605,,,,ES,,,,false,1,15019001,0,0,0,0,,,,0,0,0,0,0,0.00,,,,0,0,R.R. Bowker,,,,,,,0,,
15019501,145573442X,Markell and Voge's Medical Parasitology - Elsevier eBook on Vitalsource (Retail Access Card),9781455734429,,,,ES,2006/1/27,Saunders,,false,5,2283234,203,122,31,1,2006/1/27,Markell and Voge's Medical Parasitology (MARKELL AND VOGE'S MEDICAL PARASITOLOGY),,10,11,9,0,1,3.94,480,Hardcover,,0,0,"David T. John,William A. Petri Jr.",,,,,,128,1,15,"science,textbooks"
15020001,1587881519,Grass Roots,9781587881510,,,,ES,2002/1/1,Brilliance Audio,,false,26,46280,4408,9778,2445,94,1989/8/1,Grass Roots,book,772,1009,571,76,17,4.00,,Audio,,0,0,Stuart Woods,,,,,Barrett Whitener,879,12,94,"crime,fiction,murder-mystery,mystery,politics,suspense,thriller"
15020501,1455742260,Medical Terminology: A Short Course - Pageburst E-Book on Vitalsource (Retail Access Card),9781455742264,,,,ES,2011/10/28,Saunders,,false,3,15019972,0,0,0,0,2011/10/28,,,0,0,0,0,0,0.00,,Hardcover,,0,0,Davi-Ellen Chabner,,,,,,,0,,
15021001,0836261976,The Birth Date Book August 18: What Your Birthday Reveals about You,9780836261974,,,,ES,1999/5/1,Andrews McMeel Publishing,,false,1,15021001,1,0,0,0,,,book,0,0,0,0,0,0.00,80,Hardcover,,0,0,Ariel Books,,,,,,1,0,,
15021501,0985591102,Political Power: Arnold Schwarzenegger,9780985591106,,,,ES,2011/9/7,Bluewater Productions,,false,1,15021501,2,5,1,0,2011/9/7,,,1,0,0,0,0,5.00,32,Paperback,,1,0,Jerome Maida,,,,,,1,0,,
15022001,,A virtual environment to share knowledge A visualisation design to support collaborative learning,9783639129861,,,,ES,2009/2/1,VDM - Verlag Dr. Muller,eng,false,1,15022001,4,4,1,1,2009/2/1,,book,0,1,0,0,0,4.00,356,Paperback,,1,1,Luís Borges Gouveia,,,,,,2,0,,
15022501,0836857844,American Women in the Vietnam War,9780836857849,,,,ES,2005/1/1,World Almanac Library,,false,1,15022501,0,0,0,0,2005/1/1,,,0,0,0,0,0,0.00,48,Hardcover,,0,0,"Diane Canwell,Jonathan Sutherland",,,,,,,0,,
15023001,0837103002,The Devil Theory of War: An Inquiry Into the Nature of History and the Possibility of Keeping Out of War,9780837103006,,,,ES,1969/4/9,Praeger,,false,1,15023001,5,0,0,0,,,,0,0,0,0,0,0.00,124,Hardcover,,0,0,Charles A. Beard,,,,,,5,1,,
15023501,1455897043,Grave of Angels,9781455897049,,,,ES,2012/8/7,Brilliance Audio,,false,7,13779198,1027,2202,598,56,2012/8/1,,book,132,222,178,54,12,3.68,,Audio CD,,0,0,Michael Prescott,,,,,,282,20,49,"action,fiction,mystery,mystery-thriller,suspense,thriller"
15024001,111132168X,Pharmacology for the EMS Provider (Book Only),9781111321680,,,,ES,2002/10/28,Cengage Learning,,false,5,1716472,6,8,2,0,2002/10/28,,,0,2,0,0,0,4.00,,Hardcover,,0,0,Richard K. Beck,,,,,,1,0,,
15024501,1456823124,Michele's Voice,9781456823122,,,,ES,,,,false,1,15024501,0,0,0,0,,,,0,0,0,0,0,0.00,,,,0,0,Michelle Duplan,,,,,,,0,,
15025001,1588299368,Immunoproteomics,9781588299369,,,,ES,,,,false,1,15025001,0,0,0,0,,,,0,0,0,0,0,0.00,,,,0,0,,,,Anthony Wayne Purcell,,,,0,,
15025501,193258112X,Magic and Gods,9781932581126,,,,ES,,,,false,1,15025501,0,0,0,0,,,,0,0,0,0,0,0.00,,,,0,0,William G. Wolfgang,,,,,,,0,,
15026001,1458724808,Law Breakers & Mischief Makers: 50 Notorious New Zealanders (Large Print 16pt),9781458724809,,,,ES,2010/11/29,ReadHowYouWant,,false,4,8042073,12,22,6,3,2009/10/1,,,2,2,0,2,0,3.67,284,Paperback,Large Print,0,0,Bronwyn Sell,,,,,,6,0,,"crime,history,non-fiction"
15026501,0838413706,Horizons,9780838413708,,,,ES,2001/1/1,Heinle & Heinle Publishers,,false,23,733354,59,68,22,0,1997/6/30,Horizons (with Audio CD),book,3,6,4,8,1,3.09,,Unknown Binding,,0,0,,,Joan H. Manley,,,,20,0,,"international,language,non-fiction,textbooks"
15027001,083843214X,Discover American English Reading,9780838432143,,,,ES,1981/12/12,Heinle & Heinle Publishers,,false,1,15027001,1,0,0,0,,,,0,0,0,0,0,0.00,,Paperback,,0,0,Steven G. Krantz,,,,,,1,0,,
15027501,0838455662,Ya Veras L1 Revised Workbook Te,9780838455661,,,,ES,1997/6/30,Heinle & Heinle Publishers,,false,1,15027501,0,0,0,0,1997/6/30,,,0,0,0,0,0,0.00,,Paperback,,0,0,John R. Gutiérrez-Candelaria,,,,,,,0,,
15028001,1460985931,The Jewel of Ithesda,9781460985939,,,,ES,2011/7/7,Createspace Independent Publishing Platform,,false,1,15028001,0,0,0,0,2011/7/7,,,0,0,0,0,0,0.00,160,Paperback,,0,0,MR J. Graham McGhee,,,,,,,0,,
15028501,1588830780,Handbook of Semiconductor Nanostructures and Nanodevices,9781588830784,,,,ES,2006/1/1,American Scientific Publishers,,false,1,15028501,0,0,0,0,2006/1/1,,,0,0,0,0,0,0.00,2,Hardcover,,0,0,,,Alexander A. Balandin,,,,,0,,
15029001,146288637X,Heart Is for Believing,9781462886371,,,,ES,,,,false,1,15029001,0,0,0,0,,,,0,0,0,0,0,0.00,,,,0,0,Rouzier Dorce,,,,,,,0,,
15029501,1589262522,How to Handle Difficult People,9781589262522,,,,ES,2003/6/1,Oasis Audio,,false,6,15538765,8,6,2,0,2000/7/31,,,0,0,2,0,0,3.00,,Audiobook,,0,0,Joe Gilliam,,,,,,5,0,,business
15030001,1589397169,The Cy Brothers,9781589397163,,,,ES,,,,false,1,15030001,0,0,0,0,,,,0,0,0,0,0,0.00,,,,0,0,Doug Davey,,,,,,,0,,
15030501,1933549815,"Demography, Migration, and Tolerance: Comparing the Russian, Ukrainian, and U.S. Experience",9781933549811,,,,ES,2011/9/20,Woodrow Wilson International Center for Scholars Asia Progra,,false,1,15030501,2,0,0,0,2011/9/20,,,0,0,0,0,0,0.00,72,Paperback,,0,0,,,Kennan Institute,,,,,1,,sociology
15031001,0840606095,"Use of Computerized Medical Records in Home Health and Hospice Agencies: United States, 2000",9780840606099,,,,ES,,,,false,1,15031001,0,0,0,0,,,,0,0,0,0,0,0.00,,,,0,0,National Health Care Survey,,,,,,,0,,
15031501,0840727208,New Open Study Bible,9780840727206,,,,ES,,,,false,32,10094477,7,10,2,1,1990/1/1,,,2,0,0,0,0,5.00,,,,0,0,,,,,,,2,0,1,
15032001,1589615069,At the End of the Tunnel,9781589615069,,,,ES,,,,false,1,15032001,0,0,0,0,,,,0,0,0,0,0,0.00,,,,0,0,Lawrence Robinson,,,,,,,0,,
15032501,1468154508,This Road Darkens,9781468154504,,,,ES,,,,false,4,13244074,8,15,4,2,2011/11/29,,book,0,3,1,0,0,3.75,,,,0,0,J.P. Yager,,,,,,1,1,,
15033001,1469204177,The Secret Diary of Anne Boleyn,9781469204178,,,,ES,2012/9/18,Brilliance Audio,,false,2,31089,14698,22975,6045,372,1997/4/24,The Secret Diary of Anne Boleyn,book,1680,2171,1633,431,130,3.80,,Audio CD,,0,0,Robin Maxwell,,,,,,7402,40,214,"adult,adult-fiction,biography,classics,fantasy,fiction,historical,historical-fiction,history,non-fiction,romance,unfinished"
15033501,1589835530,Bible Trouble: Queer Reading at the Boundaries of Biblical Scholarship,9781589835535,,,,ES,2014/5/14,Society of Biblical Literature,,true,3,12570720,25,28,6,0,2011/6/1,,book,4,2,0,0,0,4.67,373,ebook,,0,0,,,Teresa J. Hornsby,,,,15,0,1,"religion,theology"
15034501,1590073940,Lord of Chaos,9781590073940,,,,ES,2003/7/1,New Millennium Press,,false,62,35231,155401,456895,110870,2183,1994/10/15,,book,45135,40027,20661,4082,965,4.12,,Audiobook,,0,0,Robert Jordan,,,,,,18927,357,2553,"adult,adult-fiction,adventure,epic,epic-fantasy,fantasy,fiction,high-fantasy,magic,novels,romance,science-fiction,science-fiction-fantasy,speculative-fiction"
15035001,1401024777,Album,9781401024772,,,,ES,,,,false,1,15035001,0,0,0,0,,,,0,0,0,0,0,0.00,,,,0,0,Diane Thompson Bell,,,,,,,0,,
15035501,159031266X,Guidelines for the Approval of Paralegal Education Programs,9781590312667,,,,ES,,,,false,1,15035501,0,0,0,0,,,,0,0,0,0,0,0.00,,,,0,0,American Bar Association,,,,,,,0,,
15036001,1469227789,Honeymoon for One,9781469227788,,,,ES,2012/9/18,Brilliance Audio,,false,12,8617961,1910,4123,1259,91,2010/7/15,,book,191,306,486,210,66,3.27,,Audio CD,,0,0,Beth Orsoff,,,,,,401,14,49,"adult,chick-lit,comedy,contemporary,cozy-mystery,crime,fiction,funny,humor,mystery,mystery-thriller,romance,suspense"
15036501,1590414683,Mechwarrior Undead Lance Action Pack,9781590414682,,,,ES,2007/10/31,Wizkids,,false,1,15036501,1,0,0,0,2007/10/31,,book,0,0,0,0,0,0.00,,Unknown Binding,,0,0,Wizkids LLC,,,,,,1,0,,
15037001,0843950277,Morgette and the Alaskan Bandit,9780843950274,,,,ES,,,,false,6,1028966,8,13,4,0,1987/7/1,Morgette and the Alaskan Bandit (Thorndike Large Print Western Series),book,1,1,1,0,1,3.25,,,,1,0,G.G. Boyer,,,,,,1,0,,
15037501,1590860187,The Pursuit (Sherring Cross #3),9781590860182,,,,ES,2002/3/19,Brilliance Audio,,false,37,419282,6953,15607,4161,143,2002/1/1,The Pursuit,book,1216,1257,1232,347,109,3.75,,Audio CD,Abridged,1,0,Johanna Lindsey,,,,,Michael Page,1262,14,66,"adult,adult-fiction,fiction,historical,historical-fiction,regency,romance,unfinished"
15038001,1470819961,Wild Designs,9781470819965,,,,ES,2012/11/1,Blackstone Audiobooks,,false,24,442955,5147,11477,2982,144,1996/6/17,Wild Designs,book,832,1092,869,153,36,3.85,,Audio CD,,0,0,Katie Fforde,,,,,Vanessa Benjamin,1526,18,40,"adult,chick-lit,contemporary,fiction,humor,novels,romance"
15038501,0844240192,Opportunities in Waste Management and Recycling Careers,9780844240190,,,,ES,1992/4/1,VGM Career Books,,false,2,15038501,0,0,0,0,1992/4/1,,,0,0,0,0,0,0.00,145,Paperback,,0,0,Mark Rowh,,,,,,,0,,
15039001,0844261556,Opportunities in Business Communications,9780844261553,,,,ES,1986/10/1,NTC/Contemporary Publishing Company,,false,1,15039001,0,0,0,0,1986/10/1,,,0,0,0,0,0,0.00,140,Paperback,,0,0,Robert Deen,,,,,,,0,,
15039501,1590925300,Machine Insurrection Sourcebook: A Shared Universe Project,9781590925300,,,,ES,,,,false,1,15039501,0,0,0,0,,,,0,0,0,0,0,0.00,,,,0,0,"Charles Phipps,Jon Cummings",,,,,,,0,,
15040501,140108821X,Duration Plus Six,9781401088217,,,,ES,2003/4/1,Xlibris Corporation,,false,2,6288016,2,7,2,1,2003/4/1,Duration Plus Six: A Wwii Memoir,,0,1,1,0,0,3.50,212,Paperback,,0,0,George DiGuido,,,,,,,0,,
15041001,1550740571,Easy Magic,9781550740578,,,,ES,1992/1/1,Kids Can Press,,false,2,10599781,1,0,0,0,1994/11/24,,book,0,0,0,0,0,0.00,,Paperback,,0,0,Jon Day,Chris Fisher,,,,,,1,,
15041501,155074898X,Franklin in the Dark,9781550748987,,,,ES,2000/9/1,Kids Can Press,,false,4,991607,3421,6844,1710,63,1986/1/1,Franklin in the Dark,book,684,496,408,94,28,4.00,14,Board Book,,0,0,Paulette Bourgeois,Brenda Clark,,,,,1246,6,31,"animals,childrens,classics,family,fantasy,fiction,picture-books"
15042001,2732441341,Photomaton,9782732441344,,,,ES,2011/7/1,Editions de La Martiniere,,false,1,15042001,3,4,1,0,2011/7/1,,,0,1,0,0,0,4.00,283,Hardcover,,1,0,Raynal Pellicer,,,,,,,0,,
15042501,1401840817,Milady's Standard Nail Technology PowerPoint,9781401840815,,,,ES,,,,false,1,15042501,0,0,0,0,,,,0,0,0,0,0,0.00,,,,0,0,,,,,,,,0,,
15043001,2810612129,MAIGRIR INTELLIGEMMENT & SANS FRUSTRATION !: RETROUVEZ VOTRE FORME ET VOTRE TONUS !,9782810612123,,,,ES,2011/11/9,Books on Demand,,false,1,15043001,0,0,0,0,2011/11/9,,,0,0,0,0,0,0.00,164,Paperback,,0,0,C. Dric Menard,,,,,,,0,,
15043501,140241028X,Employment Law Yearbook 2008,9781402410284,,,,ES,2008/6/18,Practising Law Institute,,false,1,15043501,0,0,0,0,2008/6/18,,,0,0,0,0,0,0.00,1480,Paperback,,0,0,Herrington &. Sutc Orrick,,,,,,,0,,
15044001,1591900271,Kiss: The Complete Set [With Spoken Word CD],9781591900276,,,,ES,,,,false,1,15044001,0,0,0,0,,,,0,0,0,0,0,0.00,,,,0,0,Kiss,,,,,,,0,,
15044501,1592120652,Villainy Victorious: Mission Earth Volume 9,9781592120659,,,,ES,2003/6/15,Galaxy Audio,,false,22,1725627,1962,4305,1271,15,1986/5/1,Villainy Victorious,book,266,325,404,187,89,3.39,,Audio,Abridged,0,0,L. Ron Hubbard,,,,,,310,16,8,"aliens,american,epic,fantasy,fiction,humor,science,science-fiction"
15045001,0849323223,Solutions Manual for Finite Element Analysis,9780849323225,,,,ES,,,,false,1,15045001,4,5,1,0,,,,1,0,0,0,0,5.00,,,,1,0,David W. Nicholson,,,,,,2,0,,
15045501,0849338239,"CRC Handbook of Plant Science in Agriculture, Volume II",9780849338236,,,,ES,1987/7/31,CRC Press,,false,1,15045501,0,0,0,0,1987/7/31,,,0,0,0,0,0,0.00,288,Hardcover,,0,0,"A.A. Hanson,Byron M. Welsh",,Yokoyama,,,,,0,,
15046001,0849346894,Role of Cell Surface in Development,9780849346897,,,,ES,1987/5/31,CRC Press,,false,3,4453779,0,0,0,0,1987/5/31,Role of Cell Surface in Development,book,0,0,0,0,0,0.00,144,Hardcover,,0,0,K. Vasudeva Rao,,,,,,,0,,
15046501,3034303041,"Main Currents of Intellectual Exchanges--Georg Brandes and France, Germany, Great Britain: Actes de La Deuxieme Conference Internationale Georg Brande",9783034303040,,,,ES,,,,false,1,15046501,1,0,0,0,,,,0,0,0,0,0,0.00,454,Paperback,,0,0,,,,"Annie Bourguignon,Jorgen Stender Clausen,Konrad Harrer",,,1,0,,
15047001,0849361818,Sarcoplasmic Reticulum in Muscle Physiology,9780849361814,,,,ES,1986/4/1,CRC Press,,false,2,3829278,0,0,0,0,1986/3/1,,,0,0,0,0,0,0.00,184,Hardcover,,0,0,Entman/Vanwink,,,,,,,0,,
15047501,1592491219,Red Fox at Hickory Lane,9781592491216,,,,ES,2004/3/1,Soundprints,,false,9,3946228,22,16,4,1,2003/10/1,Red Fox at Hickory Lane (Smithsonian's Backyard) (Smithsonian's Backyard),book,1,2,1,0,0,4.00,32,Paperback,,0,0,Kathleen M. Hollenbeck,Wendy Smith,,,,,16,0,,"animals,picture-books,school"
15048001,3039111493,Genetic Morality,9783039111497,,,,ES,2006/7/10,"Peter Lang Gmbh, Internationaler Verlag Der Wissenschaften",,false,2,15048001,1,0,0,0,2006/1/1,,,0,0,0,0,0,0.00,211,Paperback,,0,0,David Shaw,,,,,,1,0,,
15048501,1403916330,Ownership and Governance of Enterprises: Recent Innovative Developments,9781403916334,,,,ES,2004/7/17,Palgrave Macmillan,,false,3,15048501,0,0,0,0,2004/7/17,,,0,0,0,0,0,0.00,272,Hardcover,,0,0,,,,Laixiang Sun,,,,0,,
15049001,3110006898,Aves (Upupae). Bucerotidae,9783110006896,,,,ES,1960/9/1,Walter de Gruyter,,false,1,15049001,0,0,0,0,1960/9/1,,,0,0,0,0,0,0.00,174,Paperback,,0,0,Kurt Sanft,,,,,,,0,,
15049501,3110019833,Psychologische Und Verhaltensbiologische Grundlagen Des Marketing,9783110019834,,,,ES,2017/8/30,de Gruyter,,false,2,15049501,0,0,0,0,1971/5/1,,,0,0,0,0,0,0.00,214,Hardcover,,0,0,Karl Schrader,,,,,,,0,,
15050001,311003543X,"Das Stadtrechtsbuch Von Sillein: Einleitung, Edition Und Glossar",9783110035438,,,,ES,1972/2/1,de Gruyter,,false,2,15050001,0,0,0,0,1972/2/1,,,0,0,0,0,0,0.00,226,Hardcover,,0,0,Ilpo Tapani Piirainen,,,,,,,0,,
15050501,3110047276,Ein Skyphos Des Triptolemosmalers,9783110047271,,,,ES,1973/12/1,Walter de Gruyter,,false,2,15050501,0,0,0,0,1973/12/1,,,0,0,0,0,0,0.00,33,Paperback,,0,0,Elfriede R. Knauer,,,,,,,0,,
15051001,3110060523,Allgemeine Vegetationsgeographie,9783110060522,,,,ES,1968/3/1,de Gruyter,,false,2,17103602,0,0,0,0,1961/1/1,,,0,0,0,0,0,0.00,487,Hardcover,,0,0,,,Josef Schmith Sen,,,,,0,,
15051501,0851743307,Worked Examples in Relative Radar Plotting,9780851743301,,,,ES,1987/12/1,Hyperion Books,,false,1,15051501,1,2,1,0,1987/12/1,,,0,0,0,1,0,2.00,106,Hardcover,,1,0,I. W. Bagshaw,,,,,,,0,,
15052001,1405448261,La Bella y La Bestia,9781405448260,,,,ES,,,,false,1,15052001,0,0,0,0,,,,0,0,0,0,0,0.00,,,,0,0,Gabby Goldsack,,,,,,,0,,
15052501,0852244150,Mos Design and Manufacture,9780852244159,,,,ES,1983/9/1,Edinburgh University Press,,false,1,15052501,0,0,0,0,1983/9/1,,,0,0,0,0,0,0.00,186,Paperback,,0,0,David Milne,,,,,,,0,,
15053001,1593631138,On Trial: A Criminal Trial Simulation,9781593631130,,,,ES,2005/1/1,Prufrock Press,,false,1,15053001,1,0,0,0,2005/6/1,,,0,0,0,0,0,0.00,48,Paperback,,0,0,Margaret Schweltzer,,,,,,1,0,,education
15053501,1405718374,"Electronic Evidence: Disclosure, Discovery, and Admissibility",9781405718370,,,,ES,2007/1/1,Butterworth-Heinemann,,false,1,15053501,1,0,0,0,2007/1/1,,,0,0,0,0,0,0.00,551,Hardcover,,0,0,,,Stephen Mason,,,,1,0,,
15054001,,The RealClearPolitics Political Download Election 2012 A Time for Choosing,,,,,ES,2012/6/4,,eng,true,4,14762248,32,75,21,0,2012/1/1,,book,2,9,9,1,0,3.57,,ebook,,1,0,Tom Bevan,,,,,,4,1,,politics
15054501,1406216860,The World's Biggest Machines. Marcie Aboff,9781406216868,,,,ES,2010/8/1,Raintree,,false,1,15054501,1,0,0,0,2010/8/1,,,0,0,0,0,0,0.00,32,Hardcover,,0,0,"Aboff,Marcie Aboff",,,,,,1,0,,
15055001,1594531048,Angels Take the Stage: Crop Circles and the Art of Amphitheatre Maintenance,9781594531040,,,,ES,,,,false,1,15055001,1,0,0,0,,,,0,0,0,0,0,0.00,,,,0,0,Monty Westerman,,,,,,1,0,,
15055501,1594537003,The Ugly Banana,9781594537004,,,,ES,,,,false,1,15055501,0,0,0,0,,,,0,0,0,0,0,0.00,,,,0,0,Robert Hillary,,,,,,,0,,
15056001,3111243788,Die Makedonischen Reiche. Hellenisirung Des Orients. Untergang Des Alten Griechenlands. Die Romische Weltherrschaft,9783111243788,,,,ES,1851/1/1,Walter de Gruyter,,false,3,15066520,0,0,0,0,1851/1/1,,,0,0,0,0,0,0.00,775,Hardcover,,0,0,Markus Niebuhr,,,,,,,0,,
15056501,1406811289,A Voyage to the Moon,9781406811285,,,,ES,,,,false,48,6328936,54,35,10,4,1827/7/20,A Voyage to the Moon,,1,4,4,1,0,3.50,,,,0,0,George Tucker,,,,,,26,3,8,"science-fiction,speculative-fiction"
15057001,3111735125,Praxishandbuch für Nachlassinsolvenzverfahren,9783111735122,,,,ES,2009/12/15,Walter de Gruyter,,false,4,15057001,0,0,0,0,2009/12/11,,book,0,0,0,0,0,0.00,441,Unknown Binding,,0,0,"Jan Roth,Jürgen Pfeuffer",,,,,,,0,,
15057501,311173790X,Zeit Und Gott: Hellenistische Zeitvorstellungen in Der Altarabischen Dichtung Und Im Koran,9783111737904,,,,ES,,,,false,3,15057501,0,0,0,0,2008/1/1,,,0,0,0,0,0,0.00,,,,0,0,Georges Tamer,,,,,,,0,,
15058001,3111741826,"Inkarnation Und Sch Pfung: Sch Pfungstheologische Voraussetzungen Und Implikationen Der Christologie Bei Luther, Schleiermacher Und Karl Barth",9783111741826,,,,ES,,,,false,3,14673905,0,0,0,0,2010/2/17,,book,0,0,0,0,0,0.00,,,,0,0,Anne Käfer,,,,,,,0,,
15058501,1407127128,Habitats,9781407127125,,,,ES,2012/5/1,Scholastic,,false,3,15393179,2,0,0,0,2003/12/1,,book,0,0,0,0,0,0.00,79,Paperback,,0,0,Peter Riley,,,,,,2,0,,
15059001,0857209566,"Tiger Head, Snakes Tails",9780857209566,,,,ES,2012/8/21,Simon & Schuster UK,,false,11,13258478,614,693,187,28,2012/1/1,,book,28,93,51,13,2,3.71,432,Paperback,,4,0,Jonathan Fenby,,,,,,341,7,20,"anthropology,business,economics,history,non-fiction,politics,reference,travel"
15059501,3111777464,Zeichen Und Bezeichnetes: Sprachphilosophische Untersuchungen Zum Problem Der Referenz,9783111777467,,,,ES,,,,false,3,16363314,0,0,0,0,1985/1/1,,,0,0,0,0,0,0.00,,,,0,0,Edmund Runggaldier,,,,,,,0,,
15060001,0857454811,Collaborators Collaborating: Counterparts in Anthropological Knowledge and International Research Relations,9780857454812,,,,ES,2012/5/1,Berghahn Books,,true,4,16808973,1,0,0,0,2012/1/1,,,0,0,0,0,0,0.00,326,ebook,,0,0,,,,Monica Konrad,,,1,0,,
15060501,1595841784,Mashyanah Dar Ghurbat,9781595841780,,,,ES,,,,false,1,15060501,0,0,0,0,,,,0,0,0,0,0,0.00,,,,0,0,Kiyanbanu Jahaniyan,,,,,,,0,,
15061001,0858835738,"A Grammar of Maybrat: A Language of the Bird's Head Peninsula, Papua Province, Indonesia",9780858835733,,,,ES,,,,false,1,15061001,1,0,0,0,,,,0,0,0,0,0,0.00,,,,0,0,Philomena Hedwig Dol,,,,,,,0,,
15061501,3111815080,Les Desarrois Du Moi: a la Recherche Du Temps Perdu de M. Proust Et Der Mann Ohne Eigenschaften de R. Musil,9783111815084,,,,ES,,,,false,3,16365437,0,0,0,0,1995/1/1,,,0,0,0,0,0,0.00,,,,0,0,Florence Godeau,,,,,,,0,,
15062001,159615621X,Traditional Jazz Series: Chicago-Style Jam Session [With 2 CD's],9781596156210,,,,ES,,,,false,1,15062001,0,0,0,0,,,,0,0,0,0,0,0.00,,,,0,0,,"Brian Ogilvie,Evan Christopher",,,,,,0,,
15062501,140910236X,Happy Days,9781409102366,,,,ES,2012/11/27,Orion,eng,false,10,12886857,312,756,187,21,2012/1/1,Happy Days,book,68,73,33,12,1,4.04,405,Paperback,,11,0,Graham Hurley,,,,,,79,6,3,"crime,detective,mystery"
15063501,3111856542,Learning Indigenous Languages: Child Language Acquisition in Mesoamerica,9783111856544,,,,ES,,,,false,3,17089377,0,0,0,0,2007/1/1,,,0,0,0,0,0,0.00,,,,0,0,,,,Barbara Pfeiler,,,,0,,
15064001,1409423077,"Innovation Systems and Capabilities in Developing Regions: Concepts, Issues and Cases",9781409423072,,,,ES,2012/9/14,Routledge,,false,1,15064001,1,4,1,0,2012/9/1,,,0,1,0,0,0,4.00,384,Hardcover,,1,0,Willie Siyanbola,,,,,,,0,,
15064501,0861965825,Obesities,9780861965823,,,,ES,1998/1/1,John Libbey & Company,,false,1,15064501,0,0,0,0,1998/1/1,,,0,0,0,0,0,0.00,166,Hardcover,,0,0,Vague,,,,,,,0,,
15065001,1409441881,A Social Critique of Corporate Reporting: Semiotics and Web-Based Integrated Reporting,9781409441885,,,,ES,2012/10/17,Routledge,,false,10,15065005,3,9,2,0,2012/9/1,,,1,1,0,0,0,4.50,254,Hardcover,,0,0,David Crowther,,,,,,2,0,,
15065501,3111953017,Compound Comprehension in Isolation and in Context: The Contribution of Conceptual and Discourse Knowledge to the Comprehension of German Novel Noun-N,9783111953014,,,,ES,,,,false,1,15065501,0,0,0,0,,,,0,0,0,0,0,0.00,,,,0,0,Ralf Meyer,,,,,,,0,,
15066001,311200454X,Oberfl Chenstruktur Und Logische Struktur: Untersuchungen Zur Syntax Und Semantik Des Deutschen PR Dikatadjektivs,9783112004548,,,,ES,,,,false,4,15071132,0,0,0,0,1976/1/1,,,0,0,0,0,0,0.00,,,,0,0,Peter Eisenberg,,,,,,,0,,
15066501,3112133781,Der Grundwortschatz: Bestimmung Und Systematisierung,9783112133781,,,,ES,,,,false,2,15066501,0,0,0,0,1979/1/1,,,0,0,0,0,0,0.00,,,,0,0,Peter Kühn,,,,,,,0,,
15067001,3112189760,Fluch Und Gebet: Magische Manipulation Versus Religi Ses Flehen?: Religionsgeschichtliche Und Hermeneutische Betrachtungen Ber Antike Fluchtafeln,9783112189764,,,,ES,,,,false,1,15067001,0,0,0,0,,,,0,0,0,0,0,0.00,,,,0,0,H. S. Versnel,,,,,,,0,,
15067501,,حياة طارق بن زياد فاتح الأندلس,,,,,ES,1992/1/1,دار الجيل للطبع والنشر والتوزيع,ara,false,1,15067501,38,22,8,1,1992/1/1,حياة طارق بن زياد فاتح الأندلس,book,1,2,2,0,3,2.75,254,Paperback,,8,1,محمود شلبي,,,,,,25,1,1,
15068001,3119166405,"Linguistic Authority, Language Ideology, and Metaphor: The Czech Orthography Wars",9783119166409,,,,ES,2007/1/1,Walter de Gruyter,,false,5,6701099,8,4,1,0,2007/1/1,,,0,1,0,0,0,4.00,369,Unknown Binding,,0,0,Neil Bermel,,,,,,5,0,,non-fiction
15068501,3194549960,Letter to the West: A Saudi View,9783194549968,,,,ES,2008/1/1,,,false,1,15068501,138,52,12,0,2004/1/1, خطاب إلى الغرب: رؤية من السعودية,book,7,2,3,0,0,4.33,212,,2nd edition,12,0,"إبراهيم البليهي,الجوهرة بنت محمد العمر,خالد بن عبد الرحمن العجيمي,زيد بن عبد المحسن الحسن,سعد مطر العتيبي,سلمان العودة,عبد الرحمن بن إبراهيم الرسي,عبد الرحمن بن زيد الزنيدي,عبد العزيز القاسم,عبد الله بن إبراهيم الطريقي,عبد الله بن فهد اللحيدان,عبد الله بن محمد المطلق,عبد الله بن وكيل الشيخ,عبد الوهاب الطريري,ماجد بن عبد العزيز التركي,محمد بن عبدالله السلمان,محمد بن معجب الحامد,ناصر عبد الكريم العقل,نورة بنت خالد السعد",,,,,,124,0,1,criticism
15069001,1598790358,"Nelsen, Nielsen, Nelson",9781598790351,,,,ES,,,,false,1,15069001,0,0,0,0,,,,0,0,0,0,0,0.00,,,,0,0,,,,,,,,0,,
15069501,3409123199,Internationales Umweltmanagement,9783409123198,,,,ES,2003/6/20,Gabler Verlag,,false,1,15069501,0,0,0,0,2003/6/20,,,0,0,0,0,0,0.00,656,Paperback,,0,0,,,,"Gernot Kayser,Heinz Strebel,Matthias Kramer",,,,0,,
15070001,3437115529,"Respiration in Health and Disease: Lessons from Comparative Physiology, Bodchum, 16 to 20 August, 1992",9783437115523,,,,ES,,,,false,1,15070001,0,0,0,0,,,,0,0,0,0,0,0.00,,,,0,0,,,,P. Scheid,,,,0,,
15070501,1599265206,YA No Se Ni Quien Soy,9781599265209,,,,ES,,,,false,2,15070501,0,0,0,0,,,,0,0,0,0,0,0.00,,,,0,0,Jose Rolando Varela,,,,,,,0,,
15071001,0867185619,Build a Successful Sales Program,9780867185614,,,,ES,,,,false,1,15071001,0,0,0,0,2003/1/1,,,0,0,0,0,0,0.00,,,,0,0,Perry Goldman,,,,,,,0,,
15071501,0868404640,Foundations of Budgeting,9780868404646,,,,ES,1997/12/1,University of New South Wales Press,,false,1,15071501,0,0,0,0,1997/12/1,,,0,0,0,0,0,0.00,80,Paperback,,0,0,Noel Logonathan,,,,,,,0,,
15072001,1599961741,Safety Puzzle for Thetransportation and Warehousing Industry,9781599961743,,,,ES,2009/7/1,HRD Press,,false,1,15072001,0,0,0,0,2009/7/1,,,0,0,0,0,0,0.00,126,Spiral-bound,,0,0,Isabel Perry,,,,,,,0,,
15072501,1600212468,New Research on Consciousness,9781600212468,,,,ES,2006/6/2,Nova Science Publishers,,false,1,15072501,0,0,0,0,,,,0,0,0,0,0,0.00,304,Hardcover,,0,0,,,Jason T. Locks,,,,,0,,
15073001,087062413X,The Indianization of Lewis and Clark,9780870624131,,,,ES,2012/10/12,The Arthur H. Clark Company,,false,1,15073001,0,0,0,0,2012/10/12,,,0,0,0,0,0,0.00,820,Hardcover,,0,0,William R. Swagerty,,,,,,,0,,
15073501,0870823779,Up from Depression,9780870823770,,,,ES,,Potentials Unlimited Products,,false,1,15073501,0,0,0,0,,,,0,0,0,0,0,0.00,,Audiobook,,0,0,Barrie Konicov,,,,,,,0,,
15074001,087114235X,Fundamentalisms and the Conflicts in the Middle East,9780871142351,,,,ES,2003/11/27,University of Oregon Press,,false,1,15074001,0,0,0,0,2003/11/27,,,0,0,0,0,0,0.00,26,Unknown Binding,,0,0,Milton Viorst,,,,,,,0,,
15074501,3518413031,Eine Geschichte Auf Erden: Gedichte,9783518413036,,,,ES,,,,false,1,15074501,1,4,1,0,,,,0,1,0,0,0,4.00,,,,1,0,Elisabeth Borchers,,,,,,,0,,
15075001,0871795086,Employment Guide,9780871795083,,,,ES,,,,false,1,15075001,0,0,0,0,,,,0,0,0,0,0,0.00,,,,0,0,Bna&S Business & Human Resources Service,,,,,,,0,,
15075501,3527313672,Gesundheitsschadliche Arbeitsstoffe,9783527313679,,,,ES,2006/10/27,Wiley-VCH Verlag GmbH,,false,8,17142464,0,0,0,0,2005/1/4,,,0,0,0,0,0,0.00,484,Loose-Leaf,,0,0,,,,Helmut Greim,,,,0,,
15076001,3528017597,Unternehmerhandbuch Bau: Mittelstandische Bauunternehmen Sicher Durch Krisen Fuhren,9783528017590,,,,ES,2005/4/12,Vieweg+teubner Verlag,,false,1,15076001,0,0,0,0,2005/4/12,,,0,0,0,0,0,0.00,291,Paperback,,0,0,,,,Wolfgang Breyer,,,,0,,
15076501,1602775028,Saxon Algebra 1 Technology Lab Masters,9781602775022,,,,ES,2008/1/1,Saxon Publishers,,false,1,15076501,0,0,0,0,2008/1/1,,,0,0,0,0,0,0.00,57,Paperback,,0,0,,,,,,,,0,,
15077001,1603208194,Jumbo Sudoku Extreme,9781603208192,,,,ES,2009/9/8,Time Home Entertainment,,false,1,15077001,2,0,0,0,2009/9/8,,,0,0,0,0,0,0.00,,Paperback,,0,0,Sudoku,,,,,,2,0,,
15077501,1603780491,Studio Essentials,9781603780490,,,,ES,2009/6/1,Cherry Lane Music Company,,false,1,15077501,1,3,1,0,2009/6/1,,,0,0,1,0,0,3.00,112,Paperback,,1,0,Tom Hapke,,,,,,,0,,music
15078001,3531178938,Deutsche Aussenpolitik,9783531178936,,,,ES,2010/12/9,Vs Verlag Fur Sozialwissenschaften,,false,2,15078001,2,0,0,0,2010/12/9,,,0,0,0,0,0,0.00,768,Hardcover,,0,0,,,,"Alexander Höse,Kai Oppermann,Thomas Jäger",,,2,0,,
15078501,1604242426,Pictures from Italy,9781604242423,,,,ES,2007/9/1,Book Jungle,,false,13,5340,1806,1557,437,56,1846/1/1,Pictures from Italy,book,94,129,151,55,8,3.56,,Paperback,,0,0,Charles Dickens,,,,,,1176,14,36,"biography,british-literature,classics,english-literature,essays,fiction,history,literature,memoir,non-fiction,travel,victorian"
15079001,1604249579,Adventures in New Guinea,9781604249576,,,,ES,,,,false,24,20413484,12,8,2,1,1886/1/1,,,1,0,1,0,0,4.00,,,,0,0,James Chalmers,,,,,,4,0,3,
15079501,1604568127,Retirement Decisions: U.S. Government Accountability Office,9781604568127,,,,ES,2008/10/1,Nova Science Publishers,,false,1,15079501,0,0,0,0,2008/10/1,,,0,0,0,0,0,0.00,87,Hardcover,,0,0,,,U.S. Government,,,,,0,,
15080001,3598113382,Microform Market Place,9783598113383,,,,ES,,,,false,1,15080001,0,0,0,0,,,,0,0,0,0,0,0.00,,,,0,0,K.G. Saur books,,,,,,,0,,
15080501,3598227698,Donny - Du,9783598227691,,,,ES,2001/6/19,K. G. Saur,,false,1,15080501,0,0,0,0,2001/6/19,,,0,0,0,0,0,0.00,572,Leather Bound,,0,0,,,Gale Cengage Learning,,,,,0,,
15081001,359832149X,Quodlibetica Nova 1: A - L,9783598321498,,,,ES,,,,false,1,15081001,0,0,0,0,,,,0,0,0,0,0,0.00,,,,0,0,Martin Bircher,,,K.G. Saur books,,,,0,,
15081501,5558604158,Code Black,9785558604153,,,,ES,1997/11/1,Sunset Productions,,false,1,15081501,0,0,0,0,1997/11/1,,,0,0,0,0,0,0.00,,Audio,,0,0,Dillinger Steele,,,,,,,0,,
15082001,0874871948,Tune Time: Part a,9780874871944,,,,ES,1994/10/1,Suzuki Method International,,false,1,15082001,0,0,0,0,1994/10/1,,,0,0,0,0,0,0.00,52,Paperback,,0,0,"Marion McArtor,Sarah L. Dittenhaver",,Frances Clark,,,,,0,,
15082501,5559660337,Texas Banking Red Book,9785559660332,,,,ES,1998/7/1,Blackwell North America,,false,1,15082501,0,0,0,0,1998/7/1,,,0,0,0,0,0,0.00,,Paperback,,0,0,Blackwell North America,,,,,,,0,,
15083001,6028012114,Peraturan Pemerintah Tentang Pilkada Dan Pedoman Pengelolaan Belanja Pemilihan Umum Kepala Daerah Dan Wakil Kepala Daerah: Berisikan Ppri No. 17 Th 20,9786028012119,,,,ES,,,,false,1,15083001,1,0,0,0,,,,0,0,0,0,0,0.00,,,,0,0,Novindo Pustaka Mandiri,,,,,,,0,1,
15083501,5550053918,"Ladies Classics: Psalms, Hymns, and Timeless Favorites Arranged for Ladies Choir or Ensemble by Tom Fettke [With Cassette]",,,,,ES,,,,false,2,15083501,2,0,0,0,,,,0,0,0,0,0,0.00,,,,0,0,Tom Fettke,,,,,,,0,,
15084001,5557693319,Worship Songs Volume Three: Kingdom People,,,,,ES,2002/12/16,Lillenas Publishing Company,,false,3,15084001,0,0,0,0,2002/12/15,,,0,0,0,0,0,0.00,,Audiobook,,0,0,Marty Parks,,,,,,,0,,
15084501,0875404340,Writing Lewis Symbols and Lewis Structures,9780875404349,,,,ES,,,,false,1,15084501,0,0,0,0,,,,0,0,0,0,0,0.00,,,,0,0,"H. Anthony Neidig,James N. Spencer",,,,,,,0,,
15085001,1606521128,"Earn, Save, Thrive: How to Get Ahead in Today's Economy-The Reader's Digest Version",9781606521120,,,,ES,2009/10/1,Reader's Digest Association,,false,1,15085001,2,0,0,0,2009/10/1,,,0,0,0,0,0,0.00,,Hardcover,,0,0,,,Reader's Digest Association,,,,2,0,,
15085501,1606791249,Coaching Defensive Football Successfully: Vol. 3 Linebackers,9781606791240,,,,ES,2011/7/31,Coaches Choice Books,,false,1,15085501,3,4,1,0,,,book,0,1,0,0,0,4.00,3,Hardcover,,1,0,Denny M. Burdine,,,,,,2,0,,
15086001,6029633392,Catatan Reformasi Merdeka Selatan,9786029633399,,,,ES,2010/1/1,Kosa Kata Kita,,false,1,15086001,0,0,0,0,2010/1/1,,,0,0,0,0,0,0.00,142,Hardcover,,0,0,Prijono Tjiptoherijanto,,,,,,,0,,
15086501,6029713639,Baratayuda,9786029713633,,,,ES,2011/1/1,Union Internationale de La Marionnetts D' Indonesie,,false,1,15086501,3,0,0,0,2011/1/1,,,0,0,0,0,0,0.00,5,Hardcover,,0,0,Andik Prayogo,,,,,,3,0,,
15087001,087590047X,Physics of the Magnetopause,9780875900476,,,,ES,1995/1/9,American Geophysical Union,,false,1,15087001,1,0,0,0,1995/1/9,,,0,0,0,0,0,0.00,447,Hardcover,,0,0,,,,P. Song,,,1,0,,
15087501,0005016509,Great Hymns of the Faith: King James Version Responsive Readings,9780005016503,,,,ES,1993/11/1,Brentwood Music,,false,6,4169406,26,44,11,0,1989/12/1,Great Hymns of the Faith-Blue: King James Version Responsive Readings,,6,1,3,0,1,4.00,,Hardcover,,0,0,,,,,,,4,0,,christian
15088001,6034501601,Quechua Para Todos: Gramatica: Conversacion y Vocabulario,9786034501607,,,,ES,,,,false,1,15088001,1,0,0,0,,,,0,0,0,0,0,0.00,,,,0,0,A. German Pino Duran,,,,,,1,0,,
15088501,6046200768,Nghi Le Vong I Cua Ng'i Cham Ahier Ninh Thuan,9786046200765,,,,ES,2010/1/1,Kim Dong/Tsai Fong Books,,false,1,15088501,0,0,0,0,2010/1/1,,,0,0,0,0,0,0.00,439,Hardcover,,0,0,Quoc Anh Phan,,,,,,,0,,
15089001,1607532344,Desert Animals,9781607532347,,,,ES,2012/1/1,Amicus,,false,3,14809295,2,3,1,0,2010/8/1,,book,0,0,1,0,0,3.00,,Hardcover,,0,0,Sonya Newland,,,,,,1,0,,school
15089501,6070213114,Sociologia del Derecho: Culturas y Sistemas Juridicos Comparados,9786070213113,,,,ES,,,,false,2,15089501,0,0,0,0,,,,0,0,0,0,0,0.00,,,,0,0,Jose Antonio Caballero Juarez,,,,,,,0,,
15090001,6070904397,Concursos Mercantiles,9786070904394,,,,ES,2010/1/1,Editorial Porrua,,false,1,15090001,2,0,0,0,2010/1/1,,,0,0,0,0,0,0.00,316,Hardcover,,0,0,Luis Fernando Sanroman Martinez,,,,,,1,0,,
15090501,0876684762,Interpreting Countransference,9780876684764,,,,ES,1977/7/1,Jason Aronson,,false,2,2835806,1,0,0,0,1977/7/1,Interpreting the Countertransference,book,0,0,0,0,0,0.00,,Hardcover,,0,0,Lawrence E. Hedges,,,,,,1,0,,
15091001,1608709981,China,9781608709984,,,,ES,2013/9/1,Cavendish Square Publishing,,true,4,15090951,16,12,4,0,1994/1/7,China (Cultures of the World),,0,1,2,1,0,3.00,,ebook,,0,0,Peggy Grace Ferroa,,,,,,8,0,,
15091501,3631574622,Konnte Rilke Radfahren? - Die Faszination Des Biographischen in Der Deutschen Literatur: Gedenkschrift Fuer Ferenc Szasz,9783631574621,,,,ES,2009/10/22,"Peter Lang Gmbh, Internationaler Verlag Der Wissenschaften",,false,1,15091501,0,0,0,0,2009/10/22,,,0,0,0,0,0,0.00,274,Paperback,,0,0,,,,Imre Kurdi,,,,0,,
15092001,3631580401,Kehillah Kedoschah - Spurensuche: Geschichte Der Juedischen Gemeinde in Friedberg- Auf Den Spuren Der Friedberger Juden Von Den Anfaengen Bis Zur Gegenwart,9783631580400,,,,ES,2009/11/13,"Peter Lang Gmbh, Internationaler Verlag Der Wissenschaften",,false,1,15092001,0,0,0,0,2009/11/13,,,0,0,0,0,0,0.00,406,Paperback,,0,0,,,,Hans-Helmut Hoos,,,,0,,
15092501,0020804008,Vietnam Inc,9780020804000,,,,ES,,,,false,1,15092501,0,0,0,0,,,book,0,0,0,0,0,0.00,,,,0,0,Phillip Jones Griffiths,,,,,,,0,,
15093001,3631594585,Sprachbegegnung Und Sprachkontakt in Europaeischer Dimension,9783631594582,,,,ES,2009/9/29,"Peter Lang Gmbh, Internationaler Verlag Der Wissenschaften",,false,1,15093001,0,0,0,0,2009/9/29,,,0,0,0,0,0,0.00,354,Hardcover,,0,0,,,,Christiane Fäcke,,,,0,,
15093501,6079017253,El Canario Rubio: Breve Poemario,9786079017255,,,,ES,,,,false,1,15093501,0,0,0,0,,,,0,0,0,0,0,0.00,,,,0,0,Alvaro Peniche Castellanos,,,,,,,0,,
15094001,6124011352,"Arqueologia Inedita de La Costa Peruana: Cuencas de Los Valles de Pisco, San Juan de Chincha, Jaguay, Canete, Omas y Mala: Chozas, Aldeas y Pueblos En",9786124011351,,,,ES,,,,false,1,15094001,2,0,0,0,,,,0,0,0,0,0,0.00,,,,0,0,Frédéric André Engel,,,,,,2,0,,
15094501,0023735708,Spotlight on Health,9780023735707,,,,ES,,,,false,1,15094501,0,0,0,0,,,,0,0,0,0,0,0.00,,,,0,0,Macmillan Publishing,,,,,,,0,,
15095001,6162190358,Laang Sanaehaa,9786162190353,,,,ES,2011/1/1,Samnakphim Arun,,false,1,15095001,0,0,0,0,2011/1/1,,,0,0,0,0,0,0.00,383,Hardcover,,0,0,Thaksina,,,,,,,0,,
15095501,6165360297,Athit Urairat Kao Kham Wikrit Chat,9786165360296,,,,ES,2010/1/1,Silkworm Books,,false,1,15095501,0,0,0,0,2010/1/1,,book,0,0,0,0,0,0.00,183,Hardcover,,0,0,,,Kong Bannathikan,,,,,0,,
15096001,1612183433,Godchild,9781612183435,,,,ES,2012/9/4,Thomas & Mercer,,false,11,500381,662,1181,312,27,2000/1/1,Godchild,book,81,121,80,22,8,3.79,333,Paperback,,4,0,Vincent Zandri,,,,,,265,18,21,"contemporary,crime,fiction,mystery,mystery-thriller,suspense,thriller"
15096501,6169003820,Raianrau Prawattisaat Laao Phaan Chaiwit Echao Suphaanuwong,9786169003823,,,,ES,2010/1/1,Samnakphim Ma Kham Phaang,,false,1,15096501,0,0,0,0,,,,0,0,0,0,0,0.00,253,Hardcover,,0,0,Sukprida,,,,,,,0,,
15097001,087849331X,Nanomaterials; Synthesis and Applications,9780878493319,,,,ES,,,,false,1,15097001,0,0,0,0,,,,0,0,0,0,0,0.00,,,,0,0,,,,Umapada Pal,,,,0,,
15097501,0878497951,Bulk Amorphous Alloys: Preparation and Fundamental Characteristics,9780878497959,,,,ES,1998/12/1,Trans Tech Publications,,false,1,15097501,0,0,0,0,1998/12/1,,,0,0,0,0,0,0.00,124,Hardcover,,0,0,,,,A. Inoue,,,,0,,
15098001,3764304502,"Die Kunstdenkmaler Des Kantons Aargau Bd 1: Die Bezirke Aurau, Kulm, Zofingen",9783764304508,,,,ES,1988/1/1,Springer,,false,1,15098001,1,0,0,0,1988/1/1,,,0,0,0,0,0,0.00,,Hardcover,,0,0,,,,,,,,0,,
15098501,3764314842,Kommunalplanung vor neuen Herausforderungen. Bausteine für die Verwaltungspraxis der 80er Jahre,9783764314842,,,,ES,1983/1/1,Birkhauser,,false,1,15098501,0,0,0,0,1983/1/1,,book,0,0,0,0,0,0.00,,Paperback,,0,0,"Dieter Lölhöffel,Dieter Schimanke",,,,,,,0,,
15099501,0028600045,Have a Healthy Baby: The March of Dimes Complete Guide to Pregnancy and Childbirth,9780028600048,,,,ES,1997/5/1,MacMillan Publishing Company,,false,2,15099501,0,0,0,0,1996/4/1,,,0,0,0,0,0,0.00,,Hardcover,,0,0,"Gray Williams,Richard Johnston",,,,,,,0,,
15100001,1615821783,Rhino's Special Ears,9781615821785,,,,ES,2010/3/1,Publish America,,false,2,15100001,0,0,0,0,2010/3/1,,,0,0,0,0,0,0.00,30,Paperback,,0,0,Linda Rice,,,,,,,0,,
15100501,1616329556,What Is a Copyright?,9781616329556,,,,ES,2012/1/23,American Bar Association,,false,3,22271524,0,0,0,0,2001/1/1,,,0,0,0,0,0,0.00,23,Hardcover,,0,0,,,Frank H. Andorka,,,,,0,,
15101001,0028646835,Virtual Musician,9780028646831,,,,ES,1996/8/1,MacMillan Publishing Company,,false,2,15101001,4,0,0,0,1996/8/1,,book,0,0,0,0,0,0.00,,Hardcover,,0,0,Brad Hill,,,,,,2,1,,
15101501,1616905816,Coyotes,9781616905811,,,,ES,2011/6/1,Av2 by Weigl,,false,3,15101501,1,0,0,0,2011/6/1,,,0,0,0,0,0,0.00,,Hardcover,,0,0,Jordan McGill,,,,,,1,0,,
15102001,8132011635,The Voice of the People,9788132011637,,,,ES,2008/4/18,Tutis Digital Pub,,false,14,2350940,18,16,5,3,1900/1/1,The Voice of the People,book,1,1,1,2,0,3.20,,Paperback,Large Print,0,0,Ellen Glasgow,,,,,,11,0,,"american,literary-fiction"
15102501,161862301X,Lose Weight Healthily: Stop Dieting and Start Eating,9781618623010,,,,ES,2012/6/12,Tate Publishing & Enterprises,,false,3,15102501,0,0,0,0,2012/6/12,,,0,0,0,0,0,0.00,244,Paperback,,0,0,Louise Smith,,,,,,,0,,
15103001,3795795613,"L'Estro Armonico (RV 522): Concerto Grosso in a Minor, Op. 3, No. 8",9783795795610,,,,ES,1985/7/1,Schott,,false,1,15103001,0,0,0,0,,,,0,0,0,0,0,0.00,34,Paperback,,0,0,,,,,,,,0,,
15103501,8132016092,Watersprings,9788132016090,,,,ES,,,,false,27,9551955,1,0,0,0,1913/1/1,Watersprings,book,0,0,0,0,0,0.00,,,Large Print,0,0,A.C. Benson,,,,,,,0,,
15104001,0030030374,Managing Organizations: Study Guide,9780030030376,,,,ES,,Dryden Press,,false,1,15104001,0,0,0,0,,,book,0,0,0,0,0,0.00,,Paperback,,0,0,"Carol Cirulli,Gary Dessler",,,,,,,0,,
15104501,0881102733,How to Draw Cartoons and Caricatures,9780881102734,,,,ES,,,,false,7,3939291,27,30,8,1,1987/4/1,How to Draw Cartoons and Caricatures (Young Artist Series),,1,4,3,0,0,3.75,,,,0,0,Judy Tatchell,,,,,,9,0,,art
15105001,8132020693,Cowmen and Rustlers,9788132020691,,,,ES,2008/7/1,Tutis Digital Pub,,false,32,18896337,162,322,103,2,2004/1/1,,book,23,21,22,20,17,3.13,180,Paperback,,0,0,Edward S. Ellis,,,,,,38,0,15,fiction
15105501,088123060X,Childrens Haggadah,9780881230604,,,,ES,,,,false,1,15105501,1,0,0,0,,,,0,0,0,0,0,0.00,,,,0,0,Howard Bogot,Devis Grebu,,,,,,0,,
15106001,0030265975,The Winston Reader,9780030265976,,,,ES,,,,false,1,15106001,1,0,0,0,,,,0,0,0,0,0,0.00,,,,0,0,Bonnie Carter,,,,,,1,0,,
15106501,3810042293,"Struktur, Entwicklung Und Forderung Von Lesekompetenz: Vertiefende Analysen Im Rahmen Von Pisa 2000",9783810042293,,,,ES,2004/9/15,Vs Verlag Fur Sozialwissenschaften,,false,1,15106501,0,0,0,0,2004/9/15,,,0,0,0,0,0,0.00,358,Paperback,,0,0,,,,"Cordula Artelt,Ulrich Schiefele,Wolfgang Schneider",,,,0,,
15107001,0881663352,The Dinner Party Cookbook,9780881663358,,,,ES,1999/7/1,Meadowbrook Press,,false,2,155899,16,13,5,1,1999/1/1,Dinner Party Cookbook: Menus Recipes And Decorating Ideas For 21 Theme Parties,,0,1,2,1,1,2.60,125,Hardcover,,0,0,Karen Lancaster Brown,,,,,,7,0,,"cookbooks,food"
15107501,0030541352,New History of U. S,9780030541353,,,,ES,,,,false,1,15107501,1,0,0,0,,,,0,0,0,0,0,0.00,,,,0,0,E. Fenton,,,,,,1,0,,
15108001,3824478730,Umwelt- Und Kostenorientierte Unternehmensfuhrung: Zur Identifikation Von Win-Win-Potenzialen,9783824478736,,,,ES,2003/6/20,Deutscher Universitatsverlag,,false,1,15108001,0,0,0,0,2003/6/20,,,0,0,0,0,0,0.00,272,Paperback,,0,0,,,,"Matthias Kramer,Peggy Eifler",,,,0,,
15108501,0030614619,Costumes and Characters of the British Raj,9780030614613,,,,ES,1982/4/1,Webb & Bower,,false,1,15108501,1,0,0,0,1982/4/1,,,0,0,0,0,0,0.00,,Hardcover,,0,0,Evelyn Battye,Cecil Elgee,,,,,1,0,,
15109001,1780270933,Tom Morris of St Andrews: The Colossus of Golf 1821-1908,9781780270937,,,,ES,2012/8/1,Birlinn Ltd,,false,1,15109001,3,9,2,0,2012/8/1,,book,1,1,0,0,0,4.50,336,Paperback,,2,0,"David Malcolm,Peter E. Crabtree",,,,,,1,0,,
15109501,178088155X,Stepping on the Cracks,9781780881553,,,,ES,2013/11/27,Troubador Publishing,,false,2,15109501,9,8,2,1,2012/6/1,,book,0,2,0,0,0,4.00,464,Paperback,,1,1,Chris L. Carter,,,,,,5,0,2,
15110001,3825868664,"Three Social Science Disciplines in Central and Eastern Europe: Handbook on Economics, Political Science and Sociology (1989-2001)",9783825868666,,,,ES,2003/8/1,Lit Verlag,,false,1,15110001,0,0,0,0,2003/8/1,,,0,0,0,0,0,0.00,668,Hardcover,,0,0,,,,"Agnieszka Wenninger,Max Kaase,Vera Sparschuh",,,,0,,
15110501,8132048741,The Death Shot,9788132048749,,,,ES,2008/9/1,Tutis Digital Pub,,false,33,11839424,9,30,8,2,1992/1/1,,book,3,1,3,1,0,3.75,408,Paperback,,0,0,Mayne Reid,,,,,,1,0,,"american,crime,mystery"
15111001,0883639106,Powers That Be,9780883639108,,,,ES,,,,false,1,15111001,0,0,0,0,,,,0,0,0,0,0,0.00,,,,0,0,Hugh Lauter Levin Associates,,,,,,,0,,
15111501,0043201571,International Organizations,9780043201572,,,,ES,,,,false,16,171746,260,177,46,3,1992/1/28,International Organisations,,16,11,15,4,0,3.85,,,,0,0,Clive Archer,,,,,,167,2,11,"academic,non-fiction,textbooks"
15112001,0884022862,"Dumbarton Oaks Papers, 54",9780884022862,,,,ES,,,,false,1,15112001,1,0,0,0,2001/1/1,,,0,0,0,0,0,0.00,,,,0,0,"Dumbarton Oaks,Oaks Dumbarton Oaks",,,,,,,0,,
15112501,8175332263,Corporate Social Development: A Paradigm Shift,9788175332263,,,,ES,,,,false,1,15112501,1,4,1,0,,,,0,1,0,0,0,4.00,,,,1,0,Rajanikant Verma,,,,,,,0,,
15113001,3830470827,Karl Julius Aegidi: Leben Und Werk Des Homoopathischen Arztes,9783830470823,,,,ES,,,,false,1,15113001,1,0,0,0,,,,0,0,0,0,0,0.00,,,,0,0,Ralf Vigoureux,,,,,,1,0,,
15113501,8184564228,Ranching for Sylvia,9788184564228,,,,ES,,,,false,24,20561011,36,72,17,1,1912/1/1,The Trustee,book,9,4,3,1,0,4.24,,,Large Print,0,0,Harold Bindloss,,,,,,2,0,9,"classics,historical-fiction"
15114001,8184566689,Hudson Bay,9788184566680,,,,ES,2008/1/11,Tutis Digital Pub,,false,84,9565041,62,82,20,2,1848/1/1,Hudson Bay,book,7,8,5,0,0,4.10,484,Paperback,Large Print,0,0,R.M. Ballantyne,,,,,,31,2,5,"adventure,fiction,non-fiction"
15114501,3834802131,ISSE 2006 Securing Electronic Business Processes: Highlights of the Information Security Solutions Europe 2006 Conference,9783834802132,,,,ES,2006/10/10,Vieweg+teubner Verlag,,false,1,15114501,1,0,0,0,2006/10/10,,,0,0,0,0,0,0.00,479,Paperback,,0,0,,,,"Helmut Reimer,Norbert Pohlmann,Sachar Paulus",,,,0,,
15115001,3834808962,Nachrichtenubertragung,9783834808967,,,,ES,2011/8/4,Vieweg+teubner Verlag,,false,2,15115001,0,0,0,0,2011/8/4,,,0,0,0,0,0,0.00,852,Paperback,,0,0,Karl-Dirk Kammeyer,,,"Martin Bossert,Norbert Fliege",,,,0,,
15115501,1842152653,Cajun Cooking,9781842152652,,,,ES,2000/12/1,Southwater Publishing,,false,1,15115501,2,0,0,0,2000/12/1,,,0,0,0,0,0,0.00,64,Hardcover,,0,0,Southwater Publishing,,,,,,2,0,,
15116001,8308039421,Autobiografia: Mysli Nie Tylko O Sobie,9788308039427,,,,ES,,,,false,2,12753866,7,16,5,0,,,,1,0,3,1,0,3.20,,,,0,0,Jan Twardowski,,,,,,1,0,,
15116501,3834910090,Organisation Der Verkaufsforderung Bei Konsumguterherstellern,9783834910097,,,,ES,2008/4/24,Gabler Verlag,,false,1,15116501,0,0,0,0,2008/4/24,,,0,0,0,0,0,0.00,237,Paperback,,0,0,Stefanie Rudek,,,,,,,0,,
15117001,3834916854,Arbeitsrecht: Eine Praxisorientierte Einfuhrung,9783834916853,,,,ES,2009/9/15,Gabler Verlag,,false,1,15117001,0,0,0,0,2009/9/15,,,0,0,0,0,0,0.00,195,Paperback,,0,0,Andreas Wien,,,,,,,0,,
15117501,3834922102,Originare Ausgrundungen Aus Etablierten Unternehmen: Eine Empirische Analyse Der Ausgrundungsentscheidung,9783834922106,,,,ES,2010/6/11,Gabler Verlag,,false,1,15117501,0,0,0,0,2010/6/11,,,0,0,0,0,0,0.00,267,Paperback,,0,0,Bernhard Kirchmair,,,,,,,0,,
15118001,006020057X,Down the Road,9780060200572,,,,ES,1999/12/1,HarperCollins Publishers,,false,6,1718578,233,518,124,23,1995/1/1,Down the Road,book,51,49,21,1,2,4.18,40,Hardcover,,0,0,Alice Schertle,E.B. Lewis,,,,,59,16,1,"childrens,family,historical-fiction,nature,picture-books,realistic-fiction,school"
15118501,3834939471,Supply Chain Koordination Durch Liefervertrage Mit Rollierender Mengenflexibilitat: Eine Simulationsstudie Am Beispiel Von Lieferketten Der Deutschen Automobilindustrie,9783834939470,,,,ES,2012/3/29,Gabler Verlag,,false,2,16320512,0,0,0,0,2012/1/1,,book,0,0,0,0,0,0.00,384,Paperback,,0,0,Jörg Wilke,,,,,,,0,,
15119001,0887247776,Teach & Test Reading,9780887247774,,,,ES,2002/7/1,Carson Dellosa Publishing Company,,false,1,15119001,1,0,0,0,,,,0,0,0,0,0,0.00,128,Paperback,,0,0,Jean Wolff,,,,,,,0,,
15119501,8360736278,W Synagodze I W Domu,9788360736272,,,,ES,2010/1/1,"Walther Konig, Cologne",,false,1,15119501,0,0,0,0,2010/1/1,,,0,0,0,0,0,0.00,103,Hardcover,,0,0,Ewa Martyna,,,,,,,0,,
15120001,8361538291,"Kobiecosc I Meskosc: Komunikacja, Relacje, Spoeczenstwo",9788361538295,,,,ES,,,,false,2,12278675,1,0,0,0,,,book,0,0,0,0,0,0.00,,,,0,0,Bogna Bartosz,,,,,,1,0,,
15120501,0887392237,Murder in Their Midst,9780887392238,,,,ES,1999/12/1,Creative Arts Book Company,,false,1,15120501,1,3,1,0,1999/12/1,,,0,0,1,0,0,3.00,102,Paperback,,1,0,Sharon Abel-Halvorsen,,,,,,,0,,
15121001,3850550125,Violin Sonata Op. 108,9783850550123,,,,ES,1976/6/1,Schott,,false,1,15121001,0,0,0,0,1976/6/1,,book,0,0,0,0,0,0.00,64,Paperback,,0,0,,,,,,,,0,,
15121501,3860250779,Theorien Der Entwicklungspsychologie,9783860250778,,,,ES,,,,false,21,296312,483,551,153,14,1983/1/1,Theories of Developmental Psychology,book,29,56,51,12,5,3.60,,,,0,0,Patricia H. Miller,,,,,,211,7,27,"academic,american,education,grad-school,non-fiction,psychology,school,textbooks"
15122001,3860254855,Kegelschnitte,9783860254851,,,,ES,1988/1/1,Spektrum Akademischer Verlag,,false,1,15122001,0,0,0,0,,,,0,0,0,0,0,0.00,,Paperback,,0,0,Hans Schupp,,,,,,,0,,
15122501,0060283335,"Untitled (Gypsy Davey, #2)",9780060283339,,,,ES,,,,false,3,15122501,7,0,0,0,,,book,0,0,0,0,0,0.00,,,,0,0,Chris Lynch,,,,,,7,0,,
15123001,0888440588,Works II,9780888440587,,,,ES,1982/1/1,Pontifical Institute of Mediaeval Studies,,false,1,15123001,0,0,0,0,1982/1/1,,,0,0,0,0,0,0.00,,Paperback,,0,0,,,,E.A. Synan,,,,0,,
15123501,8373385134,The Highlights of Anglo-Saxon Culture and Language: A College and University Guide,9788373385139,,,,ES,,,,false,1,15123501,0,0,0,0,,,,0,0,0,0,0,0.00,,,,0,0,Grzegorz Kleparski,,,,,,,0,,
15124001,1844262308,Sell the Pig and Buy Me Out,9781844262304,,,,ES,2003/6/25,Upfront Publishing,,false,1,15124001,0,0,0,0,2003/6/25,,,0,0,0,0,0,0.00,108,Paperback,,0,0,John Nelson,,,,,,,0,,
15124501,0060447451,Retracing the Past: Readings in the History of the American People,9780060447458,,,,ES,1997/8/1,Addison-Wesley Educational Publishers,,false,2,14763512,1,0,0,0,,,,0,0,0,0,0,0.00,,Paperback,Second Edition,0,0,"Gary B. Nash,Ronald B. Schultz",,,,,,,0,,
15125001,3894323124,"Ackerunkrauter, ... Ackerwildkrauter",9783894323127,,,,ES,1995/6/12,Spektrum Akademischer Verlag,,false,1,15125001,0,0,0,0,,,,0,0,0,0,0,0.00,,Hardcover,,0,0,Arlt,,,,,,,0,,
15126501,3899853180,Eating with Style,9783899853186,,,,ES,2005/5/1,"Feierabend Verlag, Ohg",,false,1,15126501,0,0,0,0,2005/5/1,,,0,0,0,0,0,0.00,128,Hardcover,,0,0,,,,Rita Mielke,,,,0,,
15127001,0890159068,Poison for Profit,9780890159064,,,,ES,,,,false,2,15127001,20,9,2,1,1992/1/1,,book,1,1,0,0,0,4.50,,,,2,1,Mac B. McKinnon,,,,,,17,0,1,
15127501,8385678387,Tradycje I Perspektywy Edukacji: Praca Zbiorowa,9788385678380,,,,ES,,,,false,1,15127501,0,0,0,0,,,,0,0,0,0,0,0.00,,,,0,0,Univerzita Palack Eho V Olomouci,,,,,,,0,,
15128001,8387408778,Listy KS. Bernarda Sychty I Prof. Gerarda Labudy Do Lecha Badkowskiego,9788387408770,,,,ES,,,,false,1,15128001,0,0,0,0,,,,0,0,0,0,0,0.00,,,,0,0,Bernard Sychta,,,,,,,0,,
15128501,0890799431,Developing Fine and Gross Motor Skills: Birth to Three,9780890799437,,,,ES,2000/1/1,Pro-Ed,,false,2,15128501,0,0,0,0,2000/1/1,,,0,0,0,0,0,0.00,157,Spiral-bound,,0,0,Donna Staisiunas Hurley,,,,,,,0,,
15129501,1845536932,"Real Peace Process: Worship, Politics and the End of Sectarianism",9781845536930,,,,ES,2010/1/15,Acumen Publishing,,false,2,9636033,6,9,2,0,2010/8/31,,,1,1,0,0,0,4.50,240,Hardcover,,0,0,Siobhan Garrigan,,,,,,4,1,,religion
15130001,8389191539,Dynamika Rozwoju Gwary Knyszyna I Okolic Na Podlasiu W XX Wieku,9788389191533,,,,ES,,,,false,1,15130001,0,0,0,0,,,,0,0,0,0,0,0.00,,,,0,0,Dorota Krystyna Rembiszewska,,,,,,,0,,
15130501,1845979559,New Father's Survival Guide,9781845979553,,,,ES,2010/3/1,Ryland Peters & Small,,false,1,15130501,6,8,4,2,2010/3/1,,,0,0,1,2,1,2.00,112,Hardcover,,4,2,Martyn Cox,,,,,,,1,,parenting
15131001,4873350263,The Konjaku Tales,9784873350264,,,,ES,2003/1/1,University of Hawaii Press,,false,11,24796695,291,224,57,9,1120/1/1,今昔物語集 [Konjaku Monogatarishū],book,21,16,15,5,0,3.93,428,Hardcover,,0,0,,,,,,,192,7,13,"classics,fantasy,fiction,historical,horror,literature,mythology,short-stories"
15131501,4931154212,Diagraphics II,9784931154216,,,,ES,,,,false,1,15131501,0,0,0,0,,,book,0,0,0,0,0,0.00,,,,0,0,C.A.J.,,,,,,,0,,
15132501,0892211938,Downfall: Secularization of a Christian Nation,9780892211937,,,,ES,1991/5/1,New Leaf Publishing Group,,false,1,15132501,1,0,0,0,1991/5/1,,,0,0,0,0,0,0.00,240,Paperback,,0,0,Marty Pay,,,,,,,1,,
15133001,8400093593,Pautas Anticonceptivas y Maternidad Adolescente En Espaana,9788400093594,,,,ES,,,,false,1,15133001,0,0,0,0,,,,0,0,0,0,0,0.00,,,,0,0,Margarita Delgado,,,,,,,0,,
15133501,0061071250,Vegemorphs Display: The Fungus Among Us,9780061071256,,,,ES,,,,false,1,15133501,0,0,0,0,,,,0,0,0,0,0,0.00,,,,0,0,Leif E. Green,,,,,,,0,,
15134001,8415019092,"Cumpleanos Feliz: Poesia, 1989-2009",9788415019091,,,,ES,,,,false,1,15134001,0,0,0,0,,,,0,0,0,0,0,0.00,,,,0,0,Roxana Popelka,,,,,,,0,,
15134501,0892951311,Acuario En Capri: Poemas,9780892951314,,,,ES,2011/1/1,Society of Spanish & Spanish-American Studies,,false,1,15134501,0,0,0,0,2011/1/1,,,0,0,0,0,0,0.00,284,Hardcover,,0,0,Ramón Hernández,,,,,,,0,,
15135001,0893281883,Jumpstart First Holiday Concert - Percussion 1: Grade 1,9780893281885,,,,ES,,,,false,1,15135001,0,0,0,0,,,,0,0,0,0,0,0.00,,,,0,0,,,,,,,,0,,
15135501,8423528367,Catalogo del Archivo Diocesano de Pamplona,9788423528363,,,,ES,,,,false,1,15135501,0,0,0,0,,,,0,0,0,0,0,0.00,,,,0,0,Jose Luis Sales Tirapu,,,,,,,0,,
15136001,0893900257,In Season & Out,9780893900250,,,,ES,,,,false,1,15136001,0,0,0,0,,,,0,0,0,0,0,0.00,,,,0,0,"Bruce Clanton,Thomas G. Simons",Tom Shea,,,,,,0,,
15136501,0894343653,Ferguson Career Biographies,9780894343650,,,,ES,,,,false,2,15136501,0,0,0,0,,,,0,0,0,0,0,0.00,,,,0,0,,,,,,,,0,,
15137001,089471516X,A Grandparent's Journal,9780894715167,,,,ES,1987/4/1,Running Press Book Publishers,,false,1,15137001,2,4,1,0,1987/4/1,,,0,1,0,0,0,4.00,,Hardcover,,1,0,Running Press,,,,,,1,0,,
15137501,0894992171,Review of the Present-Law Tax and Immigration Treatment of Relinquishment of Citizenship and Termination of Long-Term Residency,9780894992179,,,,ES,,,,false,1,15137501,0,0,0,0,,,,0,0,0,0,0,0.00,,,,0,0,"Staff of the Joint Committee on Taxation,U.S. Congress",,,,,,,0,,
15138001,1847729754,Barnstormers,9781847729750,,,,ES,2009/1/1,Novello & Company,,false,1,15138001,0,0,0,0,2009/1/1,,,0,0,0,0,0,0.00,48,Paperback,,0,0,Roe Betty,,,,,,,0,,
15138501,8432137812,"Oscuro Pez del Fondo, 2001-2008",9788432137815,,,,ES,,,,false,1,15138501,1,0,0,0,,,,0,0,0,0,0,0.00,,,,0,0,Daniel Casado,,,,,,1,0,,
15139001,8434409143,Inteligencia y Aprendizaje,9788434409149,,,,ES,,,,false,1,15139001,0,0,0,0,,,,0,0,0,0,0,0.00,,,,0,0,Ricardo Pellon,,,,,,,0,,
15139501,0064499758,Boxed Frog and Toad Set,9780064499750,,,,ES,,,,false,1,15139501,3,9,2,0,,,,1,1,0,0,0,4.50,,,,2,0,Collins,,,,,,1,0,,
15140001,8441401225,Cuando El Amor Es Eterno,9788441401228,,,,ES,1998/10/1,Edaf S.A.,,false,2,15140001,0,0,0,0,1998/10/1,,,0,0,0,0,0,0.00,,Paperback,,0,0,Helen Exley,,,,,,,0,,
15140501,8441519633,Indesign Cs2 - El Libro Oficial,9788441519633,,,,ES,2006/6/22,Anaya Publishers,,false,1,15140501,0,0,0,0,2006/6/22,,,0,0,0,0,0,0.00,,Paperback,,0,0,Adobe Creative Team,,,,,,,0,,
15141001,8447028852,"Constitucion, Funcion Consultiva y Estado Autonomico",9788447028856,,,,ES,,,,false,1,15141001,0,0,0,0,,,,0,0,0,0,0,0.00,,,,0,0,Adoracion Galera Victoria,,,,,,,0,,
15141501,0070116962,Nungu and the Elephant,9780070116962,,,,ES,1980/1/1,McGraw-Hill Companies,,false,2,3317964,5,9,2,0,1980/1/1,Nungu and the Elephant,,1,1,0,0,0,4.50,28,Unknown Binding,,1,0,Babette Cole,,,,,,1,0,,
15142001,8467024100,"Lupe, El Sino de Manolete",9788467024104,,,,ES,,,,false,1,15142001,3,0,0,0,,,,0,0,0,0,0,0.00,,,,0,0,Carmen Esteban,,,,,,2,0,,
15142501,8472285332,Medida de Una Mujer = Measure of a Woman,9788472285330,,,,ES,,Editorial Clie,,false,13,742091,171,188,50,4,1977/1/1,The Measure Of A Woman,,17,13,12,7,1,3.76,,Paperback,,0,0,Gene A. Getz,,,,,,70,2,17,"christian,family,leadership,non-fiction"
15143001,8475225527,Jugar en serio,9788475225524,,,,ES,2004/1/1,,,false,1,15143001,1,0,0,0,2004/1/1,Jugar en serio,book,0,0,0,0,0,0.00,,Paperback,1st edition,0,0,Jaime García-Máiquez,,,,,,1,0,,
15143501,8476816065,El Camino de Santiago y Su Historia: Apuntes Desde Navarra,9788476816066,,,,ES,,,,false,1,15143501,0,0,0,0,,,,0,0,0,0,0,0.00,,,,0,0,José María Jimeno Jurío,,,,,,,0,,
15144001,0070439702,Novell Certification Handbook,9780070439702,,,,ES,,,,false,5,4903945,2,2,1,0,1993/1/1,Novell Certification Handbook,,0,0,0,1,0,2.00,,,,0,0,"John Paul Mueller,Robert A. Williams",,,,,,1,1,,
15144501,0070480982,"Karl Marx on Education, Women, & Children",9780070480988,,,,ES,,,,false,2,15144501,5,3,1,0,,,,0,0,1,0,0,3.00,,,,1,0,Karl Marx,,,Saul K. Padover,,,4,0,,
15145001,8479626364,"Jose Lezama Lima, Hacia Una Mistica Poetica: Algunas Confluencias del Pensamiento Poetico Espanol En La Obra de Jose Lezama Lima",9788479626365,,,,ES,2010/1/1,,,false,1,15145001,0,0,0,0,2010/1/1,,book,0,0,0,0,0,0.00,,,,0,0,Ivette Fuentes,,,,,,,0,,
15145501,8481024112,Treinta Anos de Gobierno Representativo En Espana,9788481024111,,,,ES,,,,false,1,15145501,0,0,0,0,,,,0,0,0,0,0,0.00,,,,0,0,Jose Maria De Orense,,,,,,,0,,
15146001,0070655014,Metamorphic Petrology,9780070655010,,,,ES,1981/1/1,McGraw-Hill Companies,,false,1,15146001,3,3,1,0,,,,0,0,1,0,0,3.00,524,Hardcover,,1,0,Francis Joseph Turner,,,,,,3,0,,
15146501,0070774781,Cross-Country Skiing,9780070774780,,,,ES,1972/1/1,McGraw-Hill Companies,,false,1,15146501,0,0,0,0,,,,0,0,0,0,0,0.00,79,Unknown Binding,,0,0,Hans Brunner,,,,,,,0,,
15147001,0071347313,"SAP R/3 ALE & EDI Technologies [With Contains the Book's Source Code, Common Idoc Types]",9780071347310,,,,ES,,,,false,1,15147001,0,0,0,0,,,,0,0,0,0,0,0.00,,,,0,0,Rajeev Kasturi,,,,,,,0,,
15147501,8484274756,Territorios de La Mancha: Versiones y Subversiones Cervantinas En La Literatura Hispanoamericana: Actas del VI Congreso Internacional de La Asoc,9788484274759,,,,ES,,,,false,1,15147501,0,0,0,0,,,,0,0,0,0,0,0.00,,,,0,0,Asociaci on Espa Nola de Estudios Litera,,,,,,,0,,
15148001,8484567486,El Abuso de Informacion Privilegiada En La Funcion Publica,9788484567486,,,,ES,,,,false,1,15148001,0,0,0,0,,,,0,0,0,0,0,0.00,,,,0,0,Abraham Castro Moreno,,,,,,,0,,
15148501,8484895238,El Gusto de La Razon: Debates de Arte y Moral En El Siglo XVIII Espanol,9788484895237,,,,ES,,,,false,1,15148501,1,0,0,0,,,,0,0,0,0,0,0.00,,,,0,0,Ana Hontanilla,,,,,,,0,1,
15149001,0072951230,Test Bank to Accompany Puntos de Partida: An Invitation to Spanish,9780072951233,,,,ES,2004/3/1,McGraw-Hill Europe,,false,1,15149001,0,0,0,0,2004/3/1,,,0,0,0,0,0,0.00,,Paperback,,0,0,Marty Knorre,,,,,,,0,,
15149501,0471635944,Advanced Turbo Basic Program Design,9780471635949,,,,ES,,,,false,1,15149501,0,0,0,0,,,,0,0,0,0,0,0.00,,,,0,0,Robert Alonso,,,,,,,0,,
15150001,0471708569,Student Solutions Manual for Calculus 3rd Edition Single Variable with Student Survey Set,9780471708568,,,,ES,2004/9/27,John Wiley & Sons,,false,1,15150001,0,0,0,0,,,,0,0,0,0,0,0.00,210,Paperback,,0,0,Deborah Hughes-Hallett,,,,,,,0,,
15150501,0471782300,International Law and National Behavior: A Behavioral Interpretation of Contemporary International Law and Politics,9780471782308,,,,ES,1974/1/1,John Wiley & Sons,,false,2,2117430,2,2,1,0,1974/1/1,International Law and National Behaviour,,0,0,0,1,0,2.00,366,Unknown Binding,,0,0,Ahmed Sheikh,,,,,,,0,,
15151001,8492596325,V Congreso Tributario: Cuestiones Tributarias Problematicas y de Actualidad,9788492596324,,,,ES,2010/1/1,Consejo General del Poder Judicial,,false,1,15151001,0,0,0,0,2010/1/1,,,0,0,0,0,0,0.00,439,Hardcover,,0,0,,,Manuel Jose Baeza Diaz-Portales,,,,,0,,
15151501,0310418410,A Workshop on the Book of John,9780310418412,,,,ES,1989/1/1,Zondervan Publishing Company,,false,1,15151501,0,0,0,0,,,,0,0,0,0,0,0.00,,Unknown Binding,,0,0,Carolyn Nystrom,,,,,,,0,,
15152001,0078820219,Microsoft Word for Windows Bundle,9780078820212,,,,ES,1993/11/1,Osborne Publishing,,false,1,15152001,0,0,0,0,,,,0,0,0,0,0,0.00,,Paperback,,0,0,Paul E.  Hoffman,,,,,,,0,,
15152501,8493358967,Richard Wagner Et La Litterature Espagnole; Le Wagnerisme En Catalogne,9788493358969,,,,ES,,,,false,1,15152501,0,0,0,0,,,,0,0,0,0,0,0.00,,,,0,0,Maria Infiesta Monterde,,,,,,,0,,
15153001,0690045182,Getting Oxygen: What Do You Do If You're Cell Twenty-Two?,9780690045185,,,,ES,1986/1/1,Crowell,,false,2,15153001,2,5,2,0,1986/1/1,,,0,0,1,1,0,2.50,56,Unknown Binding,,2,0,Stephen P. Kramer,,,,,,,0,,
15153501,8493677620,"Juana I: Arte, Poder y Cultura En Torno a Una Reina Que No Goberno",9788493677626,,,,ES,,,,false,1,15153501,1,4,1,0,,,,0,1,0,0,0,4.00,,,,1,0,Miguel Ángel Zalama,,,,,,,0,,
15154001,0080163696,Elliptic Functions: A Primer,9780080163697,,,,ES,,,,false,2,15154001,0,0,0,0,2014/12/26,,,0,0,0,0,0,0.00,,,,0,0,Eric Harold Neville,,,,,,,0,,
15154501,0080177042,Progress in Nuclear Magnetic Resonance Spectroscopy,9780080177045,,,,ES,,,,false,2,15154501,0,0,0,0,1978/10/1,,book,0,0,0,0,0,0.00,,,,0,0,,,,"James W. Emsley,L.H. Sutcliffe",,,,0,,
15155001,0310948509,America's Bible,9780310948506,,,,ES,,,,false,1,15155001,0,0,0,0,,,,0,0,0,0,0,0.00,,,,0,0,Anonymous,,,,,,,0,,
15155501,0080210333,The Characteristics of Mechanical Engineering Systems,9780080210339,,,,ES,,,,false,2,15155501,1,5,1,0,1977/1/1,,,1,0,0,0,0,5.00,,,,0,0,Roy Holmes,,,,,,,0,,
15156001,0080220460,The Structure of Western Europe,9780080220468,,,,ES,,,,false,1,15156001,0,0,0,0,,,,0,0,0,0,0,0.00,,,,0,0,J.G.C. Anderson,,,,,,,0,,
15156501,0080232469,Heavy Current Electricity in the United Kingdom: History and Development,9780080232461,,,,ES,,,,false,2,15156501,0,0,0,0,,,,0,0,0,0,0,0.00,,,,0,0,Christopher Hinton Hinton of Bankside,,,,,,,0,,
15157001,0312025866,In Distant Waters,9780312025861,,,,ES,,,,false,9,2343422,189,438,109,5,2000/6/15,,book,30,55,21,2,1,4.02,,,,3,1,Richard Woodman,,,,,,42,3,6,"adventure,fiction,historical,historical-fiction"
15157501,0473005859,Matapihi: A Guide to Contemporary New Zealand Children's Book Illustrators,9780473005856,,,,ES,,,,false,1,15157501,0,0,0,0,,,,0,0,0,0,0,0.00,,,,0,0,Tom Fitzgibbon,,,,,,,0,,
15158001,0312046138,Women and Disability: The Experience of Physical Disability Among Women,9780312046132,,,,ES,1990/8/1,St. Martin's Press,,false,2,12365750,3,0,0,0,1990/1/1,,,0,0,0,0,0,0.00,186,Hardcover,,0,0,Susan Lonsdale,,,,,,1,0,,
15158501,8496563421,Polonia,9788496563421,,,,ES,,,,false,1,15158501,1,5,1,0,,,,1,0,0,0,0,5.00,,,,1,0,Jordi Cantavella,,,,,,,0,,
15159001,0312064012,Let's Go USA 1992,9780312064013,,,,ES,1991/12/1,St. Martin's Press,,false,1,15159001,2,3,1,0,1991/12/1,,book,0,0,1,0,0,3.00,,Paperback,,1,0,"D. Stephen Voss,Let's Go Inc.",,,,,,,0,,
15159501,0080327117,"Particle Acceleration Processes, Shockwaves, Nucleosynthesis & Cosmic Rays: Proceedings of Symposia 6 & 8 & the Joint Sessions 6-8 of the Cospar Twent",9780080327112,,,,ES,,,,false,1,15159501,0,0,0,0,,,book,0,0,0,0,0,0.00,,,,0,0,,,,"L. Koch-Miramond,M.A.   Lee",,,,0,,
15160001,0312086393,Elements of Argument,9780312086398,,,,ES,1993/11/1,St. Martin's Press,,false,27,4186622,327,351,100,3,1985/1/1,Elements of Argument: A Text and Reader,,16,38,32,9,5,3.51,,Paperback,,0,0,Annette T. Rottenberg,,,,,,110,10,11,"classics,college,language,non-fiction,philosophy,reference,research,school,textbooks,writing"
15160501,8497050282,Ojo del Mar,9788497050289,,,,ES,,,,false,1,15160501,0,0,0,0,,,,0,0,0,0,0,0.00,,,,0,0,Carlos Varona Narvión,,,,,,,0,,
15161001,8497320824,Introduccion Al SQL Para Usuarios y Programadores,9788497320825,,,,ES,,,,false,1,15161001,2,0,0,0,,,book,0,0,0,0,0,0.00,,,,0,0,Rivero,,,,,,1,0,,
15161501,8497402030,"Producciones Garcia, S.A",9788497402033,,,,ES,,,,false,2,15161504,2,0,0,0,,,,0,0,0,0,0,0.00,,,,0,0,Edgar Neville,,,,,,2,0,,
15162001,0091092310,Readings in the Theory of Educational Systems,9780091092313,,,,ES,1971/1/1,Hutchinson Radius,,false,2,15162001,2,0,0,0,1971/1/1,,book,0,0,0,0,0,0.00,336,Paperback,,0,0,Earl Hopper,,,,,,2,0,,
15162501,849767703X,Estatuto de Los Trabajadores,9788497677035,,,,ES,,,,false,4,15162501,0,0,0,0,1980/1/1,,,0,0,0,0,0,0.00,,,,0,0,Spain,,,,,,,0,,
15163001,849779981X,La Classe de Ballet: Els Meus Mestres,9788497799812,,,,ES,,,,false,1,15163001,0,0,0,0,,,,0,0,0,0,0,0.00,,,,0,0,Carme Calvet I. Barbal,,,,,,,0,,
15163501,0700701338,City of South Asia,9780700701339,,,,ES,,,,false,1,15163501,0,0,0,0,,,,0,0,0,0,0,0.00,,,,0,0,,,,Ballhatchett,,,,0,,
15164001,0312180209,News Reporting & Writing--Instructor's Manual,9780312180201,,,,ES,1999/3/1,St. Martin's Press,,false,2,15164001,0,0,0,0,1999/3/1,,book,0,0,0,0,0,0.00,138,Paperback,6th Edition,0,0,Missouri Group,,,Brian S. Brooks,,,,0,,
15164501,8498302463,Un Individualismo Placentero y Protegido: Cuarta Encuesta Europea de Valores En Su Aplicacion a Espana,9788498302462,,,,ES,,,,false,1,15164501,0,0,0,0,,,,0,0,0,0,0,0.00,,,,0,0,Javier Elzo,,,,,,,0,,
15165001,849860429X,Tools for Linguistic Variation,9788498604290,,,,ES,,,,false,1,15165001,0,0,0,0,,,,0,0,0,0,0,0.00,,,,0,0,Universidad del Pa Is Vasco,,,,,,,0,,
15165501,8498957427,"Amor: Poesía Reunida, 1988-2010",9788498957426,,,,ES,,,,false,1,15165501,24,70,18,2,,,book,5,8,3,2,0,3.89,,,,18,2,Manuel Vilas Vidal,,,,,,5,0,,poetry
15166001,0503020907,Pis'ma Iz Parizha,9780503020903,,,,ES,1998/1/1,Azerbaidzhanskoe Gos. Izd-Vo,,false,1,15166001,0,0,0,0,1998/1/1,,,0,0,0,0,0,0.00,111,Unknown Binding,,0,0,A.A. Topchubashov,,,,,,,0,,
15166501,070280438X,"Britain, the Tourist Route Map: 1:570 240, 9 Miles to 1 Inch: Motorways and Service Areas, Scenic Areas and Places of Popular Interest, Town Plans, Toll Bridges, Car-Ferries, Airports, Tunnels, Etc., in English/Francais, Deutsch",9780702804380,,,,ES,1981/1/1,John Bartholomew & Son,,false,2,15432834,0,0,0,0,1981/1/1,,,0,0,0,0,0,0.00,,Hardcover,,0,0,Bartholomew,,,,,,,0,,
15167001,0704322641,The Adventures of Chatrat,9780704322646,,,,ES,1980/1/1,Quartet Books (UK),,false,1,15167001,0,0,0,0,1980/1/1,,,0,0,0,0,0,0.00,48,Unknown Binding,,0,0,Venetia Spicer,,,,,,,0,,
15167501,0120206803,Advances in Heterocyclic Chemistry,9780120206803,,,,ES,,,,false,22,24049822,1,0,0,0,1975/1/1,,book,0,0,0,0,0,0.00,,,,0,0,,,,Alan R. Katritzky,,,1,0,,
15168001,8520321623,"A Reconstruc~ao Do Direito Privado: Reflexos DOS Principios, Diretrizes E Direitos Fundamentais Constitucionais No Direito Privado",9788520321621,,,,ES,,,,false,1,15168001,1,0,0,0,,,,0,0,0,0,0,0.00,,,,0,0,Judith Martins-Costa,,,,,,,0,,
15168501,8520331580,As Nulidades No Processo Penal,9788520331583,,,,ES,,,,false,3,5368526,7,8,2,0,,As Nulidades No Processo Penal,,1,0,1,0,0,4.00,,,,0,0,Ada Pellegrini Grinover,,,,,,3,0,,
15169001,0706929233,Loose Ends,9780706929232,,,,ES,,,,false,1,15169001,0,0,0,0,,,,0,0,0,0,0,0.00,,,,0,0,Som P. Ranchan,,,,,,,0,,
15169501,0312456344,A World of Idea [with Easy Writer e3 & Comment Everyday Writer 3e],9780312456344,,,,ES,,,,false,2,52065,1473,1302,324,20,1893/1/1,A World of Ideas: Essential Readings for College Writers,book,137,97,60,19,11,4.02,,,Seventh Edition,0,0,"Andrea A. Lunsford,Lee A. Jacobus,Walter Creed",,,,,,744,9,60,"business,classic-literature,essays,high-school,history,literary-fiction,literature,non-fiction,philosophy,poetry,politics,psychology,reference,religion,school,science,sociology,textbooks,writing"
15170001,852503522X,"Uma Saga Amazonica, Atraves Da Minisserie Mad Maria",9788525035226,,,,ES,,,,false,1,15170001,0,0,0,0,,,,0,0,0,0,0,0.00,,,,0,0,Marleine Cohen,,,,,,,0,,
15170501,0708904394,Footsteps in the Park,9780708904398,,,,ES,1980/12/1,Ulverscroft,,false,5,15170501,10,10,3,1,1980/12/1,,,1,0,1,1,0,3.33,,Hardcover,Large Print,2,1,Marie Joseph,,,,,,4,0,,
15171001,8532701612,"A Coroa Do Mundo: Religao, Territorio E Territorialidade Chiquitano",9788532701619,,,,ES,,,,false,1,15171001,1,4,1,0,,,,0,1,0,0,0,4.00,,,,1,0,Jose Eduardo F. Mor Costa,,,,,,,0,,
15171501,0122847806,The Development of Mathematical Thinking,9780122847806,,,,ES,1983/1/1,Academic Press,,false,1,15171501,3,0,0,0,1983/1/1,,,0,0,0,0,0,0.00,388,Unknown Binding,,0,0,,,Herbert P. Ginsburg,,,,2,1,,
15172001,8536117044,Execucao No Processo Do Trabalho,9788536117041,,,,ES,2011/1/1,Ltr 75,,false,1,15172001,0,0,0,0,2011/1/1,,,0,0,0,0,0,0.00,555,Hardcover,,0,0,Manoel Antonio Teixeira Filho,,,,,,,0,,
15172501,0708918611,Signpost to Romance,9780708918616,,,,ES,1988/9/1,Ulverscroft,,false,1,15172501,0,0,0,0,1988/9/1,,,0,0,0,0,0,0.00,280,Hardcover,Large Print,0,0,Mandy Brown,,,,,,,0,,
15173001,070892185X,Seeds of Violence,9780708921852,,,,ES,1989/11/1,Ulverscroft,,false,1,15173001,1,0,0,0,1989/11/1,,,0,0,0,0,0,0.00,351,Hardcover,Large Print,0,0,Miriam Sharman,,,,,,,0,,
15173501,8561914033,A Cidade E a Rosa,9788561914035,,,,ES,,,,false,1,15173501,0,0,0,0,,,,0,0,0,0,0,0.00,,,,0,0,Paulo Von Poser,,,,,,,0,,
15174001,0124673023,Advances in Food Producing Systems for Arid and Semiarid Lands,9780124673021,,,,ES,,,,false,2,15174001,0,0,0,0,1981/3/1,,,0,0,0,0,0,0.00,,,,0,0,Jamal T. Manassah,,,,,,,0,,
15174501,0708937675,Race for Love,9780708937679,,,,ES,1997/7/1,Ulverscroft,,false,1,15174501,0,0,0,0,1997/7/1,,,0,0,0,0,0,0.00,544,Hardcover,Large Print,0,0,Shirley S.   Allen,,,,,,,0,,
15175001,0125440553,"Gallium Nitride, Two Volume Set",9780125440554,,,,ES,2000/1/1,Academic Press,,false,1,15175001,2,5,1,0,2000/1/1,,,1,0,0,0,0,5.00,2,Hardcover,,1,0,,,,"Jacques I. Pankove,Theodore D. Moustakas",,,1,0,,
15175501,0125825501,The Physical Chemistry of Dye Adsorption,9780125825504,,,,ES,,,,false,1,15175501,1,0,0,0,,,,0,0,0,0,0,0.00,,,,0,0,I. D. Rattee,,,,,,1,0,,
15176001,070895670X,Murder Included,9780708956700,,,,ES,2000/2/1,Ulverscroft,,false,8,13453869,336,349,100,12,1950/1/1,,book,20,30,35,9,6,3.49,344,Paperback,Large Print,0,0,Joanna Cannan,,,,,,97,3,92,"british-literature,cozy-mystery,fiction,mystery,mystery-thriller,suspense"
15176501,0126412804,Water Quality Management Under Conditions of Scarcity: Israel as a Case Study,9780126412802,,,,ES,1980/1/1,Academic Press,,false,2,15176501,0,0,0,0,1980/1/1,,,0,0,0,0,0,0.00,,Unknown Binding,,0,0,,,Hillel I. Shuval,,,,,0,,
15177001,0708963625,The Heat of the Sun,9780708963623,,,,ES,1987/4/1,Ulverscroft,,false,2,15177001,1,0,0,0,1987/4/1,,,0,0,0,0,0,0.00,300,Paperback,Large Print,0,0,Maisie Birmingham,,,,,,1,0,,crime
15177501,0312968477,Terry Johnston Mixed Boxed Set #1,9780312968472,,,,ES,,,,false,1,15177501,5,5,1,0,,,,1,0,0,0,0,5.00,,,,1,0,Terry C. Johnston,,,,,,3,0,,
15178001,0516956175,Butterflies and Moths -Op/26,9780516956176,,,,ES,,,,false,1,15178001,0,0,0,0,,,,0,0,0,0,0,0.00,,,,0,0,Children's Press,,,,,,,0,,
15178501,8576040530,Dissoluc~ao Parcial de Sociedades Limitadas,9788576040538,,,,ES,2004/1/1,Mandamentos Editora,,false,1,15178501,0,0,0,0,2004/1/1,,,0,0,0,0,0,0.00,541,Hardcover,,0,0,Celso Barbi Filho,,,,,,,0,,
15179001,0130160075,Engineering Design Graphics: AutoCAD 2000,9780130160072,,,,ES,1999/9/1,Addison Wesley Longman,,false,1,15179001,2,4,1,0,1999/9/1,,,0,1,0,0,0,4.00,701,Hardcover,,1,0,James H. Earle,,,,,,1,0,,
15179501,0708979793,Kingdom of Darkness,9780708979792,,,,ES,1996/12/1,Ulverscroft,,false,1,15179501,0,0,0,0,1996/12/1,,,0,0,0,0,0,0.00,400,Paperback,Large Print,0,0,Charles Leader,,,,,,,0,,
15180001,0130283908,The American Political Experience: Learning Guide,9780130283900,,,,ES,,,,false,1,15180001,0,0,0,0,,,,0,0,0,0,0,0.00,,,,0,0,David V. Edwards,,,,,,,0,,
15180501,8587226924,Cuiabaa: Imagens Da Cidade: DOS Primeiros Registros AA Daecada de 60,9788587226921,,,,ES,,,,false,1,15180501,0,0,0,0,,,,0,0,0,0,0,0.00,,,,0,0,Maria Auxiliadora De Freitas,,,,,,,0,,
15181001,8588747200,Auto-Retrato Do Brasil,9788588747203,,,,ES,,,,false,1,15181001,0,0,0,0,,,,0,0,0,0,0,0.00,,,,0,0,Marcio Rebello,,,,,,,0,,
15181501,8590759407,Luiz Gonzaga: Suas Cancoes E Seguidores,9788590759409,,,,ES,,,,false,1,15181501,0,0,0,0,,,,0,0,0,0,0,0.00,,,,0,0,Luiz Gonzaga,,,,,,,0,,
15182001,0709908237,Organising Learning in the Primary School Classroom,9780709908234,,,,ES,1983/1/1,Croom Helm,,false,19,17506476,12,27,7,0,1983/1/1,,,2,3,1,1,0,3.86,232,Unknown Binding,,0,0,Joan Dean,,,,,,4,0,,non-fiction
15182501,0130841153,Concepts in Systems and Signals,9780130841155,,,,ES,2000/5/16,Prentice Hall,,false,2,9157564,4,10,3,0,2000/5/16,,,0,1,2,0,0,3.33,374,Hardcover,,0,0,John D. Sherrick,,,,,,,0,,textbooks
15183501,8880297732,Naples,9788880297734,,,,ES,,,,false,1,15183501,0,0,0,0,,,,0,0,0,0,0,0.00,,,,0,0,Bonechi Books,,,,,,,0,,
15184001,0131197398,Tait Essentials 2003 V2.3 Valuepack Onekey Package,9780131197398,,,,ES,,,,false,1,15184001,0,0,0,0,,,,0,0,0,0,0,0.00,,,,0,0,Infosource,,,,,,,0,,
15184501,9004226834,Dispensing Justice in Islam: Qadis and Their Judgements,9789004226838,,,,ES,2012/2/23,Brill,,false,2,15184501,10,0,0,0,2005/11/1,,,0,0,0,0,0,0.00,594,Paperback,,0,0,,,,"David Powers,Muhammad Khalid Masud,Rudolph Peters",,,8,1,,religion
15185001,0131527371,"Commercial-Investment Real Estate: Policies and Procedures, Book Two",9780131527379,,,,ES,1983/6/1,Prentice Hall,,false,1,15185001,1,5,1,0,1983/6/1,,,1,0,0,0,0,5.00,,Paperback,,1,0,Lee Arnold,,,,,,,0,,
15185501,,Kansai Airport (Otani Akihito Cover Art Version),9781476246970,,,,ES,2012/5/1,Landfill Publishing,eng,true,4,13556013,8,13,3,0,2012/1/1,Kansai Airport,book,2,0,1,0,0,4.33,,ebook,,0,0,Patrik Sampler,,,,,,3,0,,
15186001,0316547646,Banking Law & Regulation V3,9780316547642,,,,ES,1995/12/31,Aspen Publishers,,false,2,15186001,0,0,0,0,,,,0,0,0,0,0,0.00,3,Loose-Leaf,,0,0,Michael P. Malloy,,,,,,,0,,
15186501,0316638218,Corporations & Other Bus Tchr Mnl,9780316638210,,,,ES,,,,false,1,15186501,0,0,0,0,,,,0,0,0,0,0,0.00,,,,0,0,O'Kelley,,,,,,,0,,
15187001,9031905690,Coleopterorum Catalo Gus 99,9789031905690,,,,ES,1928/1/6,Springer,,false,1,15187001,0,0,0,0,,,,0,0,0,0,0,0.00,,Paperback,,0,0,,,,S. Schenkling,,,,0,,
15187501,9041121641,Human Rights & Criminal Justice for the Downtrodden,9789041121646,,,,ES,,,,false,2,5724858,0,0,0,0,2003/1/1,Human Rights and Criminal Justice for the Downtrodden: Essays in Honour of Asbjorn Eide,,0,0,0,0,0,0.00,,,,0,0,Morten Bergsmo,,,,,,,0,,
15188001,0132348853,Student Study Pack for Elementary and Intermediate Algebra for College Students,9780132348850,,,,ES,2007/8/1,Prentice Hall,,false,1,15188001,0,0,0,0,2007/8/1,,,0,0,0,0,0,0.00,,Paperback,,0,0,"Allen R. Angel,K. Elayn Martin-Gay",,,,,,,0,,
15188501,0317312847,Homonyms,9780317312843,,,,ES,1987/12/1,Baseball America,,false,1,15188501,0,0,0,0,1987/12/1,,,0,0,0,0,0,0.00,32,Paperback,,0,0,Joan Hanson,,,,,,,0,,
15189001,0132773015,The Energy Crisis: What Are Our Choices?,9780132773010,,,,ES,1976/1/1,Prentice Hall,,false,2,15189003,0,0,0,0,1976/1/1,,,0,0,0,0,0,0.00,126,Unknown Binding,,0,0,,,Joanne Buggey,,,,,0,,
15189501,0713442654,Space Exploitation,9780713442656,,,,ES,,,,false,1,15189501,0,0,0,0,,,,0,0,0,0,0,0.00,,,,0,0,Tim Furniss,,,,,,,0,,
15190001,0318558408,American Literature: The Makers and the Making,9780318558400,,,,ES,,,,false,5,1371729,8,10,2,0,1973/7/1,American Literature: The Makers and the Making,,2,0,0,0,0,5.00,,,,0,0,"Cleanth Brooks,R.W. Lewis,Robert Penn Warren",,,,,,5,1,,"non-fiction,reference"
15190501,0318656604,Jane Eyre,9780318656601,,,,ES,1990/10/1,National Association for Visually Handicapped,,false,3561,10210,2147704,5848676,1422223,35857,1847/10/16,Jane Eyre,book,642991,441586,230213,69305,38128,4.11,,Hardcover,Large Print,0,0,Charlotte Brontë,,,,,,548070,4131,42246,"adult,adult-fiction,british-literature,chick-lit,classic-literature,classics,drama,english-literature,feminism,fiction,gothic,high-school,historical,historical-fiction,literary-fiction,literature,love,mystery,novels,romance,school,victorian,young-adult"
15191001,0520047621,Land and Life: A Selection from the Writings of Carl Ortwin Sauer,9780520047624,,,,ES,1982/1/1,University of California Press,,false,3,367358,35,53,13,1,1982/1/1,Land and Life : A Selection from the Writings of Carl Ortwin Sauer,,4,6,3,0,0,4.08,441,Hardcover,,2,0,Carl O. Sauer,,,John Leighly,,,14,0,1,
15191501,904817306X,"Interactions: Mathematics, Physics and Philosophy, 1860-1930",9789048173068,,,,ES,2010/11/22,Springer,,false,3,3422929,5,4,1,0,2006/1/1,"Interactions: Mathematics, Physics and Philosophy, 1860-1930 (Boston Studies in the Philosophy of Science)",,0,1,0,0,0,4.00,338,Paperback,,0,0,,,,"Jesper Lutzen,Klaus F. Jorgensen,Vincent F. Hendricks",,,3,0,,
15192001,9052010544,Diversite Et Identites Au Quebec Et Dans Les Regions D Europe,9789052010540,,,,ES,2006/3/27,"P.I.E-Peter Lang S.A., Editions Scientifiques Internationales",,false,1,15192001,0,0,0,0,2006/3/27,,,0,0,0,0,0,0.00,417,Paperback,,0,0,,,,Jacques Palard,,,,0,,
15192501,0321025261,"Sources of World History, Volume 1",9780321025265,,,,ES,,,,false,4,3888142,8,12,5,0,1995/7/1,"Sources in World History, Volume I",,0,1,2,0,2,2.40,,,,0,0,Mark A. Kishlansky,,,,,,4,3,,"history,non-fiction"
15193001,0321067312,The Penguin Handbook,9780321067319,,,,ES,2002/12/19,Longman Publishing Group,,false,25,110592,29,39,11,1,2002/12/19,The Penguin Handbook ,book,5,2,1,0,3,3.55,608,Paperback,,0,0,Lester Faigley,,,,,,10,0,2,"college,non-fiction,reference,writing"
15193501,0134870751,Introduction to Management Accounting,9780134870755,,,,ES,1989/11/1,Prentice Hall,,false,35,1695952,1707,729,187,9,1981/1/1,Introduction to Management Accounting,book,82,47,32,9,17,3.90,826,Hardcover,,0,0,"Charles T. Horngren,Gary L. Sundem",,,,,,167,4,76,"academic,business,non-fiction,reference,textbooks"
15194001,0521316650,SMP 11-16 Book BT,9780521316651,,,,ES,1985/6/6,Cambridge University Press,,false,1,15194001,0,0,0,0,1985/6/6,,,0,0,0,0,0,0.00,96,Paperback,,0,0,School Mathematics Project,,,,,,,0,,
15194501,0321407814,Psychology: An Introduction 5e - Test Master Windows,9780321407818,,,,ES,,,,false,1,15194501,0,0,0,0,,,,0,0,0,0,0,0.00,,,,0,0,Josh Gerow,,,,,,,0,,
15195001,9061918324,"Palaeohistoria: Institute of Archaeology, Groningen, the Netherlands",9789061918325,,,,ES,1988/1/1,CRC Press,,false,1,15195001,0,0,0,0,1988/1/1,,,0,0,0,0,0,0.00,160,Hardcover,,0,0,Institute of Archaeology,,,,,,,0,,
15195501,0321653319,Precalculus,9780321653314,,,,ES,2009/7/1,Addison Wesley Longman,,false,1,15195501,0,0,0,0,2009/7/1,,book,0,0,0,0,0,0.00,,Unbound,,0,0,Mark Dugopolski,,,,,,,0,,
15196001,0323007074,Mosby's Textbook/Workbook Package for Long-Term Care Assistants,9780323007078,,,,ES,1999/7/1,Mosby,,false,1,15196001,0,0,0,0,1999/7/1,,,0,0,0,0,0,0.00,,Hardcover,,0,0,"Sheila A. Sorrentino,Sorrentino",,,,,,,0,,
15196501,013600685X,"Exercise Book for Writing Skills, Part 1: New Revised Cambridge GED Program",9780136006855,,,,ES,1995/9/1,Prentice Hall,,false,1,15196501,0,0,0,0,1995/9/1,,,0,0,0,0,0,0.00,,Paperback,,0,0,Cambridge University Press,,,,,,,0,,
15197001,0522839290,"The Rush That Never Ended,: A History of Australian Mining",9780522839296,,,,ES,1969/1/1,Melbourne University,,false,6,921491,45,35,9,4,1969/1/1,The Rush That Never Ended: A History of Australian Mining,book,3,3,2,1,0,3.89,389,Unknown Binding,,0,0,Geoffrey Blainey,,,,,,26,1,3,"business,economics,history,sociology"
15197501,0523405286,"The Hard Way (Adam Steele, #18)",9780523405285,,,,ES,,,,false,3,15197501,12,28,7,0,,The Hard Way,book,2,3,2,0,0,4.00,,,,3,0,George G. Gilman,,,,,,3,0,1,
15198001,9127131424,Kärlekskursen,9789127131422,,,,ES,2011/1/1,,,false,1,15198001,3,4,1,0,2011/1/1,Kärlekskursen,book,0,1,0,0,0,4.00,,,,1,0,Anita Goldman,,,,,,1,0,,realistic-fiction
15198501,0324141939,Texas Real Estate Law,9780324141931,,,,ES,2001/5/19,International Thomson Publishing Services,,false,1,15198501,0,0,0,0,2001/5/19,,,0,0,0,0,0,0.00,,Hardcover,,0,0,Charles Jacobus,,,,,,,0,,
15199001,0525248501,"Life Is Real Only Then, When I Am",9780525248507,,,,ES,,Dutton Books,,false,25,455880,1659,2059,494,19,1975/1/1,"Life Is Real Only Then, When I Am (All and Everything Series, 3)",book,241,143,73,26,11,4.17,,Hardcover,,0,0,,,G.I. Gurdjieff,,,,1009,8,47,"non-fiction,philosophy,psychology,religion,spirituality"
15199501,917329103X,Svenska Armaens Uniformer 1875-2000,9789173291033,,,,ES,,,,false,1,15199501,1,0,0,0,,,,0,0,0,0,0,0.00,,,,0,0,Simon Olsson,,,,,,1,0,,
15200001,0525447261,Dinostory,9780525447269,,,,ES,1991/9/5,Dutton Books,,false,2,15200001,1,3,1,0,1991/9/5,,,0,0,1,0,0,3.00,32,Hardcover,,1,0,Michaela Morgan,True Kelley,,,,,,0,,"childrens,fiction"
15200501,0718025520,NKJV Giant Print Center-Column Reference Bible,9780718025526,,,,ES,2008/9/1,Thomas Nelson Publishers,,false,963,2284803,14115,31614,7199,484,1901/1/1,,book,5193,734,562,317,393,4.39,1824,Hardcover,Large Print,0,0,Anonymous,,,,,,2230,37,3063,"christian,christianity,classics,education,faith,fantasy,fiction,historical,history,inspirational,literature,mythology,non-fiction,philosophy,poetry,reference,religion,research,spirituality,theology"
15201001,9188348350,Crucifixion in Antiquity: An Inquiry Into the Background of the New Testament Terminology of Crucifixion,9789188348357,,,,ES,,,,false,5,15201001,5,5,1,0,2011/8/9,,,1,0,0,0,0,5.00,,,,0,0,Gunnar Samuelsson,,,,,,3,0,,
15201501,9210611721,International Trade STATS Year Book 1996 2v,9789210611725,,,,ES,1998/12/1,Routledge,,false,1,15201501,0,0,0,0,1998/12/1,,,0,0,0,0,0,0.00,1452,Hardcover,,0,0,Un,,,,,,,0,,
15202001,0719027187,Cymbeline,9780719027185,,,,ES,1989/1/1,Manchester University Press,,false,2,15202001,3,4,1,1,1989/1/1,,,0,1,0,0,0,4.00,132,Unknown Binding,,1,1,Roger Warren,,,,,,,0,,
15202501,0525672605,If You Lived on Mars,9780525672609,,,,ES,1989/8/31,Dutton Books for Young Readers,,false,1,15202501,2,3,1,1,1989/8/31,,,0,0,1,0,0,3.00,,Paperback,,1,1,Melvin A. Berger,,,,,,,0,,science
15203001,0138985855,Technician's Guide to Solid-State Electronics,9780138985851,,,,ES,,,,false,1,15203001,0,0,0,0,,,,0,0,0,0,0,0.00,,,,0,0,Morris Grossman,,,,,,,0,,
15203501,9223186358,Para Que Sirve El Salario Minimo?: Elementos Para Su Determinacion En Los Paises del Cono Sur,9789223186357,,,,ES,,,,false,1,15203501,0,0,0,0,,,,0,0,0,0,0,0.00,,,,0,0,International Labour Office,,,,,,,0,,
15204001,0527005029,Historical Jottings on Amber in Asia,9780527005023,,,,ES,,,,false,1,15204001,0,0,0,0,,,,0,0,0,0,0,0.00,,,,0,0,Berthold Laufer,,,,,,,0,,
15204501,0333760476,Peace at Last Big Book,9780333760475,,,,ES,2009/8/7,MacMillan UK,,false,31,1032479,4870,16814,3936,152,1980/1/1,Peace at Last,book,2065,1061,656,123,31,4.27,32,Paperback,,0,0,Jill Murphy,,,,,,581,18,15,"animals,childrens,family,fiction,funny,language,picture-books"
15205001,0333948033,New World of Power,9780333948033,,,,ES,1957/8/13,Palgrave MacMillan,,false,1,15205001,0,0,0,0,1957/8/13,,,0,0,0,0,0,0.00,300,Hardcover,,0,0,"Bengt Jarlsjo,Shannon Burchett",,,,,,,0,,
15205501,926312731X,Guide on Meteorological Observing and Information Distribution Systems for Aviation Weather Services,9789263127310,,,,ES,,,,false,1,15205501,0,0,0,0,,,,0,0,0,0,0,0.00,,,,0,0,World Meteorological Organization,,,,,,,0,,
15206001,0721452604,Jonah,9780721452609,,,,ES,,,,false,1,15206001,1,0,0,0,,,,0,0,0,0,0,0.00,,,,0,0,Fern Howard,,,,,,,0,,
15206501,0529067412,Story of Christmas,9780529067418,,,,ES,1990/9/1,Meridian Books,,false,2,15206512,1,0,0,0,1990/9/1,,,0,0,0,0,0,0.00,,Paperback,,0,0,World,,,,,,1,0,,
15207001,9279050435,Measuring Progress Towards a More Sustainable Europe,9789279050435,,,,ES,,,,false,1,15207001,0,0,0,0,,,,0,0,0,0,0,0.00,,,,0,0,European Commission,,,,,,,0,,
15207501,0721640788,Current Pediatric Therapy Nine,9780721640785,,,,ES,,,,false,1,15207501,39,0,0,0,,,,0,0,0,0,0,0.00,,,,0,0,"Benjamin M. Kagan,Sydney Saul Gellis",,,,,,16,0,11,
15208001,0721654576,"Emergency Radiology of the Shoulder, Arm, and Hand",9780721654577,,,,ES,,,,false,1,15208001,0,0,0,0,,,,0,0,0,0,0,0.00,,,,0,0,Sandra G. Kirchner,,,,,,,0,,
15208501,9289461810,Economic Policy-Making in the European Union: Proceedings of the First Four Meetings of the Group of Economic Analysis,9789289461818,,,,ES,,,,false,1,15208501,1,0,0,0,,,,0,0,0,0,0,0.00,,,,0,0,André Sapir,,,,,,1,0,,
15209001,0340731133,Cultural Landscapes and Environmental Change,9780340731130,,,,ES,2000/10/31,Routledge,,false,3,15209001,0,0,0,0,2000/10/31,,,0,0,0,0,0,0.00,208,Hardcover,,0,0,Lesley Head,,,,,,,0,,
15209501,9380177623,Strategies for Countering: Non-State Actors in South Asia,9789380177625,,,,ES,2011/11/1,Vij Books India,,false,2,15209501,3,0,0,0,2011/8/8,,,0,0,0,0,0,0.00,180,Hardcover,,0,0,,,,P.J.S. Sandhu,,,1,0,,
15210001,9460335594,Yo Fun to Play Learn Learn Tell Time,9789460335594,,,,ES,,,,false,1,15210001,0,0,0,0,,,,0,0,0,0,0,0.00,,,,0,0,Unknown,,,,,,,0,,
15210501,0142429171,The Spymasters: A Men at War Novel,9780142429174,,,,ES,2012/8/7,Penguin Audio,,false,15,9534404,2232,4878,1211,56,2012/8/7,The Spymasters,book,454,427,256,58,16,4.03,,Audio CD,Unabridged,0,0,"W.E.B. Griffin,William E. Butterworth IV",,,,,,556,6,78,"fiction,historical-fiction,history,mystery,thriller,war"
15211001,9500732823,"Magia, Brujeria y Cultura Popular: de La Colonia Al Siglo XX",9789500732826,,,,ES,,,,false,1,15211001,3,3,1,1,,,,0,0,1,0,0,3.00,,,,1,1,Judith Farberman,,,,,,2,0,,
15211501,0345291093,Satisfaction,9780345291097,,,,ES,,Ballantine Books,,false,1,15211501,0,0,0,0,,,,0,0,0,0,0,0.00,,Paperback,,0,0,D. Davis,,,,,,,0,,
15212001,0723408556,Geriatric Medicine,9780723408550,,,,ES,1986/10/1,Wolfe Publishing (SC),,false,1,15212001,0,0,0,0,1986/10/1,,book,0,0,0,0,0,0.00,80,Hardcover,,0,0,K.M. Kafetz,,,,,,,0,,
15213001,072367017X,The Developing Human Brain: Growth and Epidemiologic Neuropathology,9780723670179,,,,ES,1983/7/31,J. Wright Psg Inc.,,false,2,21477154,0,0,0,0,1983/1/1,,,0,0,0,0,0,0.00,349,Hardcover,,0,0,,,F.H. Gilles,,,,,0,,
15213501,0724467475,A Bibliography and Research Inventory of Vertebrate Fauna in Western Australia,9780724467471,,,,ES,1984/1/1,National Gallery of Victoria,,false,1,15213501,0,0,0,0,1984/1/1,,,0,0,0,0,0,0.00,157,Paperback,,0,0,Diane Daze,,,,,,,0,,
15214001,0726152943,"Goolwa, Port Elliot, Middleton",9780726152948,,,,ES,1978/1/1,Universal Business Directories,,false,1,15214001,0,0,0,0,1978/1/1,,,0,0,0,0,0,0.00,,Unknown Binding,,0,0,Universal Business Directories Pty Ltd,,,,,,,0,,
15214501,0345409590,The Culture of Shame,9780345409591,,,,ES,,,,false,1,15214501,1,3,1,0,,,,0,0,1,0,0,3.00,,,,1,0,Andrew Morrison,,,,,,,0,,
15215001,053308928X,The Ninth Evac: Experiences in a World War II Tent Hospital in North Africa & Europe,9780533089284,,,,ES,,,,false,1,15215001,1,5,1,0,,,,1,0,0,0,0,5.00,,,,1,0,Charles F. Stewart,,,,,,,0,,
15215501,9507413057,"Actuacion del Abogado En Una Causa Judicial: El Ciclo Procedimental: Que Hacer Frente a Las Situaciones Usuales del Procedimiento, Como Hacerlo",9789507413056,,,,ES,,,,false,1,15215501,0,0,0,0,,,,0,0,0,0,0,0.00,,,,0,0,Eduardo A. Diaz,,,,,,,0,,
15216001,9507865969,Funcionarios de Dios y de La Republica: Clero y Politica En La Experiencia de Las Autonomias Provinciales,9789507865961,,,,ES,,,,false,1,15216001,1,0,0,0,,,,0,0,0,0,0,0.00,,,,0,0,Valentina Ayrolo,,,,,,1,0,,
15216501,9508433264,Tiovivo En El Espejo,9789508433268,,,,ES,,,,false,1,15216501,0,0,0,0,,,,0,0,0,0,0,0.00,,,,0,0,Tomas Alva Negri,,,,,,,0,,
15217001,9508922737,Participación Social - ¿Para qué?,9789508922731,,,,ES,2006/12/1,Lugar Editorial,,false,1,15217001,1,0,0,0,2006/12/1,,book,0,0,0,0,0,0.00,,Paperback,,0,0,"Eduardo L. Menéndez,Hugo Spinelli",,,,,,,0,,
15217501,0534060617,Calculus Illustrated: Workbook /Diskette,9780534060619,,,,ES,,,,false,1,15217501,0,0,0,0,,,,0,0,0,0,0,0.00,,,,0,0,Lee T. Hill,,,,,,,0,,
15218001,0534133622,Teaching Elementary School Math,9780534133627,,,,ES,2000/10/1,,,false,1,15218001,0,0,0,0,2000/10/1,,book,0,0,0,0,0,0.00,,,,0,0,William A. Juraschek,,,,,,,0,,
15218501,9561017288,Subcontratacion: Regimen Juridico del Trabajo Subcontratado y del Suministro de Personal,9789561017283,,,,ES,,,,false,1,15218501,0,0,0,0,,,,0,0,0,0,0,0.00,,,,0,0,Claudio Palavecino,,,,,,,0,,
15219001,0155605682,Modern College Typewriting: A Complete Course,9780155605688,,,,ES,,,,false,2,14811391,0,0,0,0,,,book,0,0,0,0,0,0.00,,,,0,0,Leonard J. West,,,,,,,0,,
15219501,0155947109,Value & Obligation: Systematic Readings in Ethics,9780155947108,,,,ES,,,,false,1,15219501,1,0,0,0,,,,0,0,0,0,0,0.00,,,,0,0,Richard B. Brandt,,,,,,1,0,,
15220001,0156022494,1994 Essentials (W/Cpe)+,9780156022491,,,,ES,,,,false,1,15220001,0,0,0,0,,,,0,0,0,0,0,0.00,,,,0,0,"Charles H. Duncan,William A. Duncan",,,,,,,0,,
15220501,0534533264,How It's Done: Invitation to Social Research,9780534533267,,,,ES,,,,false,1,15220501,1,0,0,0,,,book,0,0,0,0,0,0.00,,,,0,0,Frederick R. Adler,,,,,,,0,,
15221001,9580204918,Huasipungo,9789580204916,,,,ES,,,,false,1,15221001,3,0,0,0,,,,0,0,0,0,0,0.00,,,,0,0,,,,,,,3,0,,
15221501,9580611424,Los Vascos En Las Independencias Americanas,9789580611424,,,,ES,,,,false,1,15221501,0,0,0,0,,,,0,0,0,0,0,0.00,,,,0,0,Fundaci on Centro Vasco,,,,,,,0,,
15222501,9583015792,Fidelidad,9789583015793,,,,ES,2003/10/1,Panamericana Editorial,,false,1,15222501,0,0,0,0,2003/10/1,,,0,0,0,0,0,0.00,96,Hardcover,,0,0,,,,,,,,0,,
15223001,0735558256,Casenote Legal Briefs: Bankruptcy Keyed to Warren and Westbrook,9780735558250,,,,ES,2006/3/6,Aspen Publishers,,false,2,15221611,0,0,0,0,2002/9/4,,,0,0,0,0,0,0.00,160,Paperback,,0,0,Casenote Legal Briefs,,,,,,,0,,
15223501,9586533530,Codigo de Comercio,9789586533539,,,,ES,2003/1/1,Legis,,false,3,15223593,0,0,0,0,2003/1/1,,,0,0,0,0,0,0.00,928,Hardcover,,0,0,Colombia,,,,,,,0,,
15224001,9586909662,Mecanismos de Proteccion y Participacion de La Mujer,9789586909662,,,,ES,,,,false,1,15224001,0,0,0,0,,,,0,0,0,0,0,0.00,,,,0,0,"Colombia,Maria Cristina Escudero Alzate",,,,,,,0,,
15224501,9587095901,Confesiones de Una Puta Cara,9789587095906,,,,ES,,,,false,2,3151174,83,74,21,2,2008/2/8,Confesiones de una Puta Cara,,5,6,5,5,0,3.52,,,,0,0,Francisco Celis Alban,,,,,,56,0,2,fiction
15225001,0192624881,Caring for a Dying Relative: A Guide for Families,9780192624888,,,,ES,1994/9/30,"Oxford University Press, USA",,false,2,4191140,1,3,1,0,1994/9/30,Caring for A Dying Relative: A Guide for Families,,0,0,1,0,0,3.00,106,Hardcover,,0,0,Derek Doyle,,,,,,,0,,
15226001,0375755276,Chronicles of Courage,9780375755279,,,,ES,,,,false,3,1909300,32,33,8,0,1993/4/6,Chronicles of Courage: Very Special Artists,,1,7,0,0,0,4.12,,,,0,0,Jean Kennedy Smith,,,,,,21,0,1,"anthologies,art,non-fiction"
15226501,0375902007,Daytime,9780375902000,,,,ES,,,,false,2,15226098,2,0,0,0,,,book,0,0,0,0,0,0.00,,,,0,0,Catherine Clark,,,,,,2,0,,
15227001,9590612024,El Libro Primero de Los Gazapos,9789590612022,,,,ES,,,,false,1,15227001,0,0,0,0,,,,0,0,0,0,0,0.00,,,,0,0,Fernando Carr Paruas,,,,,,,0,,
15227501,0376068469,Washington,9780376068460,,,,ES,,,,false,2,4619755,2,3,1,0,1987/5/1,Washington Travel Guide,,0,0,1,0,0,3.00,,,,0,0,Sunset Magazines & Books,,,,,,1,0,,travel
15228001,0379005999,New York Convention,9780379005998,,,,ES,1978/1/1,Oceana Publications,,false,1,15228001,0,0,0,0,1978/1/1,,,0,0,0,0,0,0.00,4,Unknown Binding,,0,0,,,Giorgio Gaja,,,,,0,,
15228501,019434178X,Open Sesame: Oscar's Bridge to Reading Book: Cassettes,9780194341783,,,,ES,1985/8/1,"Oxford University Press, USA",,false,1,15228501,0,0,0,0,1985/8/1,,book,0,0,0,0,0,0.00,,Audio,,0,0,"Carol Cellman,Katrin Tiitsman,Maureen Harris",,,,,,,0,,
15229001,0737731710,Depression (Understanding Diseases and Disorders),9780737731712,,,,ES,2006/3/31,KidHaven Press,,false,1,15229001,0,0,0,0,,,book,0,0,0,0,0,0.00,,Hardcover,,0,0,Kris Hirschmann,,,,,,,0,,
15229501,0738362824,Teen Titans: Can't Take a Joke,9780738362823,,,,ES,2005/10/1,Turtleback Books,,false,3,707914,43,45,13,3,2005/11/1,Teen Titans: Can't Take A Joke (Reader #2) (Teen Titans),,2,3,7,1,0,3.46,32,Hardcover,,1,0,"Acton Figueroa,Lee Loughridge",Craig Rousseau,,,,,20,3,,science-fiction
15230001,9681600096,La Literatura Norteamericana En El Siglo XX,9789681600099,,,,ES,,,,false,1,15230001,2,0,0,0,,,,0,0,0,0,0,0.00,,,,0,0,Heinrich Straumann,,,,,,2,0,,
15230501,0195041046,Through Parisian Eyes: Reflections on Contemporary French Arts and Culture,9780195041040,,,,ES,1986/11/6,"Oxford University Press, USA",,false,2,1743202,13,13,3,1,1986/11/6,Through Parisian Eyes: Reflections on Contemporary French Arts and Culture,,1,2,0,0,0,4.33,256,Hardcover,,1,1,Melinda Camber Porter,,,,,,8,0,1,france
15231001,9681611632,Abundancia Para Que?,9789681611637,,,,ES,,,,false,3,1728875,18,0,0,0,1993/1/1,Abundance for What?,book,0,0,0,0,0,0.00,,,,0,0,David Riesman,,,,,,17,0,,social
15232001,0380796880,Lizard People,9780380796885,,,,ES,,,,false,3,4040590,11,11,3,0,1997/11/1,Lizard People (Spinetingler),book,0,2,1,0,0,3.67,,,,0,0,M.T. Coffin,,,,,,5,0,,"fiction,horror"
15232501,0195113195,Cause Lawyering: Political Commitments and Professional Responsibilities,9780195113198,,,,ES,1998/1/8,"Oxford University Press, USA",,false,4,2154083,7,13,4,0,1997/1/8,Cause Lawyering: Political Commitments and Professional Responsibilities (Oxford Socio-Legal Studies),,0,1,3,0,0,3.25,576,Hardcover,,0,0,Stuart A. Scheingold,,,Austin Sarat,,,2,0,,non-fiction
15233001,0740121766,Nebraska Crime in Perspective 2007,9780740121760,,,,ES,2007/5/31,CQ Press,,false,1,15233001,0,0,0,0,2007/5/31,,,0,0,0,0,0,0.00,24,Paperback,,0,0,,,,"Congressional Quarterly,Kathleen O'Leary Morgan",,,,0,,
15233501,0380877260,The Color of Greed,9780380877263,,,,ES,1984/7/1,Avon Books,,false,1,15233501,0,0,0,0,1984/7/1,,,0,0,0,0,0,0.00,176,Paperback,,0,0,Gary Valcour,,,,,,,0,,
15234001,9681636031,"Ciencias Naturales, 2",9789681636036,,,,ES,,,,false,1,15234001,0,0,0,0,,,,0,0,0,0,0,0.00,,,,0,0,Fondo de Cultura Económica,,,,,,,0,,
15234501,0742411281,With God All Things Are Possible,9780742411289,,,,ES,1999/1/30,In Celebration,,false,2,15234501,0,0,0,0,2003/7/28,,,0,0,0,0,0,0.00,18,Loose-Leaf,,0,0,School Specialty Publishing,,,,,,,0,,
15235001,0195212258,Freud & the Americans 2-Vol Set,9780195212259,,,,ES,1997/6/2,"Oxford University Press, USA",,false,1,15235001,0,0,0,0,1997/6/2,,book,0,0,0,0,0,0.00,,Hardcover,,0,0,Nathan G. Hale Jr.,,,,,,,0,,
15235501,9683804381,"Cuauhtemoc, Mas Que Divino = Cuauhtemoc Aztec King",9789683804389,,,,ES,,,,false,1,15235501,0,0,0,0,,,,0,0,0,0,0,0.00,,,,0,0,Romero Giordano,,,,,,,0,,
15236001,0195281659,Scofield Study Bible: Berkshire Leather,9780195281651,,,,ES,1998/9/10,"Oxford University Press, USA",,false,141,18817218,253,530,114,6,1941/12/1,,,91,12,8,0,3,4.65,1760,Hardcover,,0,0,,,,,,,64,0,62,reference
15236501,970074051X,La Suprema Corte de Justicia de La Nacion Como Tribunal Constitucional,9789700740515,,,,ES,,,,false,1,15236501,0,0,0,0,,,,0,0,0,0,0,0.00,,,,0,0,Carlos Mena Adame,,,,,,,0,,
15237001,0743433629,Grand Avenue,9780743433624,,,,ES,,,,false,44,80697,3970,8756,2301,175,2001/1/1,Grand Avenue,book,585,897,640,144,35,3.81,,,,0,0,Joy Fielding,,,,,,867,19,19,"adult,adult-fiction,chick-lit,contemporary,crime,drama,fiction,horror,mystery,novels,romance,suspense,thriller"
15237501,057109967X,Holst,9780571099672,,,,ES,1974/1/1,Faber & Faber,,false,3,2230351,6,22,5,1,1972/12/31,Holst (Great Composers),book,3,1,1,0,0,4.40,96,Hardcover,,1,0,Imogen Holst,,,,,,1,0,,music
15238001,0195615123,Labor-Based Construction Programs: A Practical Guide for Planning and Management,9780195615128,,,,ES,1984/2/16,Oxford University Press,,false,2,15238001,0,0,0,0,1984/2/16,,,0,0,0,0,0,0.00,392,Paperback,,0,0,"Basil Coukis,World Bank Group",,,,,,,0,,
15238501,0385076541,Rosa-Too-Little,9780385076548,,,,ES,1950/1/1,Doubleday Books,,false,1,15238501,17,46,10,1,1950/1/1,,book,6,4,0,0,0,4.60,32,Hardcover,,10,1,Sue Felt Kerr,,,,,,4,1,,picture-books
15239001,0385113544,The Talking Table Mystery,9780385113540,,,,ES,1977/1/1,Doubleday Books,,false,3,492083,6,0,0,0,1977/1/1,The Talking Table Mystery,book,0,0,0,0,0,0.00,140,Unknown Binding,,0,0,Georgess McHargue,,,,,,2,1,,
15239501,0195826345,A Naturalist in Borneo,9780195826340,,,,ES,1987/2/5,"Oxford University Press, USA",,false,9,6558638,7,11,3,0,1916/1/1,A Naturalist in Borneo,,0,2,1,0,0,3.67,392,Paperback,,0,0,Robert Walter Campbell Shelford,,,,,,3,0,,science
15240001,0745118208,Victorian Murders,9780745118208,,,,ES,,,,false,2,5079201,5,0,0,0,1988/11/10,Victorian Murders,,0,0,0,0,0,0.00,,,Large Print,0,0,Roy Harley Lewis,,,,,,4,0,,"crime,history"
15240501,9707225181,"Granjas Porcinas y Medio Ambiente: Contaminacion del Agua En La Piedad, Michoacan",9789707225183,,,,ES,2006/1/1,Plaza Y Valdes,,false,1,15240501,0,0,0,0,,,,0,0,0,0,0,0.00,201,Paperback,,0,0,Rosario Perez Espejo,,,,,,,0,,
15241001,0745138586,The Crimson Palace,9780745138589,,,,ES,1996/1/1,G. K. Hall & Company,,false,11,3002594,112,222,60,9,1996/1/1,The Crimson Palace,book,16,17,21,5,1,3.70,725,Hardcover,Large Print,0,0,Jacqueline Briskin,,,,,,38,5,1,"fiction,literature"
15241501,0198213123,Lives of the Lord Chancellors: Volume I: 1885-1940,9780198213123,,,,ES,1987/9/17,"Oxford University Press, USA",,false,1,15241501,4,4,1,0,1987/9/17,,,0,1,0,0,0,4.00,656,Hardcover,,1,0,R.F.V. Heuston,,,,,,2,0,,
15242001,9764101941,The Brain Train: Quality Higher Education and Caribbean Development,9789764101949,,,,ES,2000/9/5,University of the West Indies Press,,false,1,15242001,1,0,0,0,2000/9/5,,,0,0,0,0,0,0.00,140,Paperback,,0,0,"Anthony Perry,Hilary McD. Beckles,Peter Whiteley",,,,,,1,0,,
15242501,0582223326,A Social and Economic History of Industrial Britain,9780582223325,,,,ES,1986/1/1,Longman Publishing Group,,false,1,15242501,4,0,0,0,1986/1/1,,,0,0,0,0,0,0.00,,Unknown Binding,,0,0,John Robottom,,,,,,3,0,,reference
15243001,0745180388,Star Surgeon,9780745180380,,,,ES,,,,false,1,15243001,0,0,0,0,,,,0,0,0,0,0,0.00,,,Large Print,0,0,Lynne Collings,,,,,,,0,,
15243501,9810228155,Continuous Advances in QCD 1996,9789810228156,,,,ES,1996/1/1,World Scientific Publishing Company,,false,1,15243501,0,0,0,0,1996/1/1,,,0,0,0,0,0,0.00,395,Hardcover,,0,0,M. I. Polikarpov,,,,,,,0,,
15244001,0582428610,The Disadvantaged Adult: Educational and Social Needs of Minority Groups,9780582428614,,,,ES,1972/1/1,Longman Publishing Group,,false,2,15244001,0,0,0,0,1972/1/1,,,0,0,0,0,0,0.00,147,Unknown Binding,,0,0,Peter Clyne,,,,,,,0,,
15244501,0582489245,"A History of Modern Wales, 1536-1990",9780582489240,,,,ES,1992/1/1,Longman Publishing Group,,false,8,201950,14,24,6,0,1991/12/1,"A History of Modern Wales, 1536 1990",,3,0,3,0,0,4.00,451,Unknown Binding,,0,0,Philip Jenkins,,,,,,8,0,,
15245001,0745604919,Violence and the Law in Modern Age,9780745604916,,,,ES,1988/1/1,Polity Press,,false,2,4563804,7,9,2,0,1988/1/1,Violence and Law in the Modern Age,,1,1,0,0,0,4.50,194,Hardcover,,0,0,Antonio Cassese,,,,,,5,0,,
15245501,9870309917,Derecho Colectivo del Trabajo,9789870309918,,,,ES,,,,false,1,15245501,0,0,0,0,,,,0,0,0,0,0,0.00,,,,0,0,Ricardo Cornaglia,,,,,,,0,,
15246001,9871013485,El Universo Neoliberal,9789871013487,,,,ES,,,,false,1,15246001,0,0,0,0,,,,0,0,0,0,0,0.00,,,,0,0,Alfredo Calcagno,,,,,,,0,,
15246501,0387077081,Modern Methods in Forest Genetics,9780387077086,,,,ES,1976/12/31,Springer,,false,2,14713318,0,0,0,0,1976/8/6,,,0,0,0,0,0,0.00,288,Unknown Binding,,0,0,,,Jerome P. Miksche,,,,,0,,
15247001,0585173095,Dictionary of Agriculture: From Abaca to Zoonosis,9780585173092,,,,ES,,,,false,2,15247001,0,0,0,0,,,,0,0,0,0,0,0.00,,,,0,0,Kathryn L. Lipton,,,,,,,0,,
15247501,0747277788,The Race of My Life,9780747277781,,,,ES,,,,false,2,15247143,1,0,0,0,,,,0,0,0,0,0,0.00,,,,0,0,Sean Magee,,,,,,1,0,,
15248001,0589043900,Map Book of the Pacific Islands,9780589043902,,,,ES,1974/1/1,Reed Education,,false,1,15248001,0,0,0,0,1974/1/1,,,0,0,0,0,0,0.00,24,Unknown Binding,,0,0,Alexander Wyclif Reed,,,,,,,0,,
15248501,9871541244,Los Ojos del Cordero,9789871541249,,,,ES,,,,false,1,15248501,0,0,0,0,,,,0,0,0,0,0,0.00,,,,0,0,German Arens,,,,,,,0,,
15249001,0590126938,"Mouse That Jack Built/Yes, Virginia There is a Santa Clause",9780590126939,,,,ES,,,,false,1,15249001,2,0,0,0,,,,0,0,0,0,0,0.00,,,,0,0,Cyndy Szekeres,,,,,,1,0,,
15249501,0590245341,Ou Est Ce Chat?,9780590245340,,,,ES,1995/1/1,Scholastic,,false,4,916060,12,12,3,1,1995/1/1,"Where's That Cat? (Hide & Seek Science, No 4)",,1,1,1,0,0,4.00,32,Paperback,,0,0,"Barbara Brenner,Bernice Chardiet,Carol Schwartz",,,,,,5,0,,picture-books
15250001,9874381280,"La Politica Economica Anticiclica de Peron, 1946-1955",9789874381286,,,,ES,,,,false,1,15250001,0,0,0,0,,,,0,0,0,0,0,0.00,,,,0,0,Walther Alberto Marcolini,,,,,,,0,,
15250501,0750412267,Arolwg Cymdeithasol Cymru 1992: Adroddiad AR Yr Iaith Gymraeg,9780750412261,,,,ES,1995/1/1,Swyddfa Gymreig,,false,1,15250501,0,0,0,0,1995/1/1,,,0,0,0,0,0,0.00,38,Unknown Binding,,0,0,,,Great Britain,,,,,0,,
15251001,0201082179,Write! 2e,9780201082173,,,,ES,,,,false,1,15251001,0,0,0,0,,,,0,0,0,0,0,0.00,,,,0,0,Magdala Raupp,,,,,,,0,,
15251501,9875801313,Vivir y Pensar,9789875801318,,,,ES,2006/10/30,Emece Editores,,false,1,15251501,1,0,0,0,2006/10/30,,,0,0,0,0,0,0.00,,Paperback,,0,0,Jaime Barylko,,,,,,1,0,,
15252001,9876290622,Buenos Aires En Armas: La Revolucion de 1880,9789876290623,,,,ES,,,,false,1,15252001,4,13,3,0,,,,2,0,1,0,0,4.33,,,,3,0,Hilda Sabato,,,,,,1,0,,
15252501,9879186931,Percy y el Profeta: La Dama de la Granja Glenwith,9789879186930,,,,ES,,,,false,6,5688700,15,10,3,0,2008/1/1,Mr. Percy and the Prophet,,1,0,1,1,0,3.33,,,,1,0,Wilkie Collins,,,,,,9,0,,"british-literature,fiction"
15253001,0201315270,Select Microsoft Access 97,9780201315271,,,,ES,2000/4/1,Addison Wesley Publishing Company,,false,1,15253001,0,0,0,0,2000/4/1,,,0,0,0,0,0,0.00,,Paperback,,0,0,"Pamela R. Toliver,Toliver Pam",,,,,,,0,,
15253501,9879811674,Buenos Aires: Art Deco y Racionalismo,9789879811672,,,,ES,2008/3/1,,,false,1,15253501,1,5,1,0,,,book,1,0,0,0,0,5.00,,,,1,0,"Fabio Grementieri,Mimi B'Ohm",,,,,,,0,,
15254501,9970024477,Muzinge the Bird,9789970024476,,,,ES,,,,false,1,15254501,0,0,0,0,,,,0,0,0,0,0,0.00,,,,0,0,Betha Mubiru,,,,,,,0,,
15255001,9990552045,Rio Fugitive,9789990552041,,,,ES,,,,false,8,3716506,112,212,55,0,1998/1/1,Río fugitivo,book,13,27,10,4,1,3.85,,,,1,0,Edmundo Paz Soldán,,,,,,49,1,,"fiction,novels"
15255501,9992248114,El Lazarillo de Tormes,9789992248119,,,,ES,2002/2/1,Fondo de Cultura Economica USA,,false,472,61794,22843,54057,15437,636,1554/1/1,La vida del Lazarillo de Tormes y sus fortunas y adversidades ,book,3016,4764,5222,1820,615,3.50,,Paperback,,1,0,Anonymous,,,,,,3198,162,283,"adventure,classics,college,comedy,drama,fiction,high-school,historical,historical-fiction,humor,literary-fiction,literature,medieval,novella,novels,school"
15256001,039396339X,Introduction to Sociology,9780393963397,,,,ES,1997/3/3,W. W. Norton & Company,,false,87,46423,6027,6471,1635,73,1986/12/3,Sociology,book,580,583,335,97,40,3.96,,Hardcover,,0,0,Anthony Giddens,,,,,,627,18,310,"academic,anthropology,college,education,non-fiction,philosophy,politics,psychology,reference,school,science,society,sociology,textbooks,unfinished"
15256501,0393972593,We the People,9780393972597,,,,ES,1997/10/1,R.S. Means Company,,false,118,10334091,1110,1012,299,27,1997/2/1,We the People: An Introduction to American Politics,book,53,83,109,34,20,3.38,,Paperback,,0,0,Benjamin Ginsberg,,,,,,503,17,33,"american-history,college,history,non-fiction,politics,reference,school,textbooks"
15257001,0205053831,Great Decisions 1976,9780205053834,,,,ES,,,,false,1,15257001,0,0,0,0,,,,0,0,0,0,0,0.00,,,,0,0,Foreign Policy Association,,,,,,,0,,
15257501,039437102X,"Eng, Television News and the New Technology",9780394371023,,,,ES,,,,false,5,3858227,1,3,1,0,1984/12/1,Eng : Television News and New Technology,,0,0,1,0,0,3.00,,,,0,0,Richard D. Yoakam,,,,,,,0,,
15258001,0606014179,One Hungry Monster: A Counting Book in Rhyme,9780606014175,,,,ES,1989/1/1,Turtleback Books,,false,4,1602311,549,1171,285,52,1989/1/1,One Hungry Monster : A Counting Book in Rhyme Board Book,book,120,91,61,11,2,4.11,32,Library Binding,,0,0,Susan Heyboer O'Keefe,Lynn Munsinger,,,,,115,12,2,"childrens,fantasy,humor,picture-books,poetry,school"
15258501,0205278353,The Structure of Social Stratification in the United States,9780205278350,,,,ES,1999/8/24,Allyn & Bacon,,false,6,3948895,18,40,11,0,1989/1/1,"Structure of Social Stratification in the United States, The (4th Edition)",,3,2,5,1,0,3.64,306,Hardcover,,2,0,Leonard Beeghley,,,,,,6,0,,
15259001,020550714X,"Guide to College Reading (with Myreadinglab) Value Pack (Includes Mycomplab New with E-Book Student Access& Little, Brown Compact Handbook with Exercises )",9780205507146,,,,ES,2008/8/8,Longman Publishing Group,,false,37,15436076,34,12,3,1,1986/1/1,,book,1,1,1,0,0,4.00,,Unknown Binding,,0,0,Kathleen T. McWhorter,,,,,,11,0,,school
15259501,060602249X,Poems by Robert Frost: A Boy's Will and North of Boston,9780606022491,,,,ES,2001/4/1,Turtleback Books,,false,22,268426,1492,3241,804,71,1990/1/1,Poems by Robert Frost: A Boy's Will and North of Boston,book,298,290,165,45,6,4.03,160,Hardcover,,5,0,Robert Frost,,,,,,445,15,47,"american,classics,essays,fiction,literature,plays,poetry,realistic-fiction"
15260001,0394754859,Keynotes-Richard III,9780394754857,,,,ES,1987/9/12,Random House Reference Publishing,,false,1,15260001,0,0,0,0,1987/9/12,,,0,0,0,0,0,0.00,,Paperback,,0,0,"H. Key Notes Serie R,Random House",,,,,,,0,,
15260501,0394843428,Encounter at Easton,9780394843421,,,,ES,1980/1/1,,,false,9,1595182,157,172,52,9,1980/1/1,Encounter at Easton,book,4,20,18,8,2,3.31,,,,0,0,Avi,,,,,,72,8,,"childrens,fiction,historical,historical-fiction,juvenile,middle-grade"
15261001,0756952328,Sharks!,9780756952327,,,,ES,2005/1/4,Perfection Learning,,false,3,9211965,39,37,9,2,2005/1/1,,book,4,2,3,0,0,4.11,32,Hardcover,,1,0,Adrienne Betz,,,,,,20,3,1,"animals,childrens"
15261501,0756972140,World Series,9780756972141,,,,ES,2006/3/1,Perfection Learning,,false,6,390705,198,472,115,14,1941/1/1,World Series,book,37,55,21,2,0,4.10,248,Hardcover,,0,0,John R. Tunis,,,,,,45,7,4,"childrens,classics,fiction,middle-grade,realistic-fiction,sports,young-adult"
15262001,0757916457,Jazzy Classix: Trumpet [With CD],9780757916458,,,,ES,,,,false,1,15262001,0,0,0,0,,,,0,0,0,0,0,0.00,,,,0,0,,,,,,,,0,,
15262501,0226685640,The Lady: Studies of Certain Significant Phases of Her History,9780226685649,,,,ES,,,,false,1,15262501,0,0,0,0,,,,0,0,0,0,0,0.00,,,,0,0,Emily Putnam,,,,,,,0,,
15263001,0395192250,Conlin Concepts of Commun Writing,9780395192252,,,,ES,1975/1/1,Houghton Mifflin Harcourt (HMH),,false,1,15263001,0,0,0,0,1975/1/1,,,0,0,0,0,0,0.00,,Paperback,,0,0,Conlin,,,,,,,0,,
15263501,0395252261,Summits,9780395252260,,,,ES,1979/1/1,Houghton Mifflin,,false,1,15263501,0,0,0,0,1979/1/1,,,0,0,0,0,0,0.00,248,Unknown Binding,,0,0,,,Jo M. Stanchfield,,,,,0,,
15264001,0606046518,Dear Momyou Re Ruining My Life,9780606046510,,,,ES,1990/9/1,Turtleback Books,,false,8,1734320,162,276,79,10,1989/1/1,"Dear Mom, You're Ruining My Life",book,16,21,31,8,3,3.49,153,Hardcover,,0,0,Jean Van Leeuwen,,,,,,45,7,3,"chapter-books,childrens,family,fiction,humor,middle-grade,young-adult"
15264501,023396956X,Mr. Gosling and the Runaway Chair,9780233969565,,,,ES,,,,false,1,15264501,0,0,0,0,,,,0,0,0,0,0,0.00,,,,0,0,John Cunliffe,,,,,,,0,,
15265001,0761505482,Heart of Darkness Unauthorized Secrets,9780761505488,,,,ES,1997/2/1,Prima Publishing,,false,1,15265001,0,0,0,0,1997/2/1,,book,0,0,0,0,0,0.00,,Paperback,,0,0,Prima Publishing,,,,,,,0,,
15265501,0761523197,Natural Pharmacist: Your Compl,9780761523192,,,,ES,1999/6/3,Prima Publishing,,false,1,15265501,0,0,0,0,,,,0,0,0,0,0,0.00,,Paperback,,0,0,,,Anna Barton,,,,,0,,
15266001,0241107555,Great Britain,9780241107553,,,,ES,,,,false,1,15266001,1,5,1,0,,,,1,0,0,0,0,5.00,,,,1,0,Hunter Davis,,,,,,,0,,
15266501,0761934766,Communication of Innovations: A Journey with Ev Rogers,9780761934769,,,,ES,,Sage Publications (CA),,false,1,15266501,0,0,0,0,,,,0,0,0,0,0,0.00,248,Hardcover,,0,0,,,,"Arvind Singhal,James W. Dearing",,,,0,,
15267001,0761953817,Reconstructing the Welfare State: On Changing Gender Relations and New Labour Market Patterns,9780761953814,,,,ES,2006/11/29,Sage Publications Ltd,,false,2,15267001,1,0,0,0,2006/11/29,,,0,0,0,0,0,0.00,224,Paperback,,0,0,"Lena Gonc$s,Lena Gonds,Lena Gons",,,,,,1,0,,
15267501,0395528798,General Chemistry,9780395528792,,,,ES,1990/4/1,Houghton Mifflin,,false,37,4154293,308,249,72,3,1984/1/1,General Chemistry,book,18,19,19,10,6,3.46,,Paperback,,0,0,Darrell D. Ebbing,,,,,,130,1,14,"college,non-fiction,reference,school,science,textbooks"
15268001,0606069445,The Bridges of Summer,9780606069441,,,,ES,1994/1/1,Turtleback Books,,false,5,1482737,19,43,10,0,1992/1/1,The Bridges Of Summer,,6,2,1,1,0,4.30,143,Hardcover,,0,0,Brenda Seabrooke,,,,,,5,1,,"fiction,juvenile"
15268501,0606072861,Big Pumpkin,9780606072861,,,,ES,1995/9/1,Turtleback Books,,false,14,1051153,4042,11508,2706,204,1992/8/31,Big Pumpkin,book,1401,756,420,90,39,4.25,,Hardcover,,1,0,Erica Silverman,,,,,,931,13,23,"childrens,fantasy,fiction,food,funny,ghosts,holiday,humor,picture-books,school,teaching,vampires,witches"
15269001,0606076514,A Historical Album of Nebraska,9780606076517,,,,ES,,,,false,2,15269001,0,0,0,0,,,,0,0,0,0,0,0.00,,,,0,0,Charles Wills,,,,,,,0,,
15269501,0395882974,Little Reader: Hats,9780395882979,,,,ES,1997/9/1,Houghton Mifflin,,false,1,15269501,0,0,0,0,1997/9/1,,,0,0,0,0,0,0.00,,Paperback,,0,0,"Catherine Peters,Houghton Mifflin",Shari Halpern,,,,,,0,,
15270001,0762738510,Louisville Cardinals Men's Basketball,9780762738519,,,,ES,2005/10/1,Globe Pequot Press,,false,1,15270001,1,0,0,0,2005/10/1,,,0,0,0,0,0,0.00,192,Paperback,,0,0,Russ Brown,,,,,,1,0,,
15270501,076355734X,Sals House for Sergin-Span Is,9780763557348,,,,ES,1999/1/1,Houghton Mifflin Harcourt (HMH),,false,1,15270501,0,0,0,0,1999/1/1,,,0,0,0,0,0,0.00,,Paperback,,0,0,Steck-Vaughn,,,,,,,0,,
15271001,0397318081,The Bears' Counting Book,9780397318087,,,,ES,1978/1/1,Lippincott Williams & Wilkins,,false,1,15271001,1,0,0,1,1978/1/1,,,0,0,0,0,0,0.00,32,Hardcover,,0,1,Robin Wild,,,,,,,0,,realistic-fiction
15271501,0763790702,Film Editing Theory and Practice,9780763790707,,,,ES,2010/11/15,Jones & Bartlett Publishers,,false,1,15271501,0,0,0,0,2010/11/15,,,0,0,0,0,0,0.00,300,Paperback,,0,0,Christopher L. Reed,,,,,,,0,,
15272001,0397540507,Basic Concepts of Anatomy & Physiology: A Programmed Study,9780397540501,,,,ES,,,,false,1,15272001,0,0,0,0,,,,0,0,0,0,0,0.00,,,,0,0,W. B. Dean,,,,,,,0,,
15272501,0398006733,The Education of the Hearing Impaired,9780398006730,,,,ES,1976/4/1,Charles C. Thomas Publisher,,false,1,15272501,0,0,0,0,1976/4/1,,,0,0,0,0,0,0.00,204,Spiral-bound,,0,0,"C. Joseph Giangreco,Marianne R. Giangreco",,,,,,,0,,
15273001,0606098968,Stay in Line,9780606098960,,,,ES,1996/3/1,Turtleback Books,,false,4,995791,91,93,26,4,1996/3/1,"Stay in Line (Hello Math Reader, Level 2, Kindergarten-Grade 2)",,7,6,8,5,0,3.58,,Hardcover,,0,0,Teddy Slater,,,,,,27,7,,"animals,school"
15273501,0398038023,Physical Education as a Career: A Text for the Introductory Course,9780398038021,,,,ES,,,,false,1,15273501,0,0,0,0,,,,0,0,0,0,0,0.00,,,,0,0,James H. Humphrey,,,,,,,0,,
15274001,076428522X,Blessing in Disguise,9780764285226,,,,ES,,,,false,12,537663,2738,7516,1711,81,1999/11/1, ,book,942,538,200,23,8,4.39,,,,0,0,Lauraine Snelling,,,,,,520,12,54,"adult,adult-fiction,christian,christian-fiction,faith,fiction,historical,historical-fiction,relationships,romance,young-adult"
15274501,0399111484,New Earth Catalog,9780399111488,,,,ES,1973/12/1,Berkley Publishing Group,,false,1,15274501,1,0,0,0,1973/12/1,,,0,0,0,0,0,0.00,,Paperback,,0,0,"Gnu Publishing,Scott R. French",,,,,,,0,,
15275001,0264674707,Common Lectionary: Red,9780264674704,,,,ES,1998/6/1,"Andrew Mowbray Incorporated, Publishers",,false,3,15275001,2,0,0,0,1998/4/1,,,0,0,0,0,0,0.00,110,Hardcover,,0,0,,,Cassells,,,,,0,,
15275501,0764587315,Cliffs Notes on Buck's The Good Earth,9780764587313,,,,ES,2001/6/14,Wiley Publishing,,false,3,1080,26,36,9,0,1974/11/29,The Good Earth (Cliffs Notes),,4,2,2,1,0,4.00,128,Paperback,,1,0,Stephen Veo Huntley,,,,,,8,0,1,"fiction,literature"
15276001,0606116451,Mr. Lunch Takes a Plane Ride,9780606116459,,,,ES,1997/2/1,Turtleback Books,,false,4,1116004,135,340,82,8,1993/9/1,Mr. Lunch Takes a Plane Ride,,34,30,15,2,1,4.15,,Hardcover,,0,0,J. Otto Seibold,,,,,,25,7,1,"animals,childrens,fiction,graphic-novels,juvenile,picture-books"
15276501,0273087835,Parallel Complexity Theory,9780273087830,,,,ES,,,,false,2,15276501,0,0,0,0,1987/11/26,,,0,0,0,0,0,0.00,,,,0,0,Ian Parberry,,,,,,,0,,
15277001,0275063305,Decentralizing City Government: A Practical Study of a Radical Proposal for New York City,9780275063306,,,,ES,1972/12/1,Irvington Publishers,,false,1,15277001,0,0,0,0,1972/12/1,,book,0,0,0,0,0,0.00,,Hardcover,,0,0,"Jeffrey   Wood,Lance M. Liebman,Walter G. Farr",,,,,,,0,,
15277501,0766805654,"Medium/Heavy Duty Truck (T7): Heating, Ventilation and Air Conditioning",9780766805651,,,,ES,2000/12/1,Delmar,,false,1,15277501,0,0,0,0,1999/7/1,,,0,0,0,0,0,0.00,8,Paperback,,0,0,Delmar Thomson Learning,,,,,,,0,,
15278001,0283063114,Deadly Fighting: Skills of the World,9780283063114,,,,ES,,,,false,3,1775351,60,60,17,2,1999/8/1,Deadly Fighting Skills of the World,,4,4,6,3,0,3.53,,,,0,0,Steve Crawford,,,,,,31,2,,
15278501,0767335198,Made for Praise for Younger Children: Volume 4 [With Cassette],9780767335195,,,,ES,,,,false,1,15278501,1,0,0,0,,,,0,0,0,0,0,0.00,,,,0,0,,,,,,,1,0,,
15279001,060612957X,The Great Race,9780606129572,,,,ES,1997/12/1,Turtleback Books,,false,3,2649116,130,156,42,2,1997/12/1,"The Great Race (level 2) (Hello Reader, Level 2)",book,10,13,16,3,0,3.71,,Hardcover,,0,0,David McPhail,,,,,,33,17,2,"animals,childrens,fiction"
15280001,0768503175,Mailman Mario & His Boris-Busters,9780768503173,,,,ES,2004/10/14,Dominie Elementary,,false,1,15280001,0,0,0,0,2004/10/14,,,0,0,0,0,0,0.00,48,Paperback,,0,0,John Parker,,,,,,,0,,
15280501,0769200591,The Essential Southern Rock Guitar: Authentic Guitar Tab,9780769200590,,,,ES,1997/8/1,Alfred Music,,false,1,15280501,4,0,0,0,1997/8/1,,,0,0,0,0,0,0.00,180,Paperback,,0,0,,,Colgan Bryan,Alfred A. Knopf Publishing Company,,,3,1,,"music,non-fiction"
15281001,0769294995,Sonata No. 2 in G Major,9780769294995,,,,ES,1985/3/1,Alfred Music,,false,1,15281001,0,0,0,0,1985/3/1,,,0,0,0,0,0,0.00,24,Paperback,,0,0,,,,Alfred A. Knopf Publishing Company,,,,0,,
15281501,0769636837,"Brighter Child Geography, Grade 3",9780769636832,,,,ES,2004/7/15,Brighter Child,,false,1,15281501,0,0,0,0,2004/7/15,,,0,0,0,0,0,0.00,40,Paperback,,0,0,"School Specialty Publishing,Vincent Douglas",,,,,,,0,,
15282001,040414778X,The Landlord at Lion's Head,9780404147785,,,,ES,1976/1/1,AMS Press,,false,50,3032324,48,87,23,3,1897/1/1,,book,7,9,3,3,1,3.78,461,Unknown Binding,,0,0,William Dean Howells,,,,,,14,1,2,"american,classics,fiction,literature,novels"
15282501,0606154930,Cow,9780606154932,,,,ES,1997/1/1,Turtleback Books,,false,5,851251,116,329,78,63,1997/1/1,Cow,,35,28,13,1,1,4.22,,Hardcover,,0,0,Jules Older,,,,,,20,7,,"animals,childrens,class,cultural,education,fiction,food,funny,history,humor,nature,non-fiction,picture-books,school,science"
15283001,0404552161,The Effect of Time Upon Variability,9780404552169,,,,ES,1972/1/1,AMS Press,,false,1,15283001,0,0,0,0,1972/1/1,,,0,0,0,0,0,0.00,,Hardcover,,0,0,Ella Woodyard,,,,,,,0,,
15283501,060615972X,"Speaking Up, Speaking Out: A Kid's Guide to Making Speeches, Oral Reports, and Conversation",9780606159722,,,,ES,1996/1/1,Turtleback Books,,false,4,7459659,4,0,0,1,1996/1/1,,,0,0,0,0,0,0.00,79,Hardcover,,0,0,Steven Otfinoski,,,,,,4,0,,reference
15284001,0773501207,Regional Mobility and Resource Development in West Africa,9780773501201,,,,ES,,,,false,2,15284010,2,5,1,0,,,,1,0,0,0,0,5.00,,,,0,0,Akin L. Mabogunje,,,,,,1,0,,
15284501,0405005504,International Migrations,9780405005503,,,,ES,,,,false,1,15284501,0,0,0,0,,,,0,0,0,0,0,0.00,,,,0,0,Imre Ferenczi,,,,,,,0,,
15285001,077700075X,"Dependance, Marginalite, Developpement: Essais Sur Les Ameriques Latines, (Troisieme Congres de Relations Internationales Du Quebec)",9780777000755,,,,ES,1973/1/1,Presses de L'Universite Du Quebec,,false,1,15285001,0,0,0,0,1973/1/1,,,0,0,0,0,0,0.00,235,Unknown Binding,,0,0,,,Christian A. Girault,,,,,0,,
15285501,0778782980,Explora Australia y Oceania,9780778782988,,,,ES,2007/10/1,Crabtree Publishing Company,,false,5,6071897,16,32,8,1,2007/1/1,Explore Australia,book,2,5,0,1,0,4.00,32,Paperback,,1,0,"Bobbie Kalman,Rebecca Sjonger",,,,,,2,1,,non-fiction
15286001,0405049838,"Memoranda and Official Correspondence Relating to the Republic of Texas, Its History and Annexation",9780405049835,,,,ES,,,,false,2,15286001,0,0,0,0,,,,0,0,0,0,0,0.00,,,,0,0,Anson Jones,,,,,,,0,,
15286501,0780623746,A Christmas Carol,9780780623743,,,,ES,,,,false,1,15286501,2,0,0,0,,,,0,0,0,0,0,0.00,,,,0,0,Peggy M. Wilber,,,,,,,0,,
15287001,0405070012,Ancient Religion & Mythology,9780405070013,,,,ES,1976/1/1,Beaufort Books,,false,1,15287001,0,0,0,0,1976/1/1,,,0,0,0,0,0,0.00,,Hardcover,,0,0,,,,W.R. Connor,,,,0,,
15287501,0809412136,The Caribbean Isles,9780809412136,,,,ES,1975/5/1,Time Life Medical,,false,5,901360,21,33,9,4,1975/5/1,Caribbean Isles (The World's Wild Places),book,1,6,1,0,1,3.67,184,Hardcover,,0,0,Peter  Wood,,,,,,6,0,1,nature
15288001,0405095813,Science and Immortality,9780405095818,,,,ES,1977/1/1,Arno Press,,false,21,15288001,11,10,2,1,1977/1/1,,,2,0,0,0,0,5.00,54,Unknown Binding,,1,1,William Osler,,,,,,6,0,1,
15288501,0405104553,Memoirs of William Smith,9780405104558,,,,ES,,,,false,7,32158730,0,0,0,0,2003/6/7,,book,0,0,0,0,0,0.00,,,,0,0,John   Phillips,,,,,,,0,,
15289001,0781239516,"Declaration of the Gentlemen, Merchants & Inhabitants of Boston",9780781239516,,,,ES,,,,false,1,15289001,1,0,0,0,,,,0,0,0,0,0,0.00,,,,0,0,Cotton Mather,,,,,,,0,1,
15289501,0405123264,Factory Organization and Administration,9780405123269,,,,ES,1980/1/1,Beaufort Books,,false,1,15289501,1,0,0,0,1980/1/1,,,0,0,0,0,0,0.00,,Hardcover,,0,0,Hugo Diemer,,,Alfred D. Chandler Jr.,,,1,0,,
15290001,0405133928,Product Innovation and Directions of International Trade,9780405133923,,,,ES,,,,false,1,15290001,0,0,0,0,,,,0,0,0,0,0,0.00,,,,0,0,Louis T. Wells Jr.,,,,,,,0,,
15291001,0810007177,Christ-Light Curriculum: Copy Master a,9780810007178,,,,ES,,,,false,1,15291001,0,0,0,0,,,,0,0,0,0,0,0.00,,,,0,0,Wisconsin Evangelical Lutheran Synod,,,,,,,0,,
15291501,0306760029,Choral Music Of The Church,9780306760020,,,,ES,1980/8/21,Da Capo Press,,false,2,15291501,2,0,0,0,1965/4/1,,,0,0,0,0,0,0.00,514,Paperback,,0,0,Elwyn A. Wienandt,,,,,,1,0,,music
15292001,060619164X,My Brother the Pest,9780606191647,,,,ES,1999/3/1,Turtleback Books,,false,9,2230263,12,12,3,0,1999/3/1,"My Brother, The Pest (Real Kids Readers Series)",,1,1,1,0,0,4.00,,Hardcover,,0,0,Margery Bernstein,,,,,,2,1,,"childrens,fiction"
15292501,040802531X,Modern Approaches to Animal Cell Technology,9780408025317,,,,ES,1988/3/1,Butterworth-Heinemann,,false,2,15292501,0,0,0,0,1988/3/1,,,0,0,0,0,0,0.00,828,Hardcover,,0,0,"European Society for Animal Cell Technol,J.B. Griffiths,R.E. Spier",,,,,,,0,,
15293001,0409033391,Nihil Obstat: Feesbundel Vir W.J. Hosten = Essays in Honour of W.J. Hosten,9780409033397,,,,ES,,,,false,1,15293001,0,0,0,0,,,,0,0,0,0,0,0.00,,,,0,0,W. J. Hosten,,,,,,,0,,
15293501,0409309141,"Management Accounting: Processing, Evaluating and Using Cost Data",9780409309140,,,,ES,1982/7/1,Lexis Law Publishing (Va),,false,2,15293501,2,0,0,0,1982/7/1,,,0,0,0,0,0,0.00,573,Hardcover,,0,0,"A.J. McHugh,M.G. McDonald,R.G. Bird",,,,,,2,0,,
15294001,0783540043,Inventos y Descubrimientos = Inventions and Discoveries,9780783540047,,,,ES,,,,false,1,15294001,0,0,0,0,,,,0,0,0,0,0,0.00,,,,0,0,,,,,,,,0,,
15294501,0412006219,Seed Dormancy and Germination,9780412006210,,,,ES,,,,false,2,15294501,1,0,0,0,1988/4/30,,,0,0,0,0,0,0.00,,,,0,0,J. W. Bradbeer,,,,,,1,0,,
15295001,0811529339,Geschichten & Lieder Der Afrikaner,9780811529334,,,,ES,,,,false,1,15295001,0,0,0,0,,,,0,0,0,0,0,0.00,,,,0,0,August Seidel,,,,,,,0,,
15295501,030901980X,Improvement of Transportation Safety: 3 Reports,9780309019804,,,,ES,,,,false,1,15295501,0,0,0,0,,,,0,0,0,0,0,0.00,,,,0,0,National Research Council,,,,,,,0,,
15296501,0412640309,Smart Materials & St,9780412640308,,,,ES,1999/12/1,Springer,,false,1,15296501,1,0,0,0,1999/12/1,,,0,0,0,0,0,0.00,320,Paperback,,0,0,,,,C. Friend,,,,0,1,
15297001,0413373304,The Cotswolds,9780413373304,,,,ES,,,,false,2,15297001,0,0,0,0,,,,0,0,0,0,0,0.00,,,,0,0,Joscelyne Finberg,,,,,,,0,,
15297501,0784707081,David and Goliath,9780784707081,,,,ES,1997/7/1,Standard Publishing Company,,false,1,15297501,0,0,0,0,1997/7/1,,,0,0,0,0,0,0.00,,Paperback,,0,0,,,,,,,,0,,
15298001,0812016629,Pronounce It Perfectly in German,9780812016628,,,,ES,1994/6/1,Barrons Educational Series,,false,4,1929760,2,4,1,0,1994/3/1,,,0,1,0,0,0,4.00,100,Paperback,,0,0,Annegret Decker,,,,,,,0,,
15298501,078475652X,High School Teacher Book,9780784756522,,,,ES,2008/1/31,Standard Publishing Company,,false,3,15298501,1,0,0,0,2008/1/1,,,0,0,0,0,0,0.00,,Paperback,,0,0,Anonymous,,,,,,1,0,,
15299001,0812066138,The Emperor's New Clothes: Fairy Tale Fun,9780812066135,,,,ES,1996/9/1,Barron's Educational Series,,false,1,15299001,1,0,0,0,1996/9/1,,,0,0,0,0,0,0.00,,Hardcover,,0,0,"David Pace,Katy Rhodes",,,,,,,0,,
15299501,0415108616,Orientalism Postmodernism CL,9780415108614,,,,ES,1994/11/28,Other,,false,1,15299501,0,0,0,0,1994/11/28,,,0,0,0,0,0,0.00,228,Hardcover,,0,0,"Bryan S. Turner,David Turner",,,,,,,0,,
15300001,0415187362,The United States in the World Since 1776,9780415187367,,,,ES,2010/1/1,Routledge,,false,1,15300001,1,0,0,0,2010/1/1,,,0,0,0,0,0,0.00,,Paperback,,0,0,Richard Crockatt,,,,,,1,0,,
15300501,0606240489,"Jake Drake, Class Clown",9780606240482,,,,ES,2002/1/1,Turtleback Books,,false,12,235131,549,1032,281,35,2002/1/1,"Jake Drake, Class Clown (Jake Drake)",book,73,90,81,27,10,3.67,,Hardcover,,0,0,,,Andrew Clements,,,,148,13,19,"amazon,chapter-books,fiction,humor,realistic-fiction,school,teaching,young-adult"
15301001,0785713190,Danger Unlimited,9780785713197,,,,ES,,,,false,3,1130029,180,277,76,5,1993/1/1,"Danger Unlimited (Hardy Boys: Casefiles, #79)",book,20,21,25,8,2,3.64,,,,0,0,Franklin W. Dixon,,,Anne Greenberg,,,69,7,1,"fiction,mystery,mystery-thriller,young-adult"
15301501,0415901596,The Reconstructed Imagination,9780415901598,,,,ES,,,,false,2,15301502,0,0,0,0,,,,0,0,0,0,0,0.00,,,,0,0,David Pease,,,,,,,0,,
15302001,0415920280,Philosophy Catalog 1997 - 1998,9780415920285,,,,ES,,,,false,1,15302001,0,0,0,0,,,,0,0,0,0,0,0.00,,,,0,0,Catalog,,,,,,,0,,
15302501,0415936500,Foreign Language Catalog 2001,9780415936507,,,,ES,,,,false,1,15302501,0,0,0,0,,,,0,0,0,0,0,0.00,,,,0,0,Catalog,,,,,,,0,,
15303001,089410361X,Another Birth,9780894103612,,,,ES,1981/12/1,Lynne Rienner Publishers,,false,8,254437,3895,10392,2527,79,1964/1/1,تولّدی دیگر,book,1084,836,459,103,45,4.11,144,Paperback,,0,0,Forough Farrokhzad,,,,Susan Sallee,,680,4,29,"art,fiction,literature,non-fiction,poetry"
15303501,0416308112,I Know about Numbers,9780416308112,,,,ES,,,,false,2,15412851,2,7,2,0,,,book,1,0,0,1,0,3.50,,,,0,0,Dick Bruna,,,,,,,0,,
15304001,0812963709,Sportsbuff Football Crosswords: Fifty Football Puzzles,9780812963700,,,,ES,,,,false,1,15304001,0,0,0,0,,,,0,0,0,0,0,0.00,,,,0,0,The New York Times,,,,,,,0,,
15304501,0419129006,"The Canning Handbook: Surface Finishing Technology, Integrated Design",9780419129004,,,,ES,1982/12/30,Springer,,false,1,15304501,2,2,1,0,1982/12/30,,,0,0,0,1,0,2.00,1060,Hardcover,,1,0,W. Canning,,,,,,2,0,,
15305001,0421311703,"Wills, Administration, and Taxation: A Practical Guide",9780421311701,,,,ES,1983/12/31,Sweet & Maxwell,,false,1,15305001,0,0,0,0,1983/12/31,,,0,0,0,0,0,0.00,463,Paperback,,0,0,J. S. Barlow,,,,,,,0,,
15305501,0606274715,Mixed-Up Mask Mystery: A Fletcher Mystery,9780606274715,,,,ES,2003/3/1,Turtleback Books,,false,10,2177889,32,38,10,3,2003/1/1,The Mixed-Up Mask Mystery:  A Fletcher Mystery,book,4,2,3,0,1,3.80,96,Turtleback,,0,0,Elizabeth Levy,Mordicai Gerstein,,,,,9,3,,"art,mystery"
15306001,0785952985,Bibliographie de La Philosophie,9780785952985,,,,ES,,,,false,1,15306001,0,0,0,0,,,,0,0,0,0,0,0.00,,,,0,0,Institut International De Philosophie St,,,,,,,0,,
15306501,0606293434,Grandpa Lets Me Be Me,9780606293433,,,,ES,2002/7/1,Turtleback Books,,false,3,2853632,6,11,3,2,2002/7/1,Grandpa Lets Me Be Me (Reading Railroad Books),,1,0,2,0,0,3.67,,Hardcover,,0,0,Debra Mostow Zakarin,Stacy Peterson,,,,,2,0,,
15307001,0425080447,From Here/matern27flc,9780425080443,,,,ES,1985/5/1,Berkley Trade,,false,1,15307001,0,0,0,0,1985/5/1,,,0,0,0,0,0,0.00,,,,0,0,High Heeled,,,,,,,0,,
15307501,0895560879,Pure Gesture,9780895560872,,,,ES,,,,false,2,1205597,0,0,0,0,1990/12/31,Pure Gesture: Macrodimensional Glimpses of Other Realities (Gateways Fine Art Series Vol 2),,0,0,0,0,0,0.00,,,,0,0,E.J. Gold,,,,,,,0,,
15308001,0895736195,F.E.C.S. Third International Conference on Chemistry & Biotechnology of Biologically Active Natural Products,9780895736192,,,,ES,,,,false,1,15308001,0,0,0,0,,,,0,0,0,0,0,0.00,,,,0,0,,,,Bulgarian Academy of Sciences,,,,0,,
15308501,0813653576,What Will You Pack?,9780813653570,,,,ES,,Modern Curriculum Press,,false,1,15308501,3,5,1,0,,,,1,0,0,0,0,5.00,8,Paperback,,1,0,"Claudia Logan,Modern Curriculum Press",,,,,,2,0,,
15309001,0606311882,Attack of the Mole Master,9780606311885,,,,ES,2004/4/1,Turtleback Books,,false,3,2470744,24,20,6,0,2004/4/1,Sidekicks #3: Attack of the Mole Master,book,2,0,2,2,0,3.33,,Hardcover,,0,0,Dan Danko,Barry Gott,,,,,9,1,,"childrens,fantasy,young-adult"
15309501,0433000406,Nurses at Risk: A Guide to Health and Safety at Work,9780433000402,,,,ES,1988/5/1,Butterworth-Heinemann,,false,3,15309500,2,0,0,0,1998/11/13,,book,0,0,0,0,0,0.00,,Paperback,,0,0,"Jane Salvage,Rosemary  Rogers",,,,,,2,0,,
15310001,0606329161,The Babe & I,9780606329163,,,,ES,2004/12/1,Turtleback Books,,false,7,674995,427,915,220,60,1999/1/1,The Babe & I,book,92,83,34,10,1,4.16,,,,1,0,David A. Adler,Terry Widener,,,,,128,17,5,"biography,family,fiction,historical-fiction,history,juvenile,picture-books,realistic-fiction,sports"
15310501,0814619622,The I Confess for Children,9780814619629,,,,ES,,,,false,1,15310501,0,0,0,0,,,,0,0,0,0,0,0.00,,,,0,0,Hubert J. Richards,,,,,,,0,,
15311001,0814656463,"The Church: Learning and Teaching: Magisterium, Assent, Dissent, Academic Freedom",9780814656464,,,,ES,1991/1/1,Liturgical Press,,false,3,15311001,3,7,2,0,1987/1/1,,,0,1,1,0,0,3.50,,Hardcover,,2,0,Ladislas M. Orsy,,,,,,1,0,,
15311501,043560225X,Before Birth,9780435602253,,,,ES,,,,false,1,15311501,1,0,0,0,,,,0,0,0,0,0,0.00,,,,0,0,Richard Dryden,,,,,,1,0,,
15312001,0786626887,Rock Lines for Guitar,9780786626885,,,,ES,,,,false,1,15312001,1,0,0,0,,,,0,0,0,0,0,0.00,,,,0,0,Mark Lonergan,,,,,,1,0,,music
15312501,0814753906,Muslims and Minorities: The Population of Ottoman Anatolia and the End of the Empire,9780814753903,,,,ES,1983/12/15,New York University Press,,false,1,15312501,6,9,2,0,1983/12/15,,book,1,1,0,0,0,4.50,248,Hardcover,,2,0,Justin A. McCarthy,,,,,,4,0,,
15313501,0786824700,Untitled Verse & Photograph,9780786824700,,,,ES,2000/9/15,Hyperion Books,,false,1,15313501,0,0,0,0,2000/9/15,,,0,0,0,0,0,0.00,112,Hardcover,,0,0,"John Dugdale,Susan Taylor Brown",Garin Baker,,,,,,0,,
15314501,0815150253,1986 Yearbook of Rehabilitation,9780815150251,,,,ES,,,,false,1,15314501,0,0,0,0,,,,0,0,0,0,0,0.00,,,,0,0,Kaplan Inc.,,,,,,,0,,
15315001,0607619678,"Wilson County, KS: Digital Orthophoto Quadrangle Data: Us Geodata",9780607619676,,,,ES,1995/1/1,Survey,,false,3,15314998,0,0,0,0,1995/1/1,,,0,0,0,0,0,0.00,,Unknown Binding,,0,0,U.S. Geological Survey,,,,,,,0,,
15315501,0439684404,Captain Underpants and the Perilous Plot of Professor Poopypants,9780439684408,,,,ES,2004/8/1,Scholastic,,false,45,153866,19982,53541,12852,461,2000/1/1,Captain Underpants and the Perilous Plot of Professor Poopypants (Captain Underpants),book,6673,2966,2215,669,329,4.17,,Hardcover,,0,0,Dav Pilkey,,,,,,3875,46,507,"action,adventure,chapter-books,childrens,comedy,comics,fantasy,fiction,funny,graphic-novels,graphic-novels-comics,humor,juvenile,middle-grade,novels,picture-books,school,science-fiction,superheroes,young-adult"
15316001,0608002569,The Fighting Liberty Ships: A Memoir,9780608002569,,,,ES,,,,false,3,3068595,11,21,6,1,,The Fighting Liberty Ships: A Memoir (Bluejacket Books),book,2,0,3,1,0,3.50,,,,0,0,A.A. Hoehling,,,,,,4,0,,"biography-memoir,non-fiction"
15316501,0440090199,The White Frame House,9780440090199,,,,ES,,,,false,2,15316501,0,0,0,0,,,,0,0,0,0,0,0.00,,,,0,0,Rae Sedgwick,,,,,,,0,,
15317001,0898024978,Beautiful America's Oregon,9780898024975,,,,ES,,,,false,1,15317001,0,0,0,0,,,,0,0,0,0,0,0.00,,,,0,0,Gail Marie Curtis,,,,,,,0,,
15317501,0787205680,"Speaking Your Mind: Private Thinking and Public Speaking, Instructor's Manual",9780787205683,,,,ES,,,,false,1,15317501,1,0,0,0,,,,0,0,0,0,0,0.00,,,,0,0,Dance-Zak-Dance,,,,,,,0,1,
15318001,0787216194,Instructor's Manual: Estate Planning and Taxation: Instructor's Manual to Accompany,9780787216191,,,,ES,,,,false,1,15318001,0,0,0,0,,,,0,0,0,0,0,0.00,,,,0,0,Prestopino-Bost,,,,,,,0,,
15318501,0787221694,Biological Perspectives: Preserving the Commons Field Test,9780787221690,,,,ES,,,,false,1,15318501,0,0,0,0,,,,0,0,0,0,0,0.00,,,,0,0,Biological Sciences Curriculum Study,,,,,,,0,,
15319001,0613016912,Sound the Jubilee,9780613016919,,,,ES,1997/2/1,Turtleback Books,,false,5,1180411,154,224,57,6,1995/2/1,Sound the Jubilee,,17,23,14,2,1,3.93,183,Hardcover,,0,0,Sandra Forrester,,,,,,62,6,6,"historical,historical-fiction,middle-grade,young-adult"
15319501,0787234788,Understanding Exercise for Health and Fitness,9780787234782,,,,ES,1997/1/1,Kendall/Hunt Publishing Company,,false,1,15319501,0,0,0,0,,,book,0,0,0,0,0,0.00,178,Paperback,,0,0,"Andrew Jackson,Robert M. Ross",,,,,,,0,,
15320001,0787244287,Contemporary Argumentation and Debate,9780787244286,,,,ES,,,,false,3,11873672,2,4,1,0,,,,0,1,0,0,0,4.00,,,,0,0,Ceda,,,,,,1,0,,
15320501,0816060681,"Science Experiments on File, Volume 3",9780816060689,,,,ES,2006/11/1,Facts on File,,false,1,15320501,0,0,0,0,2006/11/1,,book,0,0,0,0,0,0.00,288,Hardcover,,0,0,"Elaine Wood,Pamela Walker",,,,,,,0,,
15321001,0816101418,Library Catalog of the School of Oriental & African Studies Chinese Authors,9780816101412,,,,ES,1970/6/1,MacMillan Publishing Company,,false,1,15321001,0,0,0,0,1970/6/1,,book,0,0,0,0,0,0.00,,Hardcover,,0,0,School of Oriental and African Studies,,,,,,,0,,
15321501,0816107564,"Classed Subject Catalog of the Engineering Societies Library, New York City, 3rd Supplement",9780816107568,,,,ES,1970/6/1,MacMillan Publishing Company,,false,1,15321501,0,0,0,0,1970/6/1,,,0,0,0,0,0,0.00,,Hardcover,,0,0,,,,Engineering Societies Library,,,,0,,
15322001,0816111634,"The Bancroft Library, University of California, Berkeley: Catalog of Printed Books, Third Supplement",9780816111633,,,,ES,,,,false,1,15322001,0,0,0,0,,,,0,0,0,0,0,0.00,,,,0,0,University Of Californ Bancroft Library,,,,,,,0,,
15322501,0898940036,Philosophy for a Changing Society,9780898940039,,,,ES,,,,false,1,15322501,0,0,0,0,,,,0,0,0,0,0,0.00,,,,0,0,,,,Creighton Peden,,,,0,,
15323001,0613088069,The Squirrel's Thanksgiving,9780613088060,,,,ES,1997/10/1,Turtleback Books,,false,4,2091387,99,126,45,5,1991/1/1,The Squirrel's Thanksgiving,book,4,5,21,8,7,2.80,,Hardcover,,2,0,Steven Kroll,Jeni Bassett,,,,,20,12,,"animals,childrens,fiction,holiday,picture-books"
15323501,0613101669,The Key to the Golden Dog,9780613101660,,,,ES,1998/5/1,Turtleback Books,,false,4,868976,129,224,56,0,1998/1/1,Key to the Golden Dog (Wishbone Mysteries),book,24,14,13,4,1,4.00,,Hardcover,,0,0,Anne Capeci,Don Adair,,,,,39,7,2,"animals,fiction,middle-grade,mystery,realistic-fiction"
15324001,0788406426,"Locke Genealogy, Supplement, Vol. 1",9780788406423,,,,ES,2013/3/1,Heritage Books,,false,1,15324001,0,0,0,0,2013/3/1,,,0,0,0,0,0,0.00,362,Paperback,,0,0,Donald P. Hayes,,,,,,,0,,
15324501,0613126297,Earth,9780613126298,,,,ES,1996/4/1,Turtleback Books,,false,3,4067808,1,0,0,0,1996/3/1,,,0,0,0,0,0,0.00,,Hardcover,,0,0,Robert Daily,,,,,,,0,,
15325001,0442314809,"Presentation Graphics for Engineering, Science, and Business",9780442314804,,,,ES,,,,false,1,15325001,0,0,0,0,,,,0,0,0,0,0,0.00,,,,0,0,P. H. Milne,,,,,,,0,,
15325501,0816182507,Analyzing the Third World: Essays from Comparative Politics,9780816182503,,,,ES,,,,false,5,15473720,0,0,0,0,,,,0,0,0,0,0,0.00,,,,0,0,Norman W. Provizer,,,,,,,0,,
15326001,0443026963,Textbook of Geriatric Medicine and Gerontology,9780443026966,,,,ES,,,,false,4,4466019,2,3,1,0,1992/12/31,Textbook of geriatric medicine and gerontology,,0,0,1,0,0,3.00,,,,0,0,J.C. Brocklehurst,,,,,,1,0,,
15326501,0443041946,Exacta Medica,9780443041945,,,,ES,1997/11/28,Churchill Livingstone,,false,1,15326501,0,0,0,0,,,,0,0,0,0,0,0.00,40,Spiral-bound,,0,0,Ian R. Entwistle,,,,,,,0,,
15327001,061317917X,I Choose You!,9780613179171,,,,ES,1999/7/1,Turtleback Books,,false,9,859722,4023,5759,1408,69,1999/7/1,I Choose You (Pokemon Chapter Book #1),book,745,253,257,98,55,4.09,,Hardcover,,0,0,Scholastic Inc.,,,,,,2159,10,79,"adventure,chapter-books,childrens,fantasy,fiction,graphic-novels,manga,young-adult"
15327501,0816863903,"U.S. Navy & Marine Corps Fighters, 1918-1962",9780816863907,,,,ES,1962/12/1,Tab Books,,false,1,15327501,0,0,0,0,,,book,0,0,0,0,0,0.00,,Hardcover,,0,0,Paul R. Matt,,,Bruce Robertson,,,,0,,
15328001,0444004173,"Psychiatric Medicine Update, 1981: Reviews for Physicians",9780444004178,,,,ES,,,,false,1,15328001,0,0,0,0,,,,0,0,0,0,0,0.00,,,,0,0,T.C. Manschreck,,,,,,,0,,
15328501,0817463763,The View Camera,9780817463762,,,,ES,1990/9/1,Amphoto Books,,false,3,1460452,12,28,7,0,1990/9/1,The View Camera,,2,3,2,0,0,4.00,144,Hardcover,,0,0,Harvey Shaman,,,,,,2,0,,
15329001,0899847641,How to Write Short Stories,9780899847641,,,,ES,1985/12/1,Century Bookbindery,,false,6,971437,105,103,25,0,1971/1/1,How To Write Short Stories: With Samples,,10,9,5,1,0,4.12,359,Hardcover,,0,0,Ring Lardner,,,,,,67,4,1,"fiction,humor,short-stories,writing"
15329501,0791322459,Interstate Banking and Community Development Acts,9780791322451,,,,ES,,,,false,1,15329501,0,0,0,0,,,,0,0,0,0,0,0.00,,,,0,0,Murray A. Indick,,,,,,,0,,
15330001,044441181X,"Food Additives Tables, Set, Pts. 1-4",9780444411815,,,,ES,,,,false,1,15330001,0,0,0,0,,,,0,0,0,0,0,0.00,,,,0,0,,,,E.J. Bigwood,,,,0,,
15330501,0819102040,Science Experiments for Elementary Schools,9780819102041,,,,ES,1977/12/1,University Press of America,,false,1,15330501,0,0,0,0,1977/12/1,,,0,0,0,0,0,0.00,187,Paperback,,0,0,Robert E. Walters,,,,,,,0,,
15331001,0819107360,Turning Behavior Inside Out,9780819107367,,,,ES,,,,false,1,15331001,0,0,0,0,,,,0,0,0,0,0,0.00,,,,0,0,Donald E. Tarter,,,,,,,0,,
15331501,0613269438,Six Silly Foxes,9780613269438,,,,ES,2000/3/1,Turtleback Books,,false,10,3654660,95,122,39,4,2000/1/1,Six Silly Foxes (Green Light Readers Level 1),book,7,5,17,6,4,3.13,,Hardcover,,0,0,Alex Moran,Keith  Baker,,,,,27,19,,"childrens,family,fiction,school"
15332001,0613277570,Campaign Chaos,9780613277570,,,,ES,2000/3/1,Turtleback Books,,false,2,3108878,20,31,9,0,2000/3/1,"Campaign Chaos (Generation Girl, No 12)",book,2,1,5,1,0,3.44,,Hardcover,,0,0,Melanie Stewart,,,,,,7,0,,
15332501,0819134600,Whitehead & His Philosophy,9780819134608,,,,ES,,,,false,1,15332501,0,0,0,0,,,,0,0,0,0,0,0.00,,,,0,0,Allison Heartz Johnson,,,,,,,0,,
15333001,0613289730,Mystery of the African Gray,9780613289733,,,,ES,1998/9/1,Turtleback Books,,false,3,2110817,41,80,23,0,1998/9/1,The Mystery of the African Gray (Three Cousins Detective Club),,5,6,8,3,1,3.48,,Hardcover,,0,0,"Elizabeth C. Murphy,Elspeth Campbell Murphy",,,,,,4,0,,"childrens,christian,mystery,picture-books"
15333501,0444866191,"Formal Description of Programming Concepts--II: Proceedings of the Ifip Working Conference on Formal Description of Programming Concepts--II, Garmisch",9780444866196,,,,ES,,,,false,1,15333501,0,0,0,0,,,,0,0,0,0,0,0.00,,,,0,0,Dines Bjørner,,,,,,,0,,
15334001,0903701626,"Brinli, Cyfreithiwr, Bardd, Archdderwydd",9780903701624,,,,ES,,,,false,1,15334001,0,0,0,0,,,,0,0,0,0,0,0.00,,,,0,0,Karl Rhys Konig,,,,,,,0,,
15334501,0613314905,Mr. Skinny,9780613314909,,,,ES,2000/11/20,Turtleback Books,,false,20,636761,707,1592,407,22,1981/1/19,Mr. Skinny ,book,159,100,108,33,7,3.91,,Hardcover,,0,0,Roger Hargreaves,,,,,,142,17,,"childrens,christian,fantasy,fiction,picture-books"
15335001,0444903550,The Epidemiology of Hypertension,9780444903556,,,,ES,1985/5/1,Elsevier Science & Technology,,false,1,15335001,0,0,0,0,1985/5/1,,,0,0,0,0,0,0.00,518,Hardcover,,0,0,,,,C. Bulpitt,,,,0,,
15335501,079311053X,Ontrak Mutual Fund Basics and Beyond,9780793110537,,,,ES,,,,false,2,15335501,0,0,0,0,1996/4/1,,,0,0,0,0,0,0.00,,,,0,0,Dearborn Financial Publishing,,,,,,,0,,
15336001,0613343522,"Martin Luther King, JR: A Man with a Dream",9780613343527,,,,ES,2001/3/3,Turtleback Books,,false,1,15336001,1,3,1,0,2001/3/3,,,0,0,1,0,0,3.00,112,Hardcover,,1,0,Jayne Pettit,,,,,,,0,,
15336501,044616612X,Cat & Mouse,9780446166126,,,,ES,,,,false,5,21436,89689,219479,55161,1255,1997/11/5,Cat & Mouse,book,16849,22780,13384,1814,334,3.98,,,,0,0,James Patterson,,,,,,12944,60,883,"action,adult,adult-fiction,american,contemporary,crime,detective,fiction,france,murder-mystery,mystery,mystery-thriller,novels,suspense,thriller"
15337001,0793505887,Petit Piano Concerto (for Student and Teacher),9780793505883,,,,ES,,,,false,1,15337001,0,0,0,0,,,,0,0,0,0,0,0.00,,,,0,0,,,,,,,,0,,
15337501,0906719259,Turks and Greeks: Neighbours in Conflict,9780906719251,,,,ES,1994/1/1,Eothen Press,,false,2,15337504,2,2,1,0,1994/1/1,,,0,0,0,1,0,2.00,233,Unknown Binding,,0,0,Vamık D. Volkan,,,,,,1,0,,
15338001,0793576830,Piano Solos Book 2 - CD: Hal Leonard Student Piano Library,9780793576838,,,,ES,,,,false,1,15338001,1,0,0,0,,,book,0,0,0,0,0,0.00,,,,0,0,Martin  Stephen,,,,,,1,0,,
15338501,0446384658,Practice to Take the GRE Literature in English Test,9780446384650,,,,ES,1990/1/1,Warner Books (NY),,false,1,15338501,1,0,0,0,1990/1/1,,,0,0,0,0,0,0.00,,Paperback,,0,0,Educational Testing Service,,,,,,,0,,
15339001,0613390083,Brazil,9780613390088,,,,ES,1997/9/1,Turtleback Books,,false,6,2046032,46,57,15,1,1997/1/1,Brazil (Enchantment of the World. Second Series),book,3,6,6,0,0,3.80,,Hardcover,,0,0,Ann Heinrichs,,,,,,16,3,,"childrens,juvenile,travel"
15339501,0613436253,Fun with Mo and Ella,9780613436250,,,,ES,2002/2/1,Turtleback Books,,false,2,872763,30,39,9,2,2002/2/1,Fun with Mo and Ella (First Friends),,6,0,3,0,0,4.33,,Hardcover,,0,0,Tui T. Sutherland,Rosemary Berlin,,,,,17,3,,picture-books
15340001,0797034234,"Inventaris Van Die Argief Van Die Stadsklerk, [Name of the Place, with Start of Year in Parenthesis]",9780797034235,,,,ES,,,,false,2,15340001,0,0,0,0,1996/1/1,,,0,0,0,0,0,0.00,,,,0,0,Free State Archives Depot,,,,,,,0,,
15340501,0797417397,Letters from America: An African's View of American Culture,9780797417397,,,,ES,,,,false,1,15340501,1,0,0,0,,,,0,0,0,0,0,0.00,,,,0,0,K. Nyamayaro Mufuka,,,,,,1,0,,
15341001,0798601086,"Gebeure En Ontwikkelinge in Afrika,",9780798601085,,,,ES,1974/1/1,Haum,,false,1,15341001,0,0,0,0,1974/1/1,,,0,0,0,0,0,0.00,288,Hardcover,,0,0,P.J. Coertze,,,,,,,0,,
15341501,0448032090,Illustrated Treasury of Child GB,9780448032092,,,,ES,,,,false,1,15341501,0,0,0,0,,,,0,0,0,0,0,0.00,,,,0,0,Martignoni,,,,,,,0,,
15342001,0910249024,Middle Ordovician Carbonate Shelf to Deep Water Basin Deposition in the Southern Appalachians,9780910249027,,,,ES,1980/10/1,University of Tennessee Press,,false,1,15342001,1,5,1,0,1980/10/1,,,1,0,0,0,0,5.00,120,Paperback,,1,0,,,,"F.B. Keller,K.R. Walker,T.W. Broadhead",,,,0,,
15343001,0821810243,Structure of Algebras,9780821810248,,,,ES,1939/1/1,American Mathematical Society(RI),,false,1,15343001,1,0,0,0,1939/1/1,,,0,0,0,0,0,0.00,210,Paperback,,0,0,Abraham A. Albert,,,,,,,0,,
15343501,0613529693,Bird,9780613529693,,,,ES,2001/10/31,Turtleback Books,,false,2,15343501,0,0,0,0,2001/10/31,,,0,0,0,0,0,0.00,32,Hardcover,,0,0,Bobbie Kalman,,,,,,,0,,
15344001,0801005515,Sermons for Revival Preaching,9780801005510,,,,ES,,,,false,1,15344001,0,0,0,0,,,,0,0,0,0,0,0.00,,,,0,0,James H. Bolick,,,,,,,0,,
15344501,0613542142,Experiments with Sound,9780613542142,,,,ES,2002/3/1,Turtleback Books,,false,1,15344501,0,0,0,0,2002/3/1,,,0,0,0,0,0,0.00,,Hardcover,,0,0,S. Tocci,,,,,,,0,,
15345001,0801023416,Cruden's Concordance,9780801023415,,,,ES,,,,false,2,2080464,25,15,3,1,1987/12/31,Cruden's Concordance (Bible Reference Library),,3,0,0,0,0,5.00,,,,0,1,Alexander Cruden,,,,,,7,0,,"non-fiction,spirituality"
15345501,0801042305,An Exposition of the First Epistle to the Corinthians,9780801042300,,,,ES,,,,false,19,889885,57,40,11,2,1969/1/1,,,3,4,2,1,1,3.64,,,,0,0,Charles Hodge,,,,,,21,1,1,"christian,fiction,non-fiction,reference,theology"
15346001,0613587278,Robotics,9780613587273,,,,ES,2005/12/2,Turtleback Books,,false,1,15346001,0,0,0,0,2002/9/1,,,0,0,0,0,0,0.00,48,Hardcover,,0,0,M. Beyer,,,,,,,0,,
15346501,0911772502,The Beginnings of Musical Nationalism in Brazil,9780911772500,,,,ES,1971/7/1,"Information Coordinators, Incorporated",,false,1,15346501,0,0,0,0,1971/7/1,,,0,0,0,0,0,0.00,43,Paperback,,0,0,Gérard Béhague,,,,,,,0,,
15347001,0911903143,Uncle Scrooge #319,9780911903140,,,,ES,2003/7/20,Gemstone Publishing,eng,false,1,15347001,5,10,2,0,2003/7/7,,book,2,0,0,0,0,5.00,,Paperback,,2,0,Walt Disney Company,,,,,,3,0,,
15347501,0613609182,People of Florida,9780613609180,,,,ES,2002/9/1,Turtleback Books,,false,5,14438854,1,0,0,0,2002/9/1,,,0,0,0,0,0,0.00,,Hardcover,,0,0,Bob Knotts,,,,,,1,0,,
15348001,0912107294,ABC Consonants,9780912107295,,,,ES,,,,false,1,15348001,0,0,0,0,,,,0,0,0,0,0,0.00,,,,0,0,Lillian Lieberman,,,,,,,0,,
15348501,0449445038,Pyschic Frontiers of Medicine,9780449445037,,,,ES,,,,false,1,15348501,0,0,0,0,,,,0,0,0,0,0,0.00,,,,0,0,Bill D. Schul,,,,,,,0,,
15349001,0613645278,Inside an Egg,9780613645270,,,,ES,1982/5/1,Turtleback Books,,false,1,15349001,1,0,0,0,1982/5/1,,,0,0,0,0,0,0.00,,Hardcover,,0,0,S. Johnson,,,,,,1,0,,
15349501,0613672577,Cha-Cha-Cha En La Selva (the Aniaml Boogie) (Book and CD),9780613672573,,,,ES,2003/10/1,Turtleback Books,,false,23,825575,844,1733,426,55,2000/10/19,The Animal Boogie (Sing Along With Fred Penner),book,169,145,89,18,5,4.07,32,Hardcover,,1,0,Debbie Harter,,,,Yanitzia Canetti,,127,13,6,"animals,childrens,juvenile,music,picture-books,science"
15350001,0912678461,Songs for Jadina,9780912678467,,,,ES,1981/8/1,Greenfield Review Press,,false,1,15350001,0,0,0,0,1981/8/1,,,0,0,0,0,0,0.00,118,Paperback,,0,0,"Alan C. Lau,Ronald Tanaka",,,,,,,0,,
15350501,0912846135,Somebody Else's Nut Tree and Other Tales from Children,9780912846132,,,,ES,1971/11/1,Bookstore Press,,false,5,1806721,26,31,10,4,1971/11/1,Somebody Else's Nut Tree and Other Tales from Children,,2,0,6,1,1,3.10,45,Paperback,,0,0,Ruth Krauss,Maurice Sendak,,,,,12,2,,"fiction,picture-books"
15351001,0801631157,Methods for Teaching the Mildly Handicapped Adolescent,9780801631153,,,,ES,1980/1/1,Mosby,,false,1,15351001,1,0,0,0,1980/1/1,,,0,0,0,0,0,0.00,357,Unknown Binding,,0,0,George E. Marsh II,,,,,,1,0,,
15351501,0824008766,Walsh Colville Yng Mans,9780824008765,,,,ES,1974/4/1,Dissertations-G,,false,2,15351501,0,0,0,0,1974/4/1,,,0,0,0,0,0,0.00,7,Hardcover,,0,0,"Anna Maria Porter,Jessica Porter",,,,,,,0,,
15352001,0824014944,Nyt Book REV 1949 2 Vols,9780824014940,,,,ES,,,,false,1,15352001,0,0,0,0,,,,0,0,0,0,0,0.00,,,,0,0,The New York Times,,,,,,,0,,
15352501,0913610119,"Money: Its Origins, Development and Prospects",9780913610114,,,,ES,1999/8/1,American Institute for Economic Research,,false,1,15352501,0,0,0,0,1999/8/1,,,0,0,0,0,0,0.00,109,Paperback,,0,0,John H. Wood,,,,,,,0,,
15353001,0801974968,Chilton's Labor Guide and Parts Manual 1979-1985,9780801974960,,,,ES,1985/1/1,Chilton Book Company,,false,1,15353001,0,0,0,0,1985/1/1,,,0,0,0,0,0,0.00,1632,Hardcover,,0,0,Chilton Automotive Books,,,,,,,0,,
15353501,0913878065,MIS: A Guide to Understanding,9780913878064,,,,ES,1975/12/1,Thomas Horton & Daughters,,false,1,15353501,1,0,0,0,1975/12/1,,,0,0,0,0,0,0.00,,Paperback,,0,0,"Joel E. Ross,Robert G. Murdick",,,,,,1,0,,
15354001,0824038681,Handel's Opera V8,9780824038687,,,,ES,1989/3/1,Garland Publishing,,false,1,15354001,0,0,0,0,1989/3/1,,,0,0,0,0,0,0.00,,Hardcover,,0,0,Georg Friedrich Händel,,,,,,,0,,
15354501,0802045847,Who's What in Canadian Who's Who,9780802045843,,,,ES,,,,false,1,15354501,0,0,0,0,,,,0,0,0,0,0,0.00,,,,0,0,,,,Kieran Simpson,,,,0,,
15355001,0914365002,Quality Time,9780914365006,,,,ES,,,,false,1,15355001,1,4,1,0,,,,0,1,0,0,0,4.00,,,,1,0,Tom Rochester,,,,,,,0,,
15355501,0802070450,Canadian House of Commons: Representation,9780802070456,,,,ES,1950/12/1,University of Toronto Press,,false,3,4630828,1,0,0,0,1950/12/1,The Canadian House of Commons: Essays in Honour of Norman Ward,,0,0,0,0,0,0.00,,Hardcover,,0,0,Norman Ward,,,,,,1,0,,politics
15356001,0613791789,Tornado,9780613791786,,,,ES,1997/5/1,Turtleback Books,,false,2,15356001,1,0,0,0,1997/5/1,,,0,0,0,0,0,0.00,,Hardcover,,0,0,Stephen Kramer,,,,,,1,0,,
15356501,091487215X,Industrial Organizations: Selected Readings,9780914872153,,,,ES,,,,false,1,15356501,0,0,0,0,,,,0,0,0,0,0,0.00,,,,0,0,George Hall Rice,,,,,,,0,,
15357001,0915046113,Jack London by Himself,9780915046119,,,,ES,1973/7/1,Wolf House Books,,false,1,15357001,5,6,2,0,1973/7/1,,,1,0,0,0,1,3.00,8,Paperback,,2,0,Jack London,,,,,,2,0,,
15357501,0824181581,The Concise Medical Encyclopedia,9780824181581,,,,ES,,,,false,1,15357501,1,0,0,0,,,,0,0,0,0,0,0.00,,,,0,0,,,,Jacob C. Handelsman,,,1,0,,
15358001,0915400391,Guide to Corporate Giving in the Arts,9780915400393,,,,ES,,,,false,1,15358001,0,0,0,0,,,,0,0,0,0,0,0.00,,,,0,0,,,,Robert A. Porter,,,,0,,
15358501,0915616041,The Video Handbook,9780915616046,,,,ES,,,,false,1,15358501,3,0,0,0,,,,0,0,0,0,0,0.00,,,,0,0,Videography Magazine,,,,,,2,0,,
15359501,0451925718,NOT A BOOK: Stephen King 58,9780451925718,,,,ES,1991/10/15,Signet,,false,2,15359501,34,23,6,0,1991/10/15,,book,0,5,1,0,0,3.83,,NOT A BOOK,,6,0,NOT A BOOK,,,,,,27,0,,
15360001,0824815726,Arjona: A Biblio. of Pedagogy,9780824815721,,,,ES,,,,false,1,15360001,0,0,0,0,,,,0,0,0,0,0,0.00,,,,0,0,Etilvia Arjona-Tseng,,,,,,,0,,
15360501,0613880730,Pearl's Eight Days of Chanukah,9780613880732,,,,ES,2003/10/1,Turtleback Books,,false,4,1271330,25,26,7,1,1998/10/1,Pearl's Eight Days Of Chanukah: With A Story and Activity for Each Night,,2,1,4,0,0,3.71,40,Hardcover,,0,0,Jane Breskin Zalben,,,,,,6,2,,"christmas,picture-books"
15361001,0824953924,When I Grow Up,9780824953928,,,,ES,2001/9/1,Ideals Publications,,false,6,8561120,37,49,12,1,1995/8/1,,,5,3,4,0,0,4.08,,Hardcover,,0,0,P.K. Hallinan,,,,,,15,1,2,picture-books
15361501,0916456072,Mostly Me,9780916456078,,,,ES,,,,false,1,15361501,1,3,1,0,,,,0,0,1,0,0,3.00,,,,1,0,"Don Mitchell,Gary Grimm",,,,,,,0,,
15362001,0916654133,Directory of Executive Recruiters,9780916654139,,,,ES,,,,false,1,15362001,0,0,0,0,,,,0,0,0,0,0,0.00,,,,0,0,Consultants News,,,,,,,0,,
15362501,0825602246,Bluegrass Masters: Kenny Baker Fiddle,9780825602245,,,,ES,1979/12/1,Omnibus Press,,false,1,15362501,1,5,1,0,1979/12/1,,book,1,0,0,0,0,5.00,,Paperback,,1,0,David     Brody,,,,,,,0,,
15363001,0916812294,Code of Rhode Island Rules,9780916812294,,,,ES,,,,false,1,15363001,0,0,0,0,,,,0,0,0,0,0,0.00,,,,0,0,Inc Staff Weil Publishing Co,,,,,,,0,,
15363501,0803708440,The Unicorn and the Lake,9780803708440,,,,ES,1990/9/4,Puffin Books,,false,7,499268,479,844,201,24,1982/1/1,The Unicorn and the Lake,book,97,60,33,9,2,4.20,32,Paperback,,0,0,Marianna Mayer,Michael Hague,,,,,205,5,3,"animals,childrens,fairy-tales,fantasy,fiction,non-fiction,picture-books"
15364001,0613922638,History of Environmental Politics Since 1945,9780613922630,,,,ES,2000/10/1,Turtleback Books,,false,4,3663897,16,14,4,0,2000/1/1,A History of Environmental Politics Since 1945 (History),,0,2,2,0,0,3.50,,Hardcover,,0,0,Samuel P. Hays,,,,,,10,2,,politics
15364501,0613928121,Teen Dream Jobs: How to Find the Job You Really Want Now!,9780613928120,,,,ES,2004/3/1,Turtleback Books,,false,2,662477,7,0,0,0,2003/4/1,Teen Dream Jobs: How to Find the Job You Really Want Now!,,0,0,0,0,0,0.00,132,Hardcover,,0,0,Nora E. Coon,,,,,,5,1,,
15365001,0803823150,Folk Art of Europe,9780803823150,,,,ES,,,,false,1,15365001,0,0,0,0,,,,0,0,0,0,0,0.00,,,,0,0,"Helmuth Theodor Bossert,Hulmuth T. Bossert",,,,,,,0,,
15365501,0803904118,Dimensions of Mass Involvement in Botswana Politics: A Test of Alternative Theories,9780803904118,,,,ES,,,,false,1,15365501,0,0,0,0,,,,0,0,0,0,0,0.00,,,,0,0,John D. Holm,,,,,,,0,,
15366001,045955252X,Banks on Using a Law Library: A Canadian Guide to Legal Research,9780459552527,,,,ES,,,,false,3,15366001,0,0,0,0,2004/2/6,,,0,0,0,0,0,0.00,,,,0,0,Margaret A. Banks,,,,,,,0,,
15366501,0803914466,"Partisan Realignment: Voters, Parties, and Government in American History",9780803914469,,,,ES,1980/9/1,"Sage Publications, Inc",,false,3,4367250,1,0,0,0,1980/9/1,"Partisan Realignment: Voters, Parties and Government in American History/Westview Encore Edition",,0,0,0,0,0,0.00,304,Paperback,,0,0,Jerome M. Clubb,,,,,,1,0,,
15367001,0803918577,Reaching the Underserved: Mental Health Needs of Neglected Populations,9780803918573,,,,ES,1982/11/1,"Sage Publications, Inc",,false,2,15367001,1,0,0,0,1982/11/1,,,0,0,0,0,0,0.00,298,Paperback,,0,0,Lonnie R. Snowden,,,,,,1,0,,
15367501,0827316763,Arithmetic for Careers,9780827316768,,,,ES,,,,false,1,15367501,0,0,0,0,,,,0,0,0,0,0,0.00,,,,0,0,St Paul Area Technical Vocational Instit,,,,,,,0,,
15368001,0465017924,Economics Of Bargaining,9780465017928,,,,ES,1969/1/21,Basic Books,,false,1,15368001,1,0,0,0,,,book,0,0,0,0,0,0.00,247,Hardcover,,0,0,John G. Cross,,,,,,1,0,,
15368501,0827371977,Clinical Chemistry,9780827371972,,,,ES,2000/11/1,Delmar,,false,1,15368501,0,0,0,0,2000/11/1,,,0,0,0,0,0,0.00,255,Paperback,,0,0,Theresa Dean,,,,,,,0,,
15369001,091994812X,The Blasty Bough,9780919948129,,,,ES,1976/1/1,Breakwater Books,,false,2,15368999,0,0,0,0,1976/1/1,,,0,0,0,0,0,0.00,219,Unknown Binding,,0,0,,,Clyde Rose,,,,,0,,
15369501,092042418X,Bushed,9780920424186,,,,ES,1979/1/1,York Publishing Company,,false,2,15369505,2,5,1,0,,,,1,0,0,0,0,5.00,221,Hardcover,,0,0,Ken Stange,,,,,,1,0,,
15370001,082852632X,Keynesianism Today,9780828526326,,,,ES,,,,false,1,15370001,1,0,0,0,,,,0,0,0,0,0,0.00,,,,0,0,I. Osadchaya,,,,,,1,0,,
15370501,0615000231,Dashiell Hammett: Five Complete Novels: Red Harvest / The Dain Curse / The Maltese Falcon / The Glass Key / The Thin Man,9780615000237,,,,ES,1986/9/24,,,false,2,15370501,5,5,1,0,,,,1,0,0,0,0,5.00,,,The Great Masters Library,1,0,Dashiell Hammett,,,,,,3,0,,mystery
15371001,0828870845,Ficciones,9780828870849,,,,ES,1990/12/1,French & European Publications Inc,,false,161,426504,92982,185296,41590,1963,1944/1/1,Ficciones,book,25691,10823,3754,965,357,4.46,204,Hardcover,,0,0,Jorge Luis Borges,,,,,,43227,161,2333,"classics,fantasy,fiction,literary-fiction,literature,magical-realism,modern-classics,novels,philosophy,poetry,science-fiction,short-stories,speculative-fiction,unfinished"
15371501,0470216964,Communicating Science: A Handbook,9780470216965,,,,ES,1991/3/1,Longman Scientific and Technical,,false,2,15371501,0,0,0,0,1991/3/1,,,0,0,0,0,0,0.00,186,Paperback,,0,0,"Jane Gregory,Michael Shortland",,,,,,,0,,
15372001,0829008284,"Queen Elizabeth in Drama,&",9780829008289,,,,ES,1970/1/1,Irvington Publishers,,false,3,15372001,0,0,0,0,1950/6/1,,,0,0,0,0,0,0.00,212,Hardcover,,0,0,"Boas,Frederick S. Boas",,,,,,,0,,
15372501,0829021205,Golden Dreams and Leaden Realities,9780829021202,,,,ES,,,,false,9,15372501,0,0,0,0,2010/8/31,,,0,0,0,0,0,0.00,,,,0,0,George Payson,,,,,,,0,,
15373001,0829405852,The Idea of a University,9780829405859,,,,ES,1987/6/1,Loyola Press,,false,101,449250,2522,2458,595,33,1873/1/1,The Idea of a University: Defined and Illustrated in Nine Discourses Delivered to the Catholics of Dublin in Occasional Lectures and Essays Addressed to ... the (Notre Dame Series in the Great Books),book,265,196,91,33,10,4.13,498,Hardcover,,0,0,John Henry Newman,,,Daniel M. O'Connell,,,1646,18,91,"academic,christian,christianity,classics,college,cultural,education,essays,history,non-fiction,philosophy,psychology,reference,religion,science,teaching,theology,victorian"
15373501,0927024063,Early Learning Shape Book: El Libro de Figuras Geometricas,9780927024068,,,,ES,,,,false,1,15373501,0,0,0,0,,,,0,0,0,0,0,0.00,,,,0,0,Nancy Palumbo,Judith Weaver,,,,,,0,,
15374001,0804693064,The Nationalization of the Bill of Rights: Fourteenth Amendment Due Process and Procedural Rights,9780804693066,,,,ES,,,,false,1,15374001,0,0,0,0,,,,0,0,0,0,0,0.00,,,,0,0,Roald Y. Mykkeltvedt,,,,,,,0,,
15374501,0618104658,"A People and a Nation, Volume 2 Sixth Edition and Atlas +@ History CD-ROM",9780618104659,,,,ES,2000/4/25,Houghton Mifflin,,false,1,15374501,0,0,0,0,2000/4/25,,book,0,0,0,0,0,0.00,,,,0,0,Mary Beth Norton,,,,,,,0,,
15375001,0929548000,The World of Satellite TV,9780929548005,,,,ES,1988/10/1,M. Long Enterprises,,false,1,15375001,0,0,0,0,,,,0,0,0,0,0,0.00,,Paperback,,0,0,"Jeffrey Keating,Mark Long",Steven Hunt,,,,,,0,,
15375501,0618130705,College Algebra and Trigonometry Student Solutions Manual,9780618130702,,,,ES,2002/1/14,Houghton Mifflin,,false,1,15375501,0,0,0,0,2002/1/14,,book,0,0,0,0,0,0.00,,Paperback,Fourth Edition,0,0,Richard N. Aufmann,,,,,,,0,,
15376001,0618140557,"Organic Chemistry and Study Guide, Fourth Edition and Chemistry Office Limited [With CDROM]",9780618140558,,,,ES,,,,false,1,15376001,0,0,0,0,,,,0,0,0,0,0,0.00,,,,0,0,Seyhan N. Ege,,,,,,,0,,
15376501,061815003X,Heath Literature Sixth Edition and Raimes Pocket Keys,9780618150038,,,,ES,2000/12/14,Houghton Mifflin,,false,1,15376501,0,0,0,0,2000/12/14,,,0,0,0,0,0,0.00,,,,0,0,Landy,,,,,,,0,,
15377001,093030215X,California Public Administration,9780930302153,,,,ES,,,,false,2,15377009,1,0,0,0,,,,0,0,0,0,0,0.00,,,,0,0,"Ed Salzman,T.A. Quinn",,,,,,1,0,,
15377501,0471072702,Trigonometry,9780471072706,,,,ES,1955/5/15,John Wiley & Sons,,false,1,15377501,0,0,0,0,1955/5/15,,,0,0,0,0,0,0.00,390,Hardcover,,0,0,R. Dubisch,,,,,,,0,,
15378001,0618189106,American Experiment with History User Guide CD-ROM and Student CD-ROM Windows 1995,9780618189106,,,,ES,2001/5/9,Houghton Mifflin,,false,15,4755742,21,27,7,1,2001/2/14,The American Experiment:  A History of the United States,book,2,2,3,0,0,3.86,,,,0,0,Steven M. Gillon,,,,,,7,0,,"american-history,historical,history"
15378501,0618208674,"Calculus and Student Study Guide, Volume 2, Seventh Edition and Graphing Tech Guide and Smart Thinking [With CDROM]",9780618208678,,,,ES,,,,false,1,15378501,1,0,0,0,,,,0,0,0,0,0,0.00,,,,0,0,Ron Larson,,,,,,1,0,,
15379001,0830905952,The New Testament of Our Lord and Savior Jesus Christ with the Book of Psalms: An Inspired Revision of the Authorized Version,9780830905959,,,,ES,,,,false,6,682882,460,866,185,3,1970/6/1,Joseph Smith's New Translation of the Bible,book,153,16,9,3,4,4.68,,,,0,0,Joseph Smith Jr.,,,,,,112,4,132,"biography,christian,non-fiction,poetry,reference,religion,spirituality"
15379501,0931207568,Nursing Home Task Force Report,9780931207563,,,,ES,1998/1/1,National Hospice Organization,,false,1,15379501,0,0,0,0,1998/1/1,,,0,0,0,0,0,0.00,88,Unknown Binding,,0,0,National Hospice Organization,,,,,,,0,,
15380001,0831756357,Birds of Prey: Hunters of the Sky,9780831756352,,,,ES,,,,false,6,6651664,13,24,6,0,1992/9/1,Birds of Prey: Hunters of the Sky,,1,4,1,0,0,4.00,,,,0,0,Alan Richards,,,,,,1,0,,"animals,nature,non-fiction"
15380501,0471203416,"Model-Driven Development: Automating Component Design, Implementation, and Assembly",9780471203414,,,,ES,2005/12/6,John Wiley & Sons,,false,1,15380501,0,0,0,0,2005/12/6,,,0,0,0,0,0,0.00,208,Paperback,,0,0,Jack Greenfield,,,,,,,0,,
15381001,061827510X,"Major Problems in American History, Volume One and Two, and Generic History CD-ROM Two Point Zero",9780618275106,,,,ES,2002/3/27,Houghton Mifflin,,false,1,15381001,0,0,0,0,2002/3/27,,,0,0,0,0,0,0.00,,,,0,0,Cobbs,,,,,,,0,,
15381501,0618291555,"Making America, Volume Two, Third Edition, and Study Guide Volume Two, Web Cardwith Wheeler: Discovering Americas Past, Volume Two, Fifth Edition",9780618291557,,,,ES,2002/8/1,Houghton Mifflin,,false,1,15381501,0,0,0,0,2002/8/1,,,0,0,0,0,0,0.00,,,,0,0,Carol Berkin,,,,,,,0,,
15382001,093200718X,Solid Modeling for Engineering & Manufacturing Applications: A Report & Buyer's Guide,9780932007186,,,,ES,,,,false,1,15382001,0,0,0,0,,,,0,0,0,0,0,0.00,,,,0,0,Robert H. Johnson,,,,,,,0,,
15382501,0805453210,So You're Going to College,9780805453218,,,,ES,,,,false,1,15382501,0,0,0,0,,,,0,0,0,0,0,0.00,,,,0,0,Ed Seabough,,,,,,,0,,
15383001,0471373044,Mathematics for Elementary Teachers with Student Resource Handbook Set,9780471373049,,,,ES,2002/6/21,John Wiley & Sons,,false,1,15383001,1,3,1,0,,,,0,0,1,0,0,3.00,1416,Hardcover,,1,0,Gary L. Musser,,,,,,,0,,
15383501,0932526268,Desire: The Collective Unconscious,9780932526267,,,,ES,,,,false,1,15383501,1,0,0,0,,,,0,0,0,0,0,0.00,,,,0,0,Telfer Stokes,,,,,,,0,,
15384001,0833592734,Colonial Life,9780833592736,,,,ES,1992/1/1,Turtleback Books,,false,4,6881602,68,116,29,3,1992/1/1,,,7,15,7,0,0,4.00,,Hardcover,,0,0,Bobbie Kalman,,,,,,20,2,1,"american-history,childrens,history,middle-grade,non-fiction,picture-books,school"
15384501,0471517607,"Principles of Accounting, 3rd Edition. Text and Wkg Ppr",9780471517603,,,,ES,1989/9/1,John Wiley & Sons,,false,1,15384501,7,13,3,0,1989/9/1,,,1,2,0,0,0,4.33,,Paperback,,3,0,"John G. Helmkamp,Leroy F. Imdieke,Ralph E. Smith",,,,,,4,0,,
15385001,0933070020,Aspects of Altaic Civilization II: Proceedings,9780933070028,,,,ES,,,,false,1,15385001,0,0,0,0,,,,0,0,0,0,0,0.00,,,,0,0,Permanent International Altaistic Confer,,,"Larry V. Clark,Paul A. Draghi",,,,0,,
15385501,0471546879,Employee Dismissal Law and Practice,9780471546870,,,,ES,1992/1/1,John Wiley & Sons,,false,2,15385501,8,5,1,0,1992/1/1,,,1,0,0,0,0,5.00,2,Unknown Binding,,1,0,Henry H. Perritt Jr.,,,,,,3,0,,
15386001,061846168X,Western Society Volume B Plus Study Guide Volume 2 7th Edition Plus Wiesner Discovering West Past Volume 2 5th Edition Plus Atlas,9780618461684,,,,ES,2003/10/20,Houghton Mifflin,,false,1,15386001,0,0,0,0,2003/10/20,,,0,0,0,0,0,0.00,,,,0,0,John P. McKay,,,,,,,0,,
15386501,0618468978,Raimes Keys for Writers MLA Update with Webcard Third Edition Plus Ahd Compact Dictionary,9780618468973,,,,ES,2003/11/10,Houghton Mifflin,,false,1,15386501,0,0,0,0,2003/11/10,,,0,0,0,0,0,0.00,,,,0,0,Ann Raimes,,,,,,,0,,
15387001,0471592153,Alternative Dispute Resolution in the Construction Industry. 1993 Cumulative Supplement,9780471592150,,,,ES,1992/11/1,John Wiley & Sons,,false,2,15385994,0,0,0,0,,,,0,0,0,0,0,0.00,88,Hardcover,,0,0,,,,"G. Christian Hedemann,Robert F. Cushman",,,,0,,
15387501,0471609064,"Purchase and Sale of Small Businesses: Tax and Legal Aspects, 1988 Cumulative Supplement",9780471609063,,,,ES,,,,false,7,4069078,0,0,0,0,1985/6/19,Purchase and Sale of Small Businesses (Business Practice Library),,0,0,0,0,0,0.00,,,,0,0,Marc J. Lane,,,,,,,0,,
15388001,0618663533,"Making America, Complete, Brief, 2nd Edition Plus Binder, the Way We Lived, Volume 1&2, 5th Edition",9780618663538,,,,ES,2005/3/24,Houghton Mifflin,,false,8,2130221,17,22,7,0,2000/8/9,"Making America: A History of the United States, Brief Edition",book,1,2,2,1,1,3.14,,,,0,0,Carol Berkin,,,,,,6,1,,
15388501,080622178X,"Mules, Donkeys & Burros",9780806221786,,,,ES,,,,false,1,15388501,0,0,0,0,,,,0,0,0,0,0,0.00,,,,0,0,James M. Davis,,,,,,,0,,
15389001,0619044675,New Perspectives on MS Excel 2,9780619044671,,,,ES,2001/10/1,Course Technology,,false,1,15389001,0,0,0,0,2001/10/1,,,0,0,0,0,0,0.00,,Paperback,,0,0,,,Lisa Friedrichsen,,,,,0,,
15389501,0934344027,Success Secrets,9780934344029,,,,ES,,,,false,1,15389501,0,0,0,0,,,,0,0,0,0,0,0.00,,,,0,0,Kenneth Macfarland,,,,,,,0,,
15390001,0620166649,The Swaziland Jumbo Tourist Guide: A Travel Guide for Tourists and Visitors to the Kingdom of Swaziland,9780620166645,,,,ES,1992/1/1,R.O. Hussey & Co.,,false,1,15390001,0,0,0,0,1992/1/1,,,0,0,0,0,0,0.00,160,Unknown Binding,,0,0,Hazel A. Hussey,,,,,,,0,,
15391001,0934829438,Public Relations Career Directory,9780934829434,,,,ES,,,,false,1,15391001,0,0,0,0,,,book,0,0,0,0,0,0.00,,,,0,0,Ron Fry,,,,,,,0,,
15391501,0631131582,Modern Macroeconomic Theory,9780631131588,,,,ES,,,,false,1,15391501,0,0,0,0,,,,0,0,0,0,0,0.00,,,,0,0,European University Institute,,,,,,,0,,
15392501,0836421418,Ancient Bundelkhand,9780836421415,,,,ES,,,,false,1,15392501,0,0,0,0,,,,0,0,0,0,0,0.00,,,,0,0,K.K. Shah,,,,,,,0,,
15393001,0631179038,Russia in the Modern World: A New Geography,9780631179030,,,,ES,1999/3/22,Wiley-Blackwell,,false,1,15393001,0,0,0,0,1999/3/22,,,0,0,0,0,0,0.00,314,Hardcover,,0,0,Denis Shaw,,,,,,,0,,
15393501,0836849280,People We Should Know Set,9780836849288,,,,ES,,,,false,5,7263270,0,0,0,0,,,,0,0,0,0,0,0.00,,,,0,0,Jonatha A. Brown,,,,,,,0,,
15394001,0836880668,Staying Safe on My Bike,9780836880663,,,,ES,2007/1/1,Weekly Reader Early Learning Library,,false,3,7148139,4,9,4,0,2007/1/1,,,0,0,1,3,0,2.25,24,Paperback,,0,0,Joanne Mattern,,,,,,,0,,
15394501,0632026650,Managing Software: The Businessman's Guide to Software Development,9780632026654,,,,ES,,,,false,1,15394501,0,0,0,0,,,book,0,0,0,0,0,0.00,,,,0,0,Anthony Kenny,,,,,,,0,,
15395001,0936996234,A Manual of Aacr 2 Advanced Examples,9780936996233,,,,ES,,,,false,1,15395001,0,0,0,0,,,,0,0,0,0,0,0.00,,,,0,0,,,,Edward Swanson,,,,0,,
15395501,0807595187,Picture Book of Kansas,9780807595183,,,,ES,,,,false,1,15395501,0,0,0,0,,,,0,0,0,0,0,0.00,,,,0,0,Bernadine Bailey,Kurt Wiese,,,,,,0,,
15396001,0937506184,Turbine Steam Path Components,9780937506189,,,,ES,,,,false,1,15396001,2,4,1,0,,,,0,1,0,0,0,4.00,,,,1,0,William P. Sanders,,,,,,1,0,,
15396501,0642232040,National Aboriginal and Torres Strait Islander Survey 1994: An Evaluation of the Survey,9780642232045,,,,ES,,,,false,1,15396501,0,0,0,0,,,,0,0,0,0,0,0.00,,,,0,0,Australian Bureau of Statistics,,,,,,,0,,
15397001,0837606152,Diesel Fuel Injection Systems Unit Injector System: Bosch Technical Instruction,9780837606156,,,,ES,2000/3/1,Robert Bosch GmbH,,false,1,15397001,3,5,1,0,2000/3/1,,,1,0,0,0,0,5.00,73,Paperback,,1,0,Robert Bosch,,,,,,1,0,,
15397501,0644045035,Dolphins & Whales in Captivity,9780644045032,,,,ES,1984/12/1,Australian Government Publishing Service,,false,1,15397501,0,0,0,0,1984/12/1,,,0,0,0,0,0,0.00,,Hardcover,,0,0,Government of Australia,,,,,,,0,,
15398001,0838428487,Methods That Work,9780838428481,,,,ES,1983/1/1,Heinle & Heinle Publishers,,false,1,15398001,3,0,0,0,1983/1/1,,,0,0,0,0,0,0.00,,Paperback,,0,0,John W. Oller Jr.,,,,,,3,0,,
15398501,0644475978,Atlas of the Australian People--1991 Census,9780644475976,,,,ES,1997/1/1,Australian Government Publishing Service,,false,1,15398501,0,0,0,0,1997/1/1,,,0,0,0,0,0,0.00,195,Hardcover,,0,0,Andrew Beer,,,,,,,0,,
15399001,0808090151,Estate Planning Supplement,9780808090151,,,,ES,2006/6/1,CCH Incorporated,,false,1,15399001,0,0,0,0,2006/6/1,,book,0,0,0,0,0,0.00,,Unbound,,0,0,"A. James Casner,Jeffrey N. Pennell",,,,,,,0,,
15399501,0838516106,Dignostic Imaging Eye Orbit and Visual Pathway,9780838516102,,,,ES,,,,false,1,15399501,0,0,0,0,,,,0,0,0,0,0,0.00,,,,0,0,Alfred L. Weber,,,,,,,0,,
15400001,0660164760,Canadian National Child Care Study: An Interprovincial Report on Child Care in Canada,9780660164762,,,,ES,1997/1/1,Statistics Canada,,false,2,15400001,0,0,0,0,1997/1/1,,,0,0,0,0,0,0.00,104,Unknown Binding,,0,0,,,Alan Pence,,,,,0,,
15400501,0662001389,Final Report to the National Librarian of Canada,9780662001386,,,,ES,,,,false,1,15400501,0,0,0,0,,,,0,0,0,0,0,0.00,,,,0,0,National Library of Canada,,,,,,,0,,
15401001,0662161742,"The Active Health Report on Seniors: Active Health Report: What We Think, What We Know, What We Do",9780662161745,,,,ES,1989/1/1,Health and Welfare Canada,,false,1,15401001,0,0,0,0,1989/1/1,,,0,0,0,0,0,0.00,24,Hardcover,,0,0,,,Government of Canada,,,,,0,,
15401501,0662251946,Gambling in Canada: A Report,9780662251941,,,,ES,1996/1/1,Canadian Government Publishing,,false,1,15401501,0,0,0,0,1996/1/1,,,0,0,0,0,0,0.00,73,Unknown Binding,,0,0,National Research Council,,,,,,,0,,
15402001,0940009056,Larry Rast's Video Piano Course,9780940009059,,,,ES,,,,false,2,15402001,0,0,0,0,,,,0,0,0,0,0,0.00,,,,0,0,Lawrence Robert Rast,,,,,,,0,,
15402501,066262842X,Report of the Commissioner of the Environment and Sustainable Development to the House of Commons,9780662628422,,,,ES,1997/1/1,Office of Auditor General,,false,2,15402501,103,0,0,0,1997/1/1,,,0,0,0,0,0,0.00,18,Unknown Binding,,0,0,"Eric Rhodin,Government of Canada",,,,,,45,0,34,
15403001,0940500116,Non-Aligned Nations: Arms Race & Disarmaments,9780940500112,,,,ES,,,,false,1,15403001,0,0,0,0,,,,0,0,0,0,0,0.00,,,,0,0,"Attar Chand,Of America Library",,,,,,,0,,
15403501,0840353634,Skills for Communicating Effectively,9780840353634,,,,ES,,,,false,4,3051580,1,0,0,0,,Skills for Communicating Effectively,,0,0,0,0,0,0.00,,,,0,0,Richard L. Weaver II,,,,,,,0,,
15404001,0840359187,A Laboratory Manual of Living Organisms,9780840359186,,,,ES,,,,false,1,15404001,0,0,0,0,,,,0,0,0,0,0,0.00,,,,0,0,Roberta B. Williams,,,,,,,0,,
15404501,0840366434,Interviewing Principles and Practices: A Project Text,9780840366436,,,,ES,,,,false,3,15404501,0,0,0,0,,,,0,0,0,0,0,0.00,,,,0,0,Charles J. Stewart,,,,,,,0,,
15405001,0840373996,Chemical Principles,9780840373991,,,,ES,,,,false,1,15405001,0,0,0,0,,,,0,0,0,0,0,0.00,,,,0,0,Boikess-Edelson,,,,,,,0,,
15405501,0941916383,The Profoundly Injured Child,9780941916387,,,,ES,,,,false,1,15405501,0,0,0,0,,,,0,0,0,0,0,0.00,,,,0,0,Association Of Trial Lawyers Of America,,,,,,,0,,
15406001,0942218159,Uranium Resources of the Central & Southern Rockies,9780942218152,,,,ES,,,,false,1,15406001,0,0,0,0,,,,0,0,0,0,0,0.00,,,,0,0,Minobras,,,,,,,0,,
15406501,0840397224,German Verbs: Simple Past Tense,9780840397225,,,,ES,,,,false,1,15406501,0,0,0,0,,,,0,0,0,0,0,0.00,,,,0,0,Steven Guemann,,,,,,,0,,
15407001,0943001099,Survey of International Arbitration Sites,9780943001098,,,,ES,,,,false,1,15407001,0,0,0,0,,,,0,0,0,0,0,0.00,,,,0,0,American Arbitration Association,,,,,,,0,,
15407501,0840720416,"Contemporary English Version New Testament, Precious Moments-Protestant Ed.",9780840720412,,,,ES,1992/6/1,Nelsonword Publishing Group,,false,2,11508054,1,0,0,0,1992/6/1,,,0,0,0,0,0,0.00,,Hardcover,,0,0,,,,,,,1,0,,
15408001,0670244848,Craft and Character,9780670244843,,,,ES,,,,false,1,15408001,0,0,0,0,,,,0,0,0,0,0,0.00,,,,0,0,Morton Dauwen Zabel,,,,,,,0,,
15408501,0670323616,Forest Folk,9780670323616,,,,ES,,,,false,3,9562699,4,0,0,0,1962/1/1,,book,0,0,0,0,0,0.00,,,,0,0,"Conrad Buff,Mary Buff",,,,,,3,0,,non-fiction
15409001,0944187390,"Greater Burlington and Chittenden County: Road Map, Featuring New E911 Road Names and Much More",9780944187395,,,,ES,,,,false,1,15409001,0,0,0,0,,,,0,0,0,0,0,0.00,,,,0,0,Northern Cartographics,,,,,,,0,,
15409501,0944513034,Thoroughbreds,9780944513033,,,,ES,,,,false,1,15409501,1,0,0,0,,,,0,0,0,0,0,0.00,,,,0,0,"Alvin F. Staufer,Edward L. May",,,,,,1,0,,
15410001,0670556114,Pioneer's Progress,9780670556113,,,,ES,,,,false,1,15410001,3,0,0,0,,,,0,0,0,0,0,0.00,,,,0,0,Alvin Johnson,,,,,,2,0,,
15410501,0841906076,Comecon Data 1979,9780841906075,,,,ES,,,,false,1,15410501,154,0,0,0,,,book,0,0,0,0,0,0.00,,,,0,0,,,,Vienna Institute for Comparative Economic Studies,,,55,0,44,
15411001,0945920121,"Archaeological & Historical Studies at Simpson Pass, Churchill County, Nevada",9780945920120,,,,ES,,,,false,1,15411001,0,0,0,0,,,,0,0,0,0,0,0.00,,,,0,0,"Alvin R. McLane,Eugene Hattori",,,,,,,0,,
15411501,094653537X,"SEI Concerti a Quattro Per Due Violini, Viola E Basso Solo, Opera VII",9780946535378,,,,ES,,,,false,1,15411501,0,0,0,0,,,,0,0,0,0,0,0.00,,,,0,0,Pietro Antonio Locatelli,,,,,,,0,,
15412001,0842341943,Masterpiece in Progress,9780842341943,,,,ES,1986/8/1,Tyndale House Publishers,,false,4,18055052,0,0,0,0,1986/8/1,,,0,0,0,0,0,0.00,289,Hardcover,,0,0,Jeff Steinberg,,,,,,,0,,
15412501,0948035625,More Profit from Your PC: How to Turn Your PC Into an Investment Powerhouse,9780948035623,,,,ES,,,,false,2,15412501,0,0,0,0,1998/9/1,,,0,0,0,0,0,0.00,,,,0,0,David Linton,,,,,,,0,,
15413001,0948929324,The Kiplingcotes Derby,9780948929328,,,,ES,,,,false,1,15413001,0,0,0,0,,,,0,0,0,0,0,0.00,,,,0,0,"Alison Ellerington,Allison Ellerington",,,,,,,0,,
15413501,0671046918,Gatekeeper Cassette,9780671046910,,,,ES,1999/7/1,Simon & Schuster Audio,,false,15,1233768,183,303,82,6,1997/1/1,Gatekeeper,,17,30,28,7,0,3.70,,Audio,,0,0,Philip Shelby,,,,,,52,5,1,"fiction,suspense,thriller"
15414001,0843144564,Mr. Men & Little Miss Display,9780843144567,,,,ES,,,,false,2,15414001,1,0,0,0,,,,0,0,0,0,0,0.00,,,,0,0,Roger Hargreaves,,,,,,,0,,
15414501,0951857517,Shoreline,9780951857519,,,,ES,1991/1/1,Lightfingers,,false,1,15414501,0,0,0,0,1991/1/1,,,0,0,0,0,0,0.00,48,Paperback,,0,0,Liam Blake,,,,,,,0,,
15415001,0843197943,Martian Wouldnt Say6c,9780843197945,,,,ES,,,,false,1,15415001,1,0,0,0,,,,0,0,0,0,0,0.00,,,,0,0,Unknown,,,,,,1,0,,
15415501,0958707960,Running Towards Sydney 2000: The Olympic Flame & Torch,9780958707961,,,,ES,,,,false,2,5754346,2,0,0,0,,,,0,0,0,0,0,0.00,,,,0,0,Janet Cahill,,,,,,2,0,,
15416001,0959998403,The Role and Functioning of Mass Communications in Australia,9780959998405,,,,ES,,,,false,1,15416001,0,0,0,0,,,,0,0,0,0,0,0.00,,,,0,0,Australian Council Of Salaried and Profe,,,,,,,0,,
15416501,0844243418,Careers for Music Lovers & Other Tuneful Types,9780844243412,,,,ES,1997/12/31,VGM Career Books,eng,false,3,5655363,5,3,1,0,1996/10/1,Careers for Music Lovers & Other Tuneful Types (Vgm Careers for You Series),book,0,0,1,0,0,3.00,163,Paperback,,0,0,Jeff                                                 Johnson,,,,,,2,0,,
15417001,0960797009,"Classroom Computer News Directory of Educational Computing Resources, 1983",9780960797004,,,,ES,,,,false,1,15417001,0,0,0,0,,,,0,0,0,0,0,0.00,,,,0,0,,,,"Newton E. Key,Peter Kelman",,,,0,,
15417501,0961218827,Food Combining Simplified: Twenty-Eight Recipes Included,9780961218829,,,,ES,,,,false,1,15417501,0,0,0,0,,,,0,0,0,0,0,0.00,,,,0,0,Dennis Nelson,Peggy McCarty,,,,,,0,,
15418001,0671555065,Games Toddler Play,9780671555061,,,,ES,,,,false,1,15418001,0,0,0,0,,,,0,0,0,0,0,0.00,,,,0,0,Julie Hagstrom,,,,,,,0,,
15418501,0961723203,Aristotle's Secret,9780961723200,,,,ES,,,,false,1,15418501,0,0,0,0,,,,0,0,0,0,0,0.00,,,,0,0,Charles R. La Dow,,,,,,,0,,
15419001,0844808504,The Mammalian Alimentary System,9780844808505,,,,ES,1976/5/1,Taylor & Francis Group,,false,1,15419001,0,0,0,0,1976/5/1,,,0,0,0,0,0,0.00,195,Paperback,,0,0,David S. Madge,,,,,,,0,,
15419501,0671652583,You Don't Need an Enemy,9780671652586,,,,ES,1989/1/1,,,false,2,1151935,10,17,5,1,1971/1/1,You Don't Need An Enemy,book,1,1,2,1,0,3.40,222,Paperback,,2,0,Richard Martin Stern,,,,,,3,0,,mystery
15420001,8175660112,"Gupta-Lekhana, Eka Paricaya",9788175660113,,,,ES,,,,false,1,15420001,0,0,0,0,,,,0,0,0,0,0,0.00,,,,0,0,Dhurendra Kumara Garga,,,,,,,0,,
15420501,8176380962,Malayalam Malayaliyolam,9788176380966,,,,ES,,,,false,1,15420501,6,1,1,0,,,,0,0,0,0,1,1.00,,,,1,0,V.R. Prabodhachandran Nayar,,,,,,4,0,,
15421001,8185109990,"Land Forms, Hydrology & Sedimentation",9788185109992,,,,ES,,,,false,1,15421001,0,0,0,0,,,,0,0,0,0,0,0.00,,,,0,0,Dibakar Sahu,,,,,,,0,,
15421501,0962769118,"Collaboration in Print: Stewart & Stewart Prints, 1980-1990",9780962769115,,,,ES,1990/1/1,Washtenaw Community College Foundation,,false,1,15421501,1,0,0,0,1990/1/1,,,0,0,0,0,0,0.00,82,Unknown Binding,,0,0,,,Detroit Institute of Arts,,,,1,0,,
15422001,0848232992,Letters from America,9780848232993,,,,ES,1988/8/1,Norwood Editions,,false,42,1106608,137,172,50,5,1916/1/1,Letters from America,book,9,16,14,10,1,3.44,180,Hardcover,,0,0,Rupert Brooke,,,,,,57,5,11,"biography,biography-memoir,history,literature,non-fiction,poetry,travel"
15422501,8185843910,Chandogya Upanisad: Translated and with Notes Based on Sankara's Commentary,9788185843919,,,,ES,,,,false,1,15422501,1,4,1,0,,,,0,1,0,0,0,4.00,,,,1,0,Lokesvarananda,,,,,,,0,,
15423001,8186178406,Ropa Amrtace,9788186178409,,,,ES,,,,false,1,15423001,0,0,0,0,,,,0,0,0,0,0,0.00,,,,0,0,Pravina Davane,,,,,,,0,,
15423501,0849003636,History of the U. S. Post Office to 1829,9780849003639,,,,ES,,,,false,1,15423501,0,0,0,0,,,,0,0,0,0,0,0.00,,,,0,0,Wesley Rich,,,,,,,0,,
15424501,8187043474,Radha,9788187043478,,,,ES,,,,false,1,15424501,0,0,0,0,,,,0,0,0,0,0,0.00,,,,0,0,Sasi Khule,,,,,,,0,,
15425001,0671789988,Kojak: Gun Business,9780671789985,,,,ES,,,,false,1,15425001,2,5,1,0,,,,1,0,0,0,0,5.00,,,,1,0,Victor B. Miller,,,,,,1,0,,
15425501,0849364817,Smoking & Reproduction: An Annotated Bibliography,9780849364815,,,,ES,1984/3/26,CRC Press,,false,4,15425501,0,0,0,0,1984/3/26,,book,0,0,0,0,0,0.00,160,Hardcover,First,0,0,Ernest L. Abel,,,,,,,0,,
15426001,1580864120,"Energy, Forces and Motion [With Vinyl Bag]",9781580864121,,,,ES,,,,false,2,15426001,0,0,0,0,2002/9/1,,,0,0,0,0,0,0.00,,,,0,0,,,,,,,,0,,
15426501,0671846574,Mobil Travel Guide Southeast,9780671846572,,,,ES,1993/1/1,Prentice Hall,,false,3,15428035,0,0,0,0,1989/1/1,,,0,0,0,0,0,0.00,384,Paperback,,0,0,Mobil Travel,,,,,,,0,,
15427001,0671857649,Once a Hero,9780671857646,,,,ES,,,,false,23,222513,6228,19416,4787,104,1997/1/1,"Once a Hero (Serrano Legacy, Book 4)",book,1602,2016,1030,113,26,4.06,,,,0,0,Elizabeth Moon,,,,,,646,29,27,"action,adventure,fantasy,fiction,science,science-fiction,science-fiction-fantasy,speculative-fiction,war"
15427501,0964840405,Letters to My Patients: A Guide to Healthy & Happy Living,9780964840409,,,,ES,,,,false,1,15427501,6,6,2,0,1995/1/1,,,1,0,0,0,1,3.00,,,,2,0,Harlan O. Wright,,,,,,2,0,,
15428001,0671872435,Ryerson's Manhunt: Ryerson's Manhunt,9780671872434,,,,ES,1994/4/1,Pocket Books,,false,1,15428001,0,0,0,0,1994/4/1,,,0,0,0,0,0,0.00,216,Paperback,,0,0,R.C. House,,,,,,,0,,
15428501,0965249069,"Capturing the Aura: Integrating Science, Technology, and Metaphysics",9780965249065,,,,ES,2000/7/1,Blue Dolphin Publishing,,false,4,5315296,13,18,5,1,2000/6/1,"Capturing the Aura : Integrating Science, Technology and Metaphysics",,1,1,3,0,0,3.60,384,Paperback,,0,0,,,,C.E. Lindgren,,,7,0,,"philosophy,science"
15429001,8272183714,Kvinner I Mannsdominerte Yrker: En Analyse AV Yrkeskarriere Og Lnnsstruktur Blant Realister Og Sivilingenirer,9788272183713,,,,ES,,,,false,1,15429001,0,0,0,0,,,,0,0,0,0,0,0.00,,,,0,0,Clara Ase Arnesen,,,,,,,0,,
15429501,067193435X,Upon a Midnight Clear: An All-New Collection of Hearwarming Holiday Stories,9780671934354,,,,ES,,,,false,10,322610,3215,7658,1969,53,1997/1/1,Upon a Midnight Clear,book,645,610,586,107,21,3.89,,,,0,0,Jude Deveraux,,,,,,832,13,11,"adult,anthologies,chick-lit,christmas,contemporary,fiction,historical,historical-fiction,holiday,romance,short-stories"
15430501,0850720117,Designing for European Markets: A Management Guide,9780850720112,,,,ES,,,,false,1,15430501,0,0,0,0,,,,0,0,0,0,0,0.00,,,,0,0,Management Consultants Association,,,,,,,0,,
15431001,8301030089,"Applications of Systems Theory to Economics, Management, and Technology: Proceedings of the 5th Polish-Italian Symposium, Torun, June 11-16, 1980",9788301030087,,,,ES,,,,false,1,15431001,0,0,0,0,,,,0,0,0,0,0,0.00,,,,0,0,J. Gutenbaum,,,,,,,0,,
15431501,0672326434,The Art of Photoshop,9780672326431,,,,ES,2005/3/1,Sams,,false,5,3029675,45,94,24,0,2002/10/11,The Art of Photoshop,,10,6,5,2,1,3.92,288,Paperback,,0,0,Daniel Giordan,,,,,,4,0,,"art,non-fiction,reference"
15432001,0966761219,Lucky's Collectors Guide to 20th Century Yo-Yos: History and Values,9780966761214,,,,ES,,,,false,2,1893126,5,14,3,1,1999/4/1,Lucky's Collectors Guide to 20th Century Yo-Yos: History & Values,,2,1,0,0,0,4.67,,,,0,0,Lucky J. Meisenheimer,,,,,,,0,,
15432501,1582451338,Border Collie,9781582451336,,,,ES,,,,false,1,15432501,0,0,0,0,,,,0,0,0,0,0,0.00,,,,0,0,Howell Book House,,,,,,,0,,
15433001,0673154211,The Pursuit of Happiness,9780673154217,,,,ES,1981/1/1,Pearson Scott Foresman,,false,1,15433001,1,0,0,0,1981/1/1,,,0,0,0,0,0,0.00,176,Hardcover,,0,0,John Houston,,,,,,,0,,
15433501,8311089590,Walka O Niepodlegosc Otwy 1914-1921,9788311089594,,,,ES,,,,false,1,15433501,0,0,0,0,,,,0,0,0,0,0,0.00,,,,0,0,Tomasz Paluszynski,,,,,,,0,,
15434001,8321111963,Jestem Z Lwowskiego Etapu--,9788321111964,,,,ES,,,,false,1,15434001,0,0,0,0,,,,0,0,0,0,0,0.00,,,,0,0,Kazimierz Zygulski,,,,,,,0,,
15434501,0852294352,Compton's Encyclopedia and Fact-Index,9780852294352,,,,ES,,,,false,2,15434503,1,0,0,0,,,,0,0,0,0,0,0.00,,,,0,0,Comptons Learning Company,,,,,,1,0,,
15435001,8322421699,Kwartet Smyczkowy =: String Quartet,9788322421697,,,,ES,,,,false,1,15435001,0,0,0,0,,,,0,0,0,0,0,0.00,,,,0,0,Eugeniusz Knapik,,,,,,,0,,
15435501,0673463494,Hands-On PC Tools Deluxe,9780673463494,,,,ES,,,,false,2,15435469,0,0,0,0,1991/1/1,,,0,0,0,0,0,0.00,,,,0,0,John Paul Mueller,,,,,,,0,,
15436001,0852742088,"Ecology and Physiology of Parasites: A Symposium Held at University of Toronto, 19 and 20 February 1970",9780852742082,,,,ES,1971/1/1,Institute of Physics Publishing (GB),,false,1,15436001,0,0,0,0,1971/1/1,,,0,0,0,0,0,0.00,258,Hardcover,,0,0,,,University of Toronto,,,,,0,,
15436501,0673558738,I/M Managers Bookshelf,9780673558732,,,,ES,,,,false,1,15436501,1,3,1,0,,,,0,0,1,0,0,3.00,,,,1,0,"John W. Newstrom,Jon L. Pierce",,,,,,1,0,,
15437001,0673790908,People of the Earth,9780673790903,,,,ES,,,,false,2,15437001,5,8,2,0,1995/1/1,,book,1,0,1,0,0,4.00,,,,2,0,Fagan,,,,,,2,0,,
15437501,0852973608,Accountancy,9780852973608,,,,ES,,,,false,1,15437501,1,3,1,0,,,,0,0,1,0,0,3.00,,,,1,0,"Jonathan Evans,M. J. Henderson,Mike Henderson",,,,,,1,0,,
15438001,0673992578,Essentials of Psychology ESL Study Guide,9780673992574,,,,ES,,,,false,1,15438001,0,0,0,0,,,,0,0,0,0,0,0.00,,,,0,0,,,,Smith,,,,0,,
15438501,8323309949,"Nauka, Religia, Dzieje: Co to Znaczy Realnie Byc--?: VIII Seminarium Interdyscyplinarne W Castel Gandolfo, 8-10 Sierpnia 1995",9788323309949,,,,ES,1996/1/1,Jagiellonian University Press,,false,1,15438501,0,0,0,0,1996/1/1,,,0,0,0,0,0,0.00,216,Unknown Binding,,0,0,,,Jerzy A. Janik,,,,,0,,
15439001,0853346925,Examination & Analysis of Starch & Starch Products,9780853346920,,,,ES,1976/9/1,Springer,,false,1,15439001,0,0,0,0,1976/9/1,,,0,0,0,0,0,0.00,220,Hardcover,,0,0,,,,J.A. Radley,,,,0,,
15439501,0853454329,The Sugarmill,9780853454328,,,,ES,1978/10/1,Monthly Review Press,,false,1,15439501,2,5,1,0,,,,1,0,0,0,0,5.00,,Paperback,,1,0,Manuel M. Fraginals,,,,Cedric Belfrage,,1,0,,
15440001,8370592724,O Polsce Na Uchodzstwie: Rada Narodowa Rzeczypospolitej Polskiej 1939-1945,9788370592721,,,,ES,,,,false,1,15440001,0,0,0,0,,,,0,0,0,0,0,0.00,,,,0,0,Eugeniusz Duraczyński,,,,,,,0,,
15440501,0674402006,A History of the China International Famine Relief Commission,9780674402003,,,,ES,1965/1/1,Harvard University Press,,false,1,15440501,2,0,0,0,1965/1/1,,,0,0,0,0,0,0.00,114,Paperback,,0,0,Andrew J. Nathan,,,,,,2,0,,
15441001,140030413X,Mother's Memories to Her Child: A Journal of Faith and Love,9781400304134,,,,ES,2004/4/1,Tommy Nelson,,false,4,15441001,13,10,2,0,1999/4/15,,book,2,0,0,0,0,5.00,96,Hardcover,,2,0,,,,,,,2,0,,
15441501,0854404074,Poetry and the Art of Speech,9780854404070,,,,ES,,,,false,1,15441501,3,3,1,0,,,,0,0,1,0,0,3.00,,,,1,0,"Marie Steiner-Von Sivers,Rudolf Steiner",,,,Andrew Welburn,,,1,,
15442001,1400817897,My Own Private Germany: Daniel Paul Schreber's Secret History of Modernity,9781400817894,,,,ES,,,,false,9,1013090,95,121,28,6,1996/4/15,My Own Private Germany,book,13,11,4,0,0,4.32,,,,0,0,Eric L. Santner,,,,,,49,0,2,"grad-school,history,mental-illness,psychology"
15442501,1587201194,The Business Case for Network Disaster Recovery Planning,9781587201196,,,,ES,2005/6/1,Cisco Press,,false,1,15442501,0,0,0,0,,,,0,0,0,0,0,0.00,350,Paperback,,0,0,John R. Vacca,,,,,,,0,,
15443001,838532349X,Barometr Kultury,9788385323495,,,,ES,,,,false,1,15443001,0,0,0,0,,,,0,0,0,0,0,0.00,,,,0,0,Mirosawa Grabowska,,,,,,,0,,
15443501,0855640383,"Australian Economy, 1929-1969",9780855640385,,,,ES,,,,false,1,15443501,0,0,0,0,,,,0,0,0,0,0,0.00,,,,0,0,H. Burton,,,,,,,0,,
15444001,8385651101,Prawo O Ustroju Sadow Powszechnych: Wybor Przepisow,9788385651109,,,,ES,,,,false,1,15444001,0,0,0,0,,,,0,0,0,0,0,0.00,,,,0,0,Poland,,,,,,,0,,
15446001,8386330007,"Gdansk, Gdynia, Sopot, Plan Miasta, Skala 1:20 000: Spis Ulic, Komunikacja = City Plan",9788386330003,,,,ES,,,,false,1,15446001,1,0,0,0,,,,0,0,0,0,0,0.00,,,,0,0,Agencja Kartograficzna Interkart,,,,,,,0,1,
15446501,1588410080,Money for Graduate Students in the Humanities,9781588410085,,,,ES,,,,false,1,15446501,0,0,0,0,,,,0,0,0,0,0,0.00,,,,0,0,Gail Ann Schlachter,,,,,,,0,,
15447001,0677203705,Theoretical Mechanics,9780677203706,,,,ES,1967/1/1,Routledge,,false,1,15447001,0,0,0,0,1967/1/1,,,0,0,0,0,0,0.00,421,Hardcover,,0,0,S. M. Targ,,,,,,,0,,
15447501,1588516520,Love Bears All Things,9781588516527,,,,ES,2001/2/26,Publish America,,false,1,15447501,0,0,0,0,2001/2/26,,,0,0,0,0,0,0.00,336,Paperback,,0,0,Joyce Marie Pace,,,,,,,0,,
15448001,0679004408,Cag-Oregon 4th Edition,9780679004400,,,,ES,,,,false,1,15448001,0,0,0,0,,,,0,0,0,0,0,0.00,,,,0,0,Cmam,,,,,,,0,,
15448501,1403469245,Drawing,9781403469243,,,,ES,2005/8/25,Heinemann Educational Books,,false,9,13000616,9,5,1,1,2005/3/1,,book,1,0,0,0,0,5.00,24,Paperback,,0,0,Isabel Thomas,,,,,,3,2,,non-fiction
15449001,8387251100,Historia Gospodarcza Polski,9788387251109,,,,ES,1997/1/1,,,false,2,15449001,1,3,1,0,1997/1/1,,book,0,0,1,0,0,3.00,,,,1,0,"Andrzej Jezierski,Cecylia Leszczyńska",,,,,,,0,,
15449501,8387312320,"Kantor: Motywy Hiszpanskie W Tworczosci Tadeusza Kantora, Wystawa W Muzeum Narodowym W Krakowie = Motivos Espanoles En La Obra",9788387312329,,,,ES,,,,false,1,15449501,0,0,0,0,,,,0,0,0,0,0,0.00,,,,0,0,Tadeusz Kantor,,,,,,,0,,
15450001,1589527496,Monster Trucks,9781589527492,,,,ES,2004/1/1,Rourke Publishing (FL),,false,2,15450001,1,0,0,0,2004/1/1,,,0,0,0,0,0,0.00,,Hardcover,,0,0,Tracy Nelson Maurer,,,,,,,0,,
15451001,8388343033,"Homo Methodicus: Miedzy Filozofia, Humanistyka I Naukami Scisymi",9788388343032,,,,ES,,,,false,1,15451001,1,5,1,0,,,,1,0,0,0,0,5.00,,,,1,0,Lech Ostasz,,,,,,,0,,
15451501,8390117304,Powstania Slaskie I Plebiscyt W Procesie Zrastania Sie Gornego Slaska Z Macierza: Materiay Z Sesji Naukowej Historykow Powstan Slaskich I Plebiscytu Zorganizowanej W Dniach 24-25 Kwietnia 1991 Roku W Bytomiu Oraz Na Gorze SW. Anny: Praca Zbiorowa,9788390117300,,,,ES,1993/1/1,Muzeum Gaornoaslnaskie W Bytomiu,,false,1,15451501,0,0,0,0,1993/1/1,,,0,0,0,0,0,0.00,428,Unknown Binding,,0,0,,,Andrzej Brozek,,,,,0,,
15452001,8390246228,Ksiestwo Opolskie Za Czasow Jana Dobrego,9788390246222,,,,ES,,,,false,1,15452001,0,0,0,0,,,,0,0,0,0,0,0.00,,,,0,0,Stefan Baldy,,,,,,,0,,
15452501,8390409003,Wychowankowie Uniwersytetu Jagiellonskiego--Ofiary II Wojny Swiatowej: 1939-1945: Biogramy: Praca Zbiorowa,9788390409009,,,,ES,,,,false,1,15452501,0,0,0,0,,,,0,0,0,0,0,0.00,,,,0,0,Jozef Pietrusza,,,,,,,0,,
15453001,8390568357,Wizyty Apostolskie Jana Pawła II w Polsce: rozmowy przygotowawcze Watykan-PRL-Episkopat,9788390568355,,,,ES,,Książka Polska,,false,1,15453001,0,0,0,0,,,book,0,0,0,0,0,0.00,,,,0,0,John Paul II,,,,,,,0,,
15453501,0862993849,Froude the Historian. Victorian Man of Letters,9780862993849,,,,ES,1987/12/31,,,false,1,15453501,0,0,0,0,1987/12/31,,,0,0,0,0,0,0.00,127,,,0,0,A.L. Rowse,,,,,,,0,,
15454001,0863276768,"Fire on the Hill (The Liberty Trilogy, #2)",9780863276767,,,,ES,1998/1/1,Wolfhound Press (IE),,false,16,19172506,907,1424,341,26,1991/9/14,Fire on the Hill,book,170,99,43,20,9,4.18,630,Paperback,,1,1,Gretta Curran Browne,,,,,,391,15,98,"adventure,biography,fiction,historical,historical-fiction,history,literary-fiction,mystery,romance,suspense,thriller"
15454501,1591911621,2005 40 Cfr 400-424 (Water Effluent Guidelines and Standards),9781591911623,,,,ES,2005/1/28,ABS Consulting,,false,1,15454501,0,0,0,0,,,,0,0,0,0,0,0.00,,Paperback,,0,0,,,,,,,,0,,
15455001,8400038924,Romances de Mar,9788400038922,,,,ES,,,,false,1,15455001,0,0,0,0,,,,0,0,0,0,0,0.00,,,,0,0,Alberto Navarro Gonzalez,,,,,,,0,,
15455501,1412796970,Recipe Collection (Kraft Philadelphia),9781412796972,,,,ES,2008/10/1,"Publications International, Ltd.",,false,1,15455501,0,0,0,0,2008/10/1,,,0,0,0,0,0,0.00,192,Hardcover,,0,0,,,,,,,,0,,
15456001,8400078098,El Arte En Las Cortes de Carlos V y Felipe II: IX Jornadas de Arte,9788400078096,,,,ES,,,,false,1,15456001,0,0,0,0,,,,0,0,0,0,0,0.00,,,,0,0,Centro De Estudios Hist Oricos,,,,,,,0,,
15456501,1412955378,Conscious Leadership: Cognitive Meta-Maps for Mindful Decision-Making,9781412955379,,,,ES,2011/6/11,Corwin Publishers,,false,1,15456501,1,0,0,0,2011/6/11,,,0,0,0,0,0,0.00,160,Paperback,,0,0,Rob Bocchino,,,,,,1,0,,
15457001,0865053308,What Are Cephalopods?,9780865053304,,,,ES,2003/3/1,Crabtree Publishing Company,,false,2,15457012,0,0,0,0,2003/3/1,,,0,0,0,0,0,0.00,32,Hardcover,,0,0,Bobbie Kalman,,,,,,,0,,
15457501,0865270333,The Corporate State,9780865270336,,,,ES,,,,false,2,15457501,5,3,1,0,1975/1/1,,,0,0,1,0,0,3.00,,,,1,0,Benito Mussolini,,,,,,4,0,,
15458001,1414013906,The Legend of Jacquez Is Born,9781414013909,,,,ES,,,,false,3,3326814,2,10,2,2,2004/8/9,The Legend of Jacquez Is Born,,2,0,0,0,0,5.00,,,,0,0,Eduardo Velasquez,,,,,,,0,,
15458501,1416025227,Step-By-Step Medical Coding 2005 - Text with 2005 ICD-9-CM *Revised* Package,9781416025221,,,,ES,2005/1/28,Saunders,,false,135,7164879,132,188,48,3,1996/1/1,Step-By-Step Medical Coding 2005 Edition,book,20,13,9,3,3,3.92,,,,0,0,Carol J. Buck,,,,,,59,0,3,"medical,school,textbooks"
15459001,8423516261,"Estadistica de Poblacion de Navarra, 1996",9788423516261,,,,ES,,,,false,9,15458984,0,0,0,0,,,,0,0,0,0,0,0.00,,,,0,0,University of Navarra,,,,,,,0,,
15460001,8424156293,Cuentos de Andersen,9788424156299,,,,ES,,,,false,1681,46306,187890,499511,116701,1307,1835/5/8,Eventyr og historier,book,58342,37070,17778,2676,835,4.28,,,,0,0,Hans Christian Andersen,,,,,,131,211,2969,"adventure,anthologies,childrens,classic-literature,classics,collections,fairy-tales,fantasy,fiction,juvenile,literature,magic,mythology,picture-books,reference,short-stories,unfinished,young-adult"
15460501,0684175428,Flying Bomber,9780684175423,,,,ES,,,,false,1,15460501,1,3,1,0,,,,0,0,1,0,0,3.00,,,,1,0,Peter G. Cooksley,,,,,,,0,,
15461501,1593960719,Anime & Game 3 Book Set W/Slipcase,9781593960711,,,,ES,2005/4/1,Japan Publications (JP),,false,1,15461501,0,0,0,0,2005/4/1,,,0,0,0,0,0,0.00,,Paperback,,0,0,Various,,,,,,,0,,
15462001,1417611472,Lobsters,9781417611478,,,,ES,2002/3/1,Turtleback Books,,false,6,15462001,3,0,0,0,2002/1/1,,book,0,0,0,0,0,0.00,,Hardcover,,0,0,Lola M. Schaefer,,,,,,,0,,school
15462501,1417618876,Drums Along the Mohawk,9781417618873,,,,ES,1997/3/1,Turtleback Books,,false,17,167069,2121,4079,1027,100,1936/1/1,Drums Along the Mohawk,book,335,403,229,45,15,3.97,592,Hardcover,,0,0,Walter D. Edmonds,,,,,,871,11,42,"adventure,american,american-history,classics,fiction,historical,historical-fiction,history,novels,unfinished,war"
15463001,0685043274,Vogul Chrestomathy,9780685043271,,,,ES,,,,false,2,15463001,1,0,0,0,1965/1/1,Vogul Chrestomathy,book,0,0,0,0,0,0.00,,,,0,0,Bela Kalman,,,,,,1,0,,
15463501,0866570012,Practical Electricity & Electronics: Electronics Fundamentals for FM Communications,9780866570015,,,,ES,1982/12/1,Lab-Volt,,false,1,15463501,0,0,0,0,,,,0,0,0,0,0,0.00,178,Paperback,,0,0,,,Buck Engineering Co,,,,,0,,
15464001,159566209X,Judaism,9781595662095,,,,ES,2006/10/1,QEB Publishing,,false,1,15464001,3,12,3,0,2006/10/1,,,1,1,1,0,0,4.00,32,Hardcover,,3,0,Angela Gluck Wood,,,,,,,0,,
15464501,159600214X,"Summer (Sunrise, #2)",9781596002142,,,,ES,2007/8/21,Brilliance Audio,,false,26,289642,11932,31634,7135,234,2007/1/1,Summer,book,4137,2105,767,102,24,4.43,,Audiobook,Abridged,0,0,Karen Kingsbury,,,,,Sandra Burr,2083,31,102,"adult,adult-fiction,chick-lit,christian,christian-fiction,christianity,contemporary,drama,faith,family,fiction,inspirational,novels,religion,romance,young-adult"
15465001,1417632135,Going to Grandma's Farm,9781417632138,,,,ES,2004/3/1,Turtleback Books,,false,4,2400052,39,69,19,2,2003/1/1,Going to Grandma's Farm (Rookie Readers),book,5,4,8,2,0,3.63,24,Hardcover,,0,0,Betsy Franco,Claudia Rueda,,,,,9,10,,"childrens,juvenile,picture-books"
15465501,0867308419,Dinners and Diplomacy,9780867308419,,,,ES,1955/1/1,Lebhar-Friedman,,false,1,15465501,0,0,0,0,1955/1/1,,,0,0,0,0,0,0.00,224,Hardcover,,0,0,Dede Wilson,,,,,,,0,,
15466001,068563034X,The Romans in Britain,9780685630341,,,,ES,1988/6/1,Heinemann Educational Books,,false,8,2250767,83,151,49,1,1988/6/1,The Romans in Britain (Methuen Modern Plays),book,4,15,16,9,5,3.08,103,Paperback,,0,0,Howard Brenton,,,,,,16,2,1,"classics,drama,plays,school,theatre"
15466501,0685821021,Dada-Surrealism,9780685821022,,,,ES,1976/12/1,Queens College Press,,false,1,15466501,0,0,0,0,1976/12/1,,,0,0,0,0,0,0.00,,Paperback,,0,0,,,,Mary Ann Caws,,,,0,,
15467501,0868862541,Die Afskaffing Van Die Wet Op Verbod Van Gemengde Huwelike En Artikel 16 Van Die Ontugwet,9780868862545,,,,ES,1986/12/31,Instituut Vir Eietydse Geskiedenis Universiteit Van Die Oranje-Vrystaat,,false,1,15467501,0,0,0,0,1986/1/1,,,0,0,0,0,0,0.00,436,Hardcover,,0,0,,,J.J.C. Mostert,,,,,0,,
15468001,068681858X,"Handbook for Trainers in Educational Management, with Special Reference to Countries in Asia & the Pacific",9780686818588,,,,ES,,,,false,1,15468001,2,3,1,0,,,,0,0,1,0,0,3.00,,,,1,0,T.V. Rao,,,,,,1,0,,
15468501,0687022835,Meet the Son of God,9780687022830,,,,ES,1998/9/1,Abingdon Press,,false,2,15468501,0,0,0,0,1998/9/1,,,0,0,0,0,0,0.00,24,Paperback,,0,0,James A. Harnish,,,,,,,0,,
15469001,0869906747,Die Leer Aangaande God by Calvyn,9780869906743,,,,ES,,,,false,1,15469001,0,0,0,0,,,,0,0,0,0,0,0.00,,,,0,0,Christian Jacobus Malan,,,,,,,0,,
15469501,1417670428,Mardi Gras . . . as It Was,9781417670420,,,,ES,1989/2/1,Turtleback Books,,false,3,327543,82,103,25,3,1947/1/1,Mardi-Gras... As It Was,book,10,9,5,1,0,4.12,,Hardcover,,0,0,Robert Tallant,,,,,,48,3,1,"anthropology,art,history,non-fiction"
15470001,0870122142,History of Randolph County,9780870122149,,,,ES,,,,false,1,15470001,0,0,0,0,,,,0,0,0,0,0,0.00,,,,0,0,Albert S. Bosworth,,,,,,,0,,
15470501,1599043653,"Data Warehouses and OLAP: Concepts, Architectures and Solutions",9781599043654,,,,ES,2006/12/1,IRM Press,,false,4,1889842,5,0,0,0,2006/1/1,"Data Warehouses and Olap: Concepts, Architectures and Solutions",,0,0,0,0,0,0.00,332,Paperback,,0,0,,,,"Christian Koncilia,Robert Wrembel",,,1,0,,
15471001,1599402173,2009 Portable Accreditation Manual for Hospitals (Camh): The Official Handbook,9781599402178,,,,ES,2008/1/1,Joint Commission Resources,,false,12,15464196,0,0,0,0,1988/8/1,,,0,0,0,0,0,0.00,,Hardcover,,0,0,Joint Commission on Accreditation of Healthcare Organizations,,,,,,,0,,
15471501,0688036074,The Divorced Woman's Handbook: An Outline for Starting the First Year Alone,9780688036072,,,,ES,,,,false,2,15473416,0,0,0,0,1980/1/1,,,0,0,0,0,0,0.00,,,,0,0,Jane Wilkie,,,,,,,0,,
15472001,1417696524,Los Pueblos del Mundo Con Links de Internet,9781417696529,,,,ES,2002/12/1,Turtleback Books,,false,8,3027328,130,178,44,9,2001/6/1,The Usborne Book of Peoples of the World: Internet-Linked,book,16,16,10,2,0,4.05,,Hardcover,,0,0,"Anna Claybourne,Gillian Doherty",Laura Fearn,,,,,38,3,-1,"childrens,classics,history,non-fiction,reference,school,travel,young-adult"
15472501,0688064418,Tiny Turtle's Thanksgiving,9780688064419,,,,ES,1986/1/1,William Morrow & Company,,false,2,4929907,9,21,7,1,1986/8/1,Tiny Turtle's Thanksgiving,,0,3,2,1,1,3.00,,Unknown Binding,,0,0,Dave Ross,,,,,,,2,,
15473001,0870684957,Speak to the Children of Israel,9780870684951,,,,ES,,,,false,1,15473001,0,0,0,0,,,,0,0,0,0,0,0.00,,,,0,0,Samuel M. Silver,,,,,,,0,,
15473501,1601512392,Complete Guide to Medicare Coverage Issues,9781601512390,,,,ES,2009/1/1,Ingenix,,false,2,15473501,0,0,0,0,2009/1/1,,,0,0,0,0,0,0.00,,Hardcover,,0,0,Ingenix,,,,,,,0,,
15474001,846001942X,"La Problematica del Bilinguismo En El Estado Espanol: Jornadas de Bilinguismo, Zarauz",9788460019428,,,,ES,,,,false,1,15474001,2,0,0,0,,,,0,0,0,0,0,0.00,,,,0,0,Jose Maria Sanchez Carrion,,,,,,2,0,,
15474501,0870835653,The Holy Word for Morning Revival: Isaiah,9780870835650,,,,ES,1991/1/1,Living Stream Ministry,,false,1,15474501,0,0,0,0,1991/1/1,,,0,0,0,0,0,0.00,71,Paperback,,0,0,Witness Lee,,,,,,,0,,
15475001,1417710551,Just the Way You Are,9781417710553,,,,ES,2000/11/1,Turtleback Books,,false,11,1093862,9275,20600,5328,362,2000/11/1,Just the Way You Are,book,1505,2078,1356,306,83,3.87,,Hardcover,,0,0,Barbara Freethy,,,,,,771,70,359,"adult,chick-lit,contemporary,drama,family,fiction,marriage,romance"
15475501,1604262710,Tennessee Education in Perspective 2008-09,9781604262711,,,,ES,2008/9/1,CQ Press,,false,1,15475501,0,0,0,0,2008/9/1,,,0,0,0,0,0,0.00,24,Paperback,,0,0,,,,Congressional Quarterly,,,,0,,
15476001,1604269197,Tennessee in Perspective 2009,9781604269192,,,,ES,2009/3/1,CQ Press,,false,1,15476001,0,0,0,0,2009/3/1,,,0,0,0,0,0,0.00,,Paperback,,0,0,,,,Congressional Quarterly,,,,0,,
15476501,0688150306,Inventing Wyatt Earp,9780688150303,,,,ES,,,,false,5,421737,216,453,125,16,1998/1/1,Inventing Wyatt Earp: His Life and Many Legends,book,20,54,40,6,5,3.62,,,,4,0,Allen Barra,,,,,,66,2,4,"american,american-history,biography,biography-memoir,family,historical,history,non-fiction,true-crime"
15477001,1606861301,Harriet Tubman,9781606861301,,,,ES,2002/3/1,Perfection Learning,,false,4,790873,7,4,1,1,2002/3/1,Harriet Tubman (Real People),,0,1,0,0,0,4.00,,Hardcover,,0,0,Philip Abraham,,,,,,3,0,,non-fiction
15477501,1607642409,SAS Programming 3: Advanced Techniques and Efficiencies Course Notes,9781607642404,,,,ES,2008/1/1,SAS Institute,,false,1,15477501,1,0,0,0,2008/1/1,,,0,0,0,0,0,0.00,,Paperback,,0,0,,,,,,,1,0,,
15478001,1608941248,Gary Paulsen 03-05,9781608941247,,,,ES,,,,false,1,15478001,2,0,0,0,,,,0,0,0,0,0,0.00,,,,0,0,Ingram Book Group,,,,,,2,0,,
15478501,1608947114,Book of the Month Fall,9781608947119,,,,ES,,,,false,1,15478501,0,0,0,0,,,,0,0,0,0,0,0.00,,,,0,0,Elwanda Ingram,,,,,,,0,,
15479001,160900423X,The Christmas Home,9781609004231,,,,ES,2012/8/1,Leisure Arts,,false,1,15479001,1,0,0,0,2012/8/1,,,0,0,0,0,0,0.00,,Paperback,,0,0,Leisure Arts Inc.,,,,,,1,0,,
15479501,1417728353,Birds of Prey Rescue: Changing the Future for Endangered Wildlife,9781417728350,,,,ES,2006/2/20,Turtleback Books,,false,3,6891605,8,11,3,0,2006/1/1,,,1,0,2,0,0,3.67,64,Hardcover,,0,0,Pamela Hickman,,,,,,2,1,,
15480001,1615223851,Betsy Byars 03-05,9781615223855,,,,ES,,,,false,1,15480001,0,0,0,0,,,,0,0,0,0,0,0.00,,,,0,0,Ingram Book Group,,,,,,,0,,
15480501,0871700794,Source Book on Maraging Steels: A Comprehensive Collection of Outstanding Articles from the Periodical and Reference Literature,9780871700797,,,,ES,1979/1/1,ASM International(OH),,false,1,15480501,0,0,0,0,1979/1/1,,,0,0,0,0,0,0.00,384,Hardcover,,0,0,,,Raymond Frank Decker,,,,,0,,
15481001,8472830691,Corologia de La Flora Dels Paisos Catalans: Chorology of the Flora of Catalan Countries: Information and Comments,9788472830691,,,,ES,,,,false,1,15481001,0,0,0,0,,,book,0,0,0,0,0,0.00,,,,0,0,Oriol de Bolos,,,,,,,0,,
15481501,1417742518,When I Feel Angry,9781417742516,,,,ES,2000/1/1,Turtleback Books,,false,16,866760,939,1689,424,41,2000/1/1,When I Feel Angry (Way I Feel),book,163,124,109,23,5,3.98,24,Hardcover,,1,0,Cornelia Maude Spelman,Nancy Cote,,,,,306,11,19,"childrens,health,juvenile,non-fiction,parenting,picture-books,psychology,school"
15482001,8474110459,Asturianos En El Destierro (Francia),9788474110456,,,,ES,,,,false,1,15482001,1,5,1,0,,,,1,0,0,0,0,5.00,,,,1,0,Celso Amieva,,,,,,,0,,
15482501,8474681731,Homenje a Carlos Cid,9788474681734,,,,ES,,,spa,false,1,15482501,0,0,0,0,,,book,0,0,0,0,0,0.00,,,,0,0,Carlos Cid Priego,,,,,,,0,,
15483001,847481846X,La Convencion de Los Derechos del Ninos Hacia El Siglo XXI: Simposio Internacional Celebrado En Salamanca del 1 Al 4 de Mayo de 1996 Con Motivo del Ci,9788474818468,,,,ES,,,,false,1,15483001,0,0,0,0,,,,0,0,0,0,0,0.00,,,,0,0,Miguel Angel Verdugo,,,,,,,0,,
15483501,847491180X,"Urbanismo E Historia Urbana En El Mundo Hispano: Segundo Simposio, 1982",9788474911800,,,,ES,,,,false,1,15483501,0,0,0,0,,,,0,0,0,0,0,0.00,,,,0,0,Antonio Bonet Correa,,,,,,,0,,
15484001,0872281116,Premium and Incentive 1998,9780872281110,,,,ES,,,,false,1,15484001,0,0,0,0,,,,0,0,0,0,0,0.00,,,,0,0,Salesman's Guide,,,,,,,0,,
15484501,847535260X,La Gran Encletxa,9788475352602,,,,ES,,,,false,1,15484501,0,0,0,0,,,,0,0,0,0,0,0.00,,,,0,0,Jaume Alberti,,,,,,,0,,
15485001,1417778490,Benchmarks for Science Literac,9781417778492,,,,ES,1994/1/1,Turtleback Books,,false,2,70545,44,88,23,1,1994/1/1,"Benchmarks for Science Literacy (Benchmarks for Science Literacy, Project 2061)",,8,6,6,3,0,3.83,,Hardcover,,0,0,American Association for the Advancement,,,,,,10,2,,"education,non-fiction,reference,school,science"
15485501,1842641514,European Marketing Forecasts,9781842641514,,,,ES,2002/6/1,Euromonitor Publications,,false,2,15485501,0,0,0,0,2002/8/1,,,0,0,0,0,0,0.00,,Hardcover,,0,0,Euromonitor Publications,,,,,,,0,,
15486001,8476420781,La Delincuencia Violenta: Un Estudio Empirico En La Ciudad de Valencia,9788476420782,,,,ES,,,,false,1,15486001,0,0,0,0,,,,0,0,0,0,0,0.00,,,,0,0,Luis Montoro González,,,,,,,0,,
15486501,8476658168,Fuero Real,9788476658161,,,,ES,,,spa,false,2,4583608,0,0,0,0,1979/1/1,Fuero real,book,0,0,0,0,0,0.00,,,,0,0,"Alfonso X de Castilla,Alfonso X of Castile",,,Azucena Palacios Alcaine,,,,0,,
15487001,087326939X,"Fyi . . . Resources on Local Government, 1983-1987",9780873269391,,,,ES,,,,false,1,15487001,0,0,0,0,,,,0,0,0,0,0,0.00,,,,0,0,,,,Evelina Moulder,,,,0,,
15487501,087337133X,Everybody's Guide to Small Claims Court,9780873371339,,,,ES,,,,false,36,5966217,91,88,24,3,1978/1/28,Everybody's Guide to Small Claims Court,book,4,9,10,1,0,3.67,,,,0,0,Ralph E. Warner,Linda Allison,,,,,24,0,2,"business,reference"
15488001,1844721345,The Roth Family: Anthropology and Colonial Administration,9781844721344,,,,ES,2006/4/1,UCL Press,,false,8,9561893,1,0,0,0,2006/4/1,,,0,0,0,0,0,0.00,250,Hardcover,,0,0,"Iain Davidson,Russell McDougall",,,,,,1,0,,
15488501,0873491211,Knives'92,9780873491211,,,,ES,,,,false,18,597125,27,27,7,0,1941/12/12,"Knives 2000 (Knives, 2000)",,2,3,1,1,0,3.86,,,,0,0,,,,Ken Warner,,,5,0,1,non-fiction
15489001,0873523644,Teaching Literature and Other Arts,9780873523646,,,,ES,1990/1/1,Modern Language Association of America,,false,1,15489001,0,0,0,0,1990/1/1,,book,0,0,0,0,0,0.00,183,Hardcover,,0,0,,,Jean-Pierre Barricelli,,,,,0,,
15489501,8477970866,"Inventario de Los Castillos, Murallas, Puentes, Monasterios, Ermitas, Lugares Pintorescos O de Recuerdo Historico, Asi Como de La Riqueza Mobiliaria",9788477970866,,,,ES,,,,false,1,15489501,0,0,0,0,,,,0,0,0,0,0,0.00,,,,0,0,Antonio Garcia-Boiza,,,,,,,0,,
15490001,1417818255,Spain of the Cath Monarchs 147,9781417818259,,,,ES,2001/1/1,Turtleback Books,,false,4,2550329,34,6,2,1,2001/1/1,The Spain of the Catholic Monarchs 1474-1520 (A History of Spain),book,0,0,2,0,0,3.00,,Hardcover,,0,0,"Helen     Edwards,John  Edwards",,,,,,28,1,1,history
15490501,8478213902,Arte Barrokoa Araban =: El Arte Barroco En Alava,9788478213900,,,,ES,,,,false,1,15490501,0,0,0,0,,,,0,0,0,0,0,0.00,,,,0,0,Fernando R. Bartolome Garcia,,,,,,,0,,
15491501,8478467750,Los Alvarez de Toledo: Nobleza Viva,9788478467754,,,,ES,,,,false,1,15491501,0,0,0,0,,,,0,0,0,0,0,0.00,,,,0,0,María del Pilar García Pinacho,,,,,,,0,,
15492001,1850323372,Computer Graphics Companion,9781850323372,,,,ES,,,,false,1,15492001,1,0,0,0,,,,0,0,0,0,0,0.00,,,,0,0,David McConnell,,,,,,1,0,,
15492501,1417830727,Boxcar Children Halloween Special,9781417830725,,,,ES,2008/9/1,Turtleback Books,,false,7,4630560,199,297,73,5,2008/1/1,The Boxcar Children Halloween Special (Boxcar Children Mysteries),,35,16,16,4,2,4.07,,Hardcover,,8,0,Gertrude Chandler Warner,,,,,,63,5,25,"childrens,detective,fiction,juvenile,mystery"
15493001,8479350326,Agatadagio,9788479350321,,,,ES,,,,false,1,15493001,1,2,1,0,,,,0,0,0,1,0,2.00,,,,1,0,Joaquim Saura I. Falomir,,,,,,,0,,
15493501,8479544899,El Otro,9788479544898,,,,ES,,,,false,1,15493501,0,0,0,0,,,,0,0,0,0,0,0.00,,,,0,0,Gaudencio Hernandez,,,,,,,0,,
15494001,8480028084,La Suspension del Pago del Precio En La Compraventa,9788480028080,,,,ES,,,,false,1,15494001,0,0,0,0,,,,0,0,0,0,0,0.00,,,,0,0,Inmaculada Bustos Valdivia,,,,,,,0,,
15494501,0874820251,John Crow,9780874820256,,,,ES,,,,false,1,15494501,0,0,0,0,,,,0,0,0,0,0,0.00,,,,0,0,Terence J. Brien,,,,,,,0,,
15495001,1851901949,Repossession of Property on Mortagage Default,9781851901944,,,,ES,1993/5/1,Hyperion Books,,false,1,15495001,0,0,0,0,1993/5/1,,,0,0,0,0,0,0.00,122,Hardcover,,0,0,Mark P. Thompson,,,,,,,0,,
15495501,0874992044,Mr. Bear's Chair,9780874992045,,,,ES,,,,false,4,19398693,12,38,9,1,1987/4/16,Mr. Bear's Chair,,5,2,1,1,0,4.22,,,,0,0,Thomas Graham,,,,,,,0,,"childrens,picture-books"
15496001,1852400692,Explaining Evangelism-10,9781852400699,,,,ES,1992/1/1,Sovereign World,,false,1,15496001,2,4,1,0,1992/1/1,,,0,1,0,0,0,4.00,96,Paperback,,1,0,,,,,,,1,0,,
15496501,1852843578,Chamonix-Mont Blanc: A Walking Guide,9781852843571,,,,ES,2002/12/1,Cicerone Press,,false,3,15496501,5,0,0,0,2001/10/1,,,0,0,0,0,0,0.00,192,Paperback,,0,0,Martin Collins,,,,,,2,0,-1,non-fiction
15497001,0875347495,Puzzlemania,9780875347493,,,,ES,,,,false,32,149227,21,15,4,1,,Highlights Puzzlemania. Can you tell what gets hooked up to each vehicle?,,1,1,2,0,0,3.75,,,,0,0,Highlights for Children,,,,,,7,1,,
15497501,1853527505,Constitutional and Administrative Law,9781853527500,,,,ES,,,,false,1,15497501,0,0,0,0,,,book,0,0,0,0,0,0.00,,,,0,0,,,,"Richard             Hughes,Stephen Migdal",,,,0,,
15498001,0875652131,When Panthers Roared: A History of the Fort Worth Cats and Texas Minor League Baseball,9780875652139,,,,ES,1999/10/1,Texas Christian University Press,,false,2,398208,20,15,4,0,1999/9/1,When Panthers Roared: The Fort Worth Cats and Minor League Baseball,,1,1,2,0,0,3.75,128,Paperback,,0,0,Jeff Guinn,,,,,,15,0,,"history,sports"
15498501,1853894680,The Saigon Merchant,9781853894688,,,,ES,1994/4/1,Dales Large Print Books,,false,2,4059019,1,0,0,0,1984/8/1,Saigon Merchant,book,0,0,0,0,0,0.00,282,Paperback,Large Print,0,0,James Pattinson,,,,,,1,0,,
15499001,8483740850,Anteayer y La Nieve: Relatos,9788483740859,,,,ES,,,,false,1,15499001,1,3,1,0,,,,0,0,1,0,0,3.00,,,,1,0,Jesus Diez Fernandez,,,,,,,0,,
15499501,8484199800,"Portugalete En La Revolucion Industrial, 1850-1936: Biografias",9788484199809,,,,ES,,,,false,1,15499501,0,0,0,0,,,,0,0,0,0,0,0.00,,,,0,0,Inmaculada Martinez Huerta,,,,,,,0,,
15500001,8485220323,Lingua,9788485220328,,,,ES,,,,false,1,15500001,0,0,0,0,,,,0,0,0,0,0,0.00,,,,0,0,Xoan Carlos Rabade,,,,,,,0,,
15500501,1437779476,"ICD-9-CM for Physicians, Volumes 1-2 [With Current Procedural Terminology 2010]",9781437779479,,,,ES,,,,false,1,15500501,0,0,0,0,,,,0,0,0,0,0,0.00,,,,0,0,Carol J. Buck,,,,,,,0,,
15501001,1439892717,Instrument Engineers' Handbook: Process Software and Digital Networks (ISA Edition),9781439892718,,,,ES,,,,false,1,15501001,1,0,0,0,,,,0,0,0,0,0,0.00,,,,0,0,,,,"B. La G. Lipt K.,Halit Eren",,,1,0,,
15501501,8486133688,Apuntes de Estructura Economica,9788486133689,,,,ES,,,,false,1,15501501,0,0,0,0,,,,0,0,0,0,0,0.00,,,,0,0,Fernando Carrasco Canals,,,,,,,0,,
15502001,8486484006,Policia Sin Censura,9788486484002,,,,ES,,,,false,1,15502001,0,0,0,0,,,,0,0,0,0,0,0.00,,,,0,0,Manuel Torres,,,,,,,0,,
15502501,087637383X,The Official 1984 Price Guide to Cameras,9780876373835,,,,ES,1983/1/1,,,false,2,15089503,0,0,0,0,,,book,0,0,0,0,0,0.00,303,,,0,0,"House of Collectibles,Thomas E. Hudgeons",,,,,,,0,,
15503001,848683922X,La Marche Superieure D'Al-Andalus Et L'Occident Chretien: Actes,9788486839222,,,,ES,,,,false,1,15503001,0,0,0,0,,,,0,0,0,0,0,0.00,,,,0,0,Philippe Sénac,,,,,,,0,,
15503501,0876666594,Dog Breeding for Pro,9780876666593,,,,ES,,,,false,1,15503501,4,9,3,0,1978/12/1,,,0,1,1,1,0,3.00,,,,3,0,Herbert Richards,,,,,,1,0,,
15504001,0876858922,"Counting Myself Lucky: Selected Poems, 1963-1992",9780876858929,,,,ES,1992/1/1,Black Sparrow Press,,false,3,2344001,43,90,22,4,1992/1/1,Counting Myself Lucky Selected Poems 1963-1992,book,13,3,3,1,2,4.09,307,Hardcover,,0,0,Edward Field,,,,,,16,0,,"poetry,queer"
15504501,1856042863,Libraries in the United Kingdom and the Republic of Ireland,9781856042864,,,,ES,1999/12/1,Bernan Press(PA),,false,1,15504501,0,0,0,0,,,,0,0,0,0,0,0.00,,Paperback,,0,0,Library Association,,,,,,,0,,
15505001,155046454X,Muskoka Fleet,9781550464542,,,,ES,,Boston Mills Press,,false,1,15505001,0,0,0,0,,,,0,0,0,0,0,0.00,96,Hardcover,,0,0,John De Visser,,,,,,,0,,
15505501,1856498727,Running Guns: The Global Black Market in Small Arms,9781856498722,,,,ES,2000/10/13,Zed Books,,false,2,2210348,22,19,6,1,2000/10/13,Running Guns: The Global Black Market in Small Arms,,1,1,2,2,0,3.17,256,Hardcover,,0,0,,,,Lora Lumpe,,,14,0,,
15506001,8488038593,Hoja de Album: Zarabanda Para Piano,9788488038593,,,,ES,1998/1/1,Mundimusica,,false,1,15506001,0,0,0,0,,,,0,0,0,0,0,0.00,,Hardcover,,0,0,Ruperto Chapi,,,,,,,0,,
15506501,1857285638,Urban Planning and Real Estate Development,9781857285635,,,,ES,1996/4/1,Routledge,,false,22,17843981,20,9,3,0,1996/3/28,,,0,0,3,0,0,3.00,560,Hardcover,,1,0,"John Ratcliffe,Mark Shepherd",,,,,,15,0,,non-fiction
15507001,1551976285,Leggys in Number Land,9781551976280,,,,ES,,,,false,1,15507001,0,0,0,0,,,,0,0,0,0,0,0.00,,,,0,0,Gladys Ostrom,,,,,,,0,,
15507501,1857912292,Dha Shaothar Deag Earcail,9781857912296,,,,ES,,,,false,1,15507501,0,0,0,0,,,,0,0,0,0,0,0.00,,,,0,0,James Riordan,,,,,,,0,,
15508001,8488793545,El Pirineo Catalan: del Valle de Aran Al Cabo de Creus,9788488793546,,,,ES,,,,false,1,15508001,0,0,0,0,,,,0,0,0,0,0,0.00,,,,0,0,Agustín Faus,,,,,,,0,,
15508501,1552370984,Star Trek Reader's Reference,9781552370988,,,,ES,,,,false,1,15508501,4,0,0,0,,,book,0,0,0,0,0,0.00,,,,0,0,Alva Underwood,,,,,,4,0,,
15509001,1552372898,Stormy Hearts,9781552372890,,,,ES,,,,false,1,15509001,0,0,0,0,,,,0,0,0,0,0,0.00,,,,0,0,Norma F. Mars,,,,,,,0,,
15509501,8489411034,Relatos del Viejo Madrid: Leyendas de La A A La Z,9788489411036,,,,ES,,,,false,1,15509501,1,0,0,0,,,,0,0,0,0,0,0.00,,,,0,0,Amalia Fernandez,,,,,,1,0,,
15510001,1552377954,Outside of Honor,9781552377956,,,,ES,,,,false,2,15510001,0,0,0,0,2011/2/13,,,0,0,0,0,0,0.00,,,,0,0,Celia Anton,,,,,,,0,,
15510501,1552560775,Time Zero,9781552560778,,,,ES,1998/1/1,Publishers Circulation Corp.,,false,1,15510501,1,0,0,0,1998/1/1,,book,0,0,0,0,0,0.00,682,Paperback,,0,0,E.A.  Stewart,,,,,,1,0,,
15511001,8489732108,Klavierkonzert =: Concierto Para Piano y Orquesta,9788489732100,,,,ES,,,,false,1,15511001,0,0,0,0,,,,0,0,0,0,0,0.00,,,,0,0,Francisco J. Martin Jaime,,,,,,,0,,
15511501,0878350713,Editing Exercise,9780878350711,,,,ES,,,,false,1,15511501,0,0,0,0,,,,0,0,0,0,0,0.00,,,,0,0,Gene Gilmore,,,,,,,0,,
15512001,1860947662,Building Innovation Capability in Organizations: An International Cross-Case Perspective,9781860947667,,,,ES,2007/10/10,Imperial College Press,,false,1,15512001,1,0,0,0,2007/10/7,,,0,0,0,0,0,0.00,276,Paperback,,0,0,"Mile Terziovski,Terziovski Mile",,,,,,1,0,,
15512501,0878552154,Israel Oriental Studies,9780878552153,,,,ES,1974/1/1,Transaction Publishers,,false,6,15512580,0,0,0,0,1971/1/1,,,0,0,0,0,0,0.00,286,Hardcover,,0,0,,,,M.J. Kister,,,,0,,
15513001,1861343817,"Urban Renaissance?: New Labour, Community and Urban Policy",9781861343819,,,,ES,2003/5/21,Policy Press,,false,1,15513001,0,0,0,0,2003/5/21,,,0,0,0,0,0,0.00,304,Hardcover,,0,0,,,,"Mike Raco,Rob Imrie",,,,0,,
15513501,1555162622,"Legislative Staff Salaries, 1989",9781555162627,,,,ES,,,,false,1,15513501,0,0,0,0,,,,0,0,0,0,0,0.00,,,,0,0,Brian Weberg,,,,,,,0,,
15514001,1555215238,Twentieth Century Antiques,9781555215231,,,,ES,,,,false,1,15514001,0,0,0,0,,,,0,0,0,0,0,0.00,,,,0,0,Tony Curtis,,,,,,,0,,
15514501,1555406394,Shechem II,9781555406394,,,,ES,1991/12/31,American Schools of Oriental Research,,false,1,15514501,0,0,0,0,1991/12/31,,,0,0,0,0,0,0.00,123,Hardcover,,0,0,Edward F. Campbell Jr,,,,,,,0,,
15515001,8495379058,Notas de Una Vida,9788495379054,,,,ES,,,,false,1,15515001,0,0,0,0,,,,0,0,0,0,0,0.00,,,,0,0,Alvaro Figueroa Y. Torr Romanones,,,,,,,0,,
15515501,1864701161,Industrial Spaces: A Pictorial Review,9781864701166,,,,ES,2010/2/1,Images Publishing Group,,false,1,15515501,0,0,0,0,2010/2/1,,,0,0,0,0,0,0.00,224,Hardcover,,0,0,Images Publishing,,,,,,,0,,
15516001,0879426950,"Infocom, 1991, Set",9780879426958,,,,ES,1991/4/1,IEEE Computer Society Press,,false,1,15516001,0,0,0,0,1991/4/1,,,0,0,0,0,0,0.00,1520,Hardcover,,0,0,,,Ken Joseph,,,,,0,,
15516501,1869209702,Promises from God for Parents - Pink,9781869209704,,,,ES,2008/1/1,Christian Art Gifts,,false,2,15516504,0,0,0,0,2008/1/1,,,0,0,0,0,0,0.00,128,Paperback,,0,0,,,,,,,,0,,
15517001,8524007494,Evoluc~ao E Perspectivas Da Mortalidade Infantil No Brasil,9788524007491,,,,ES,,,,false,1,15517001,0,0,0,0,,,,0,0,0,0,0,0.00,,,,0,0,Instituto Brasileiro de Geografia E Esta,,,,,,,0,,
15517501,0879677090,Annual Editions: Biology,9780879677091,,,,ES,,,,false,1,15517501,0,0,0,0,,,,0,0,0,0,0,0.00,,,,0,0,Phyllis C. Braun,,,,,,,0,,
15518001,155613083X,Southwest Virginia & the Valley : historical and biographical,9781556130830,,,,ES,1987/1/1,Heritage Books,,false,1,15518001,0,0,0,0,1892/1/1,,book,0,0,0,0,0,0.00,530,Paperback,,0,0,Thomas Bruce,,,,,,,0,,
15518501,1556152213,"OS/2 Programmer's Technical Reference Series, 2",9781556152214,,,,ES,,,,false,1,15518501,1,0,0,0,,,,0,0,0,0,0,0.00,,,,0,0,"Microsoft Corporation,Microsoft Corporation",,,,,,1,0,,
15519001,8570253133,Artes Plasticas Na America Latina Contemporanea,9788570253132,,,,ES,,,,false,1,15519001,0,0,0,0,,,,0,0,0,0,0,0.00,,,,0,0,Maria Amelia Bulhhoes,,,,,,,0,,
15519501,1874916306,Cluster Studies of the Laboratory Situation in South African Schools,9781874916307,,,,ES,,,,false,1,15519501,0,0,0,0,,,,0,0,0,0,0,0.00,,,,0,0,Paddy Lynch,,,,,,,0,,
15520001,857227054X,Carv~ao Mineral: Aspectos Gerais E Economicos,9788572270540,,,,ES,,,,false,1,15520001,0,0,0,0,,,,0,0,0,0,0,0.00,,,,0,0,Regina Coeli C. Carrisso,,,,,,,0,,
15520501,1877187178,The Treaty Making Process: Reform and the Role of Parliament,9781877187179,,,,ES,1997/1/1,Law Commission,,false,1,15520501,0,0,0,0,1997/1/1,,,0,0,0,0,0,0.00,138,Paperback,,0,0,Government of New Zealand,,,,,,,0,,
15521001,8806163728,Il futuro della natura umana - I rischi di una genetica liberale,9788806163723,,,,ES,2002/1/1, Einaudi,ita,false,22,420332,711,671,187,14,2001/1/1,The Future of Human Nature,book,37,62,66,18,4,3.59,125,,,3,1,Jürgen Habermas,,,,,,411,7,18,"academic,essays,non-fiction,philosophy,politics,science,sociology,technology"
15521501,0880242078,Industrial Organization & Regulation Reading Lists,9780880242073,,,,ES,,,,false,3,15521501,0,0,0,0,1990/8/1,,,0,0,0,0,0,0.00,,,,0,0,Edward Tower,,,,,,,0,,
15522001,8585188154,"O Melhor de Leo Gandelman: Melodias E Cifras Originais Para Sax, Teclados E Viol~ao Com Sugest~oes Para Bateria E Baixo = the Best of Leo Gandelm",9788585188153,,,,ES,,,,false,1,15522001,0,0,0,0,,,,0,0,0,0,0,0.00,,,,0,0,Leo Gandelman,,,,,,,0,,
15522501,187828391X,George Condo: Portraits Lost in Space,9781878283917,,,,ES,1999/1/1,PaceWildenstein,,false,1,15522501,1,1,1,0,1999/1/1,,book,0,0,0,0,1,1.00,,Unknown Binding,,1,0,George Condo,,,,,,,0,,
15523001,8585910224,Visoes Da Crise,9788585910228,,,,ES,,,,false,1,15523001,0,0,0,0,,,,0,0,0,0,0,0.00,,,,0,0,Adhemar Dos Santos Mineiro,,,,,,,0,,
15523501,0881000582,"Whiskers, a Kitten's Story",9780881000580,,,,ES,,,,false,1,15523501,0,0,0,0,,,,0,0,0,0,0,0.00,,,,0,0,Roma N. Burke,,,,,,,0,,
15524001,8586500046,Brazil for Foreign Investors: Economic Report,9788586500046,,,,ES,,,,false,1,15524001,0,0,0,0,,,,0,0,0,0,0,0.00,,,,0,0,Associa C Ao Nacional das Institui C Oes,,,,,,,0,,
15524501,0881109185,Uncle Pete's Pirate Adventure,9780881109184,,,,ES,1997/3/1,E.D.C. Publishing,,false,10,3395562,31,12,3,0,1994/12/31,,book,0,3,0,0,0,4.00,32,Hardcover,,0,0,Susannah Leigh,,,,,,11,0,,
15525001,088128470X,CPA Exam Acct Prac 15/E,9780881284706,,,,ES,,,,false,1,15525001,3,0,0,0,,,,0,0,0,0,0,0.00,,,,0,0,National Institute of Accountants,,,,,,2,0,1,
15525501,1557345724,Early Humans,9781557345721,,,,ES,2004/11/1,Teacher Created Resources,,false,1,15525501,0,0,0,0,2004/11/1,,,0,0,0,0,0,0.00,224,Paperback,,0,0,Michelle Breyer,,,,,,,0,,
15526001,0881470708,"American Poetry Anthology, No. 3",9780881470703,,,,ES,,,,false,1,15526001,0,0,0,0,,,,0,0,0,0,0,0.00,,,,0,0,,,,,,,,0,,
15526501,187969140X,The Comic Trial of Joseph K.: Text and Context,9781879691407,,,,ES,,,,false,1,15526501,0,0,0,0,,,,0,0,0,0,0,0.00,,,,0,0,"Hbector Ortega,Hector Ortega",,,Manuel Flores,,,,0,,
15527001,,A última noite do mundo,9789892317465,,,,ES,2012/1/1,Edições ASA,por,false,1,15527001,17,25,6,0,2012/1/1,A última noite do mundo ,book,3,1,2,0,0,4.17,128,Paperback,,6,0,Álvaro Magalhães,,,,,,3,0,,
15527501,8672440501,Balkanski Socijalisti I Balkanska Federacija,9788672440508,,,,ES,,,,false,1,15527501,0,0,0,0,,,,0,0,0,0,0,0.00,,,,0,0,Branko Nadoveza,,,,,,,0,,
15528001,0881850268,The Shorewood Collection Art Reference Guide,9780881850260,,,,ES,1985/11/1,Shorewood Fine Art Books Inc,,false,1,15528001,0,0,0,0,1985/11/1,,,0,0,0,0,0,0.00,140,Hardcover,,0,0,Shorewood,,,,,,,0,,
15528501,8680315230,Makroekonomska Politika Nakon,9788680315232,,,,ES,,,,false,1,15528501,0,0,0,0,,,,0,0,0,0,0,0.00,,,,0,0,Tomislav Popović,,,,,,,0,,
15529001,1557985774,APA Membership Register,9781557985774,,,,ES,2000/12/2,American Psychological Association (APA),,false,3,10665655,1,0,0,0,1996/4/2,,book,0,0,0,0,0,0.00,1044,Paperback,,0,0,American Psychological Association,,,,,,1,0,,
15529501,0882333925,Сандро из Чегема,9780882333922,,,,ES,,,rus,false,12,357137,677,1230,288,15,1983/1/1,Sandro iz Čegema,book,146,91,37,11,3,4.27,,,,1,0,"Fazil Iskander,Фазиль Искандер",,,,,,317,9,30,"animals,classics,fiction,humor,literature,politics"
15530001,1881374343,"Flash Blasters, Geometry-Part II",9781881374343,,,,ES,1995/11/1,Ace Academics,,false,1,15530001,0,0,0,0,,,,0,0,0,0,0,0.00,,Paperback,,0,0,"Elizabeth R. Burchard,Flash Blasters",,,Gary Brick,,,,0,,
15530501,1558193618,New Internation Version Ultra Thin Bonded Leather Galilean Blue Index,9781558193611,,,,ES,1993/12/12,B&H Publishing Group,,false,1,15530501,0,0,0,0,1993/12/12,,,0,0,0,0,0,0.00,,Leather Bound,,0,0,,,,,,,,0,,
15531001,1881671135,Documentation in a Snap for Activity Programs,9781881671138,,,,ES,,,,false,2,14957804,0,0,0,0,2012/1/16,,,0,0,0,0,0,0.00,,,,0,0,Ann G. Uniack,,,,,,,0,,
15531501,1558221654,"1999 APICS Remanufacturing Symposium: Select Proceedings, May 24-25, 1999, San Antonio, Texas: The Remanufacturing Revolution, Solutions for the Next Millennium",9781558221659,,,,ES,1999/1/1,APICS Educational Society for Resource Management,,false,1,15531501,0,0,0,0,1999/1/1,,,0,0,0,0,0,0.00,46,Unknown Binding,,0,0,,,Reman Sig,,,,,0,,
15532001,0882771329,"Federal Rules of Civil Procedure, 1983 Edition, as Amended Through May 1, 1983",9780882771328,,,,ES,1983/6/1,Foundation Press,,false,1,15532001,0,0,0,0,,,,0,0,0,0,0,0.00,446,Paperback,,0,0,"Kevin M. Clermont,U.S. Government",,,,,,,0,,
15532501,1558500855,"Seattle Job Bank, 1992",9781558500853,,,,ES,,,,false,9,15533121,0,0,0,0,1997/11/1,,,0,0,0,0,0,0.00,,,,0,0,Bob Adams Publishers,,,Carter Smith,,,,0,,
15533001,1883062225,Rugg's Recommendations on the Colleges,9781883062224,,,,ES,1998/1/1,Remnant Publications,,false,24,7401405,20,47,10,0,1988/1/1,,book,8,1,1,0,0,4.70,164,Hardcover,,0,0,Frederick E. Rugg,,,,,,6,0,,reference
15533501,8788521532,Fysisk Planlgning Og Sociale Netvrk: Byplanforskningsmde 1986,9788788521535,,,,ES,,,,false,1,15533501,0,0,0,0,,,,0,0,0,0,0,0.00,,,,0,0,Hanne Wittorff Tanvig,,,,,,,0,,
15534001,1883502055,"Continental Discourse: Art of Mexico and the United States Today, November 17, 1995 Through March 3, 1996",9781883502058,,,,ES,,,,false,1,15534001,0,0,0,0,,,,0,0,0,0,0,0.00,,,,0,0,Don Bacigalupi,,,,,,,0,,
15534501,1883899265,"Used Car Prices: U.S. and Import Cars, Vans & Trucks, 1984-1997",9781883899264,,,,ES,,,,false,1,15534501,0,0,0,0,,,,0,0,0,0,0,0.00,,,,0,0,"International Vehicle Market Research St,Vehicle Market Research International",,,,,,,0,,
15535001,1558620559,International Dictionary of Art and Artists,9781558620551,,,,ES,,,,false,1,15535001,1,0,0,0,,,,0,0,0,0,0,0.00,,,,0,0,St. James Press,,,James Vinson,,,2,0,,non-fiction
15535501,8810405439,Pavel A. Florenskij: La sapienza dell'amore: teologia della bellezza e linguaggio della verità,9788810405437,,,,ES,1997/1/1,EDB,ita,false,1,15535501,1,0,0,0,1997/1/1,,book,0,0,0,0,0,0.00,392,Paperback,,0,0,Natalino Valentini,,,,,,1,0,,
15536001,1558770674,Rural Hospitals in Evolution: State Policy Issues and Initiatives,9781558770676,,,,ES,1989/12/1,National Governors' Association,,false,1,15536001,0,0,0,0,,,,0,0,0,0,0,0.00,40,Paperback,,0,0,"John Luehrs,Stephen Phillips",,,Karen Glass,,,,0,,
15536501,8814028524,Giudice Civile E Affievolimento del Diritto Soggettivo,9788814028526,,,,ES,,,,false,1,15536501,0,0,0,0,,,,0,0,0,0,0,0.00,,,,0,0,Massimo Arnaldo Tucci,,,,,,,0,,
15537001,881407173X,Clausole Di Salvaguardia Economia Nel Diritto Internazionale,9788814071737,,,,ES,,,,false,1,15537001,0,0,0,0,,,,0,0,0,0,0,0.00,,,,0,0,Francesco Bestagno,,,,,,,0,,
15537501,1885479085,"Mother Teresa: Humanity's Flower-Heart, Divinity's Fragrance-Soul",9781885479082,,,,ES,,,,false,1,15537501,1,0,0,0,,,,0,0,0,0,0,0.00,,,,0,0,Sri Chinmoy,,,,,,1,0,,
15538001,0884160092,Quality of Life,9780884160090,,,,ES,1974/1/1,Publishing Sciences Group,,false,2,15538006,0,0,0,0,1974/1/1,,,0,0,0,0,0,0.00,283,Unknown Binding,,0,0,,,American Medical Association,,,,,0,,
15538501,1886362076,"Fourteenth Process Technology Conference: Ladly Processing, Metallurgy & Operations",9781886362079,,,,ES,,,,false,1,15538501,0,0,0,0,,,,0,0,0,0,0,0.00,,,,0,0,Iron and Steel Society Of Aime,,,,,,,0,,
15539001,1886739218,Everything You Always Wanted to Know about Language and Communication: But Were Afraid to Ask Because You Were Tongue-Tied,9781886739215,,,,ES,,,,false,1,15539001,0,0,0,0,,,,0,0,0,0,0,0.00,,,,0,0,John   Bryant,,,,,,,0,,
15540001,8821006786,"Raccolta E La Miscellanea Visconti Degli Autografi Ferrajoli: Introduzione, Inventario E Indice",9788821006784,,,,ES,1996/1/1,Biblioteca Apostolica Vaticana,,false,1,15540001,0,0,0,0,1996/1/1,,,0,0,0,0,0,0.00,773,Unknown Binding,,0,0,,,Paolo Vian,,,,,0,,
15540501,8822130464,Teorie del Punto Di Vista,9788822130464,,,,ES,,,,false,1,15540501,4,9,2,0,,,,1,1,0,0,0,4.50,,,,2,0,Donata Meneghelli,,,,,,1,0,,
15541001,1888005068,"St. Joseph County, Indiana Cemetery Inscriptions",9781888005066,,,,ES,1992/1/1,American Society of Civil Engineers,,false,1,15541001,1,1,1,0,1992/1/1,,,0,0,0,0,1,1.00,,Unknown Binding,,1,0,Mary Irish,,,,,,,0,,
15541501,8826702098,L'Italia Al Voto: Analisi Delle Elezioni Amministrative del 1993 E Delle Prospettive del Sistema Politico Italiano,9788826702094,,,,ES,,,,false,1,15541501,0,0,0,0,,,,0,0,0,0,0,0.00,,,,0,0,Giovanni Di Franco,,,,,,,0,,
15542001,0886878071,The World Almanac Job Finders Guide 1997,9780886878078,,,,ES,1997/1/1,St. Martin's Press,,false,1,15542001,0,0,0,0,1997/1/1,,,0,0,0,0,0,0.00,,Hardcover,,0,0,Les Krantz,,,,,,,0,,
15542501,8834301382,Metodi quantitativi nella ricerca educativa,9788834301388,,,,ES,1999/1/1,Vita e Pensiero,ita,false,1,15542501,0,0,0,0,1999/1/1,,book,0,0,0,0,0,0.00,,,,0,0,Renata Viganò,,,,,,,0,,
15543001,8834890809,Interpretazione Della Legge E Discorso Razionale,9788834890806,,,,ES,1999/1/1,G. Giappichelli,,false,1,15543001,0,0,0,0,,,,0,0,0,0,0,0.00,,Unknown Binding,,0,0,Enrico Diciotti,,,,,,,0,,
15543501,0887112722,The Application of Quality to Risk Management Practices,9780887112720,,,,ES,,,,false,1,15543501,0,0,0,0,,,,0,0,0,0,0,0.00,,,,0,0,Willis Corroon,,,,,,,0,,
15544001,8839204695,Amphitruo,9788839204691,,,,ES,,,,false,1,15544001,0,0,0,0,,,,0,0,0,0,0,0.00,,,,0,0,Renato Raffaelli,,,,,,,0,,
15544501,1560637749,Hechos Acerca de La Logia Masonica,9781560637745,,,,ES,1994/12/1,Editorial Unilit,spa,false,9,6601199,49,54,15,5,1988/11/22,The Facts on the Masonic Lodge (The Facts on Series),,6,3,2,2,2,3.60,66,Paperback,,0,0,"John Ankerberg,John Weldon",,,,,,16,1,4,non-fiction
15545001,8842510769,Milano Liberty: Il Decorativismo Eclettico,9788842510765,,,,ES,,,,false,1,15545001,0,0,0,0,,,,0,0,0,0,0,0.00,,,,0,0,Oscar Pedro Melano,,,,,,,0,,
15545501,1891775286,"Plunkett's Biotech and Genetics Industry Almanac, 2003-2004: The Only Complete Reference to the Biotechnology Business and Genetic Engineering",9781891775284,,,,ES,2003/1/1,Plunkett Research,,false,2,15364050,0,0,0,0,2003/1/1,,,0,0,0,0,0,0.00,580,Hardcover,,0,0,,,,Jack W. Plunkett,,,,0,,
15546001,1892219018,Discovering Food Science,9781892219015,,,,ES,,,,false,1,15546001,0,0,0,0,,,,0,0,0,0,0,0.00,,,,0,0,C. Byrd-Bredbenner,,,,,,,0,,
15546501,1892542005,Texas Real Estate Forms Manual: A Project of the Real Estate Forms Committee of the State Bar of Texas,9781892542007,,,,ES,,,,false,1,15546501,1,0,0,0,,,,0,0,0,0,0,0.00,,,,0,0,Robert Mitchell Lindner,,,,,,1,0,,
15547001,8846411412,"La Luna Nella Cenere: Analisi del Sogno Di Cenerentola, Pelle D'Asino, Cordelia",9788846411419,,,,ES,,,,false,1,15547001,0,0,0,0,,,,0,0,0,0,0,0.00,,,,0,0,Massimiliano Badino,,,,,,,0,,
15547501,1893532054,Kts Quickclicks Microsoft Excel 2000,9781893532052,,,,ES,,,,false,1,15547501,0,0,0,0,,,,0,0,0,0,0,0.00,,,,0,0,Katie Layman,,,,,,,0,,
15548001,8870381927,Incisori Ferraresi Nelle Stampe del Museo Schifanoia Dal XVII Al XIX Secolo,9788870381924,,,,ES,,,,false,1,15548001,0,0,0,0,,,,0,0,0,0,0,0.00,,,,0,0,Elena Russo,,,,,,,0,,
15548501,1894693132,Gates of Oblivion,9781894693134,,,,ES,,,,false,1,15548501,1,0,0,0,,,,0,0,0,0,0,0.00,,,,0,0,Various,,,,,,1,0,,
15549001,1561387983,Patterns [With Plastic Puzzle Pieces],9781561387984,,,,ES,,,,false,1,15549001,1,0,0,0,,,,0,0,0,0,0,0.00,,,,0,0,Running Press,,,,,,1,0,,
15549501,0889861560,"Control Ninety: Proceedings of the International Symposium Held in Lugano, Switzerland, June 18-21, 1990",9780889861565,,,,ES,,,,false,1,15549501,0,0,0,0,,,,0,0,0,0,0,0.00,,,,0,0,,,,Mohamed Hamza,,,,0,,
15550001,1896745814,Chong Fan Xizang,9781896745817,,,,ES,,,,false,1,15550001,0,0,0,0,,,,0,0,0,0,0,0.00,,,,0,0,Jian Shi,,,,,,,0,,
15550501,1897799004,The Geologist's Directory,9781897799000,,,,ES,,,,false,1,15550501,0,0,0,0,,,,0,0,0,0,0,0.00,,,,0,0,,,,G.M. Reeves,,,,0,,
15551001,156171965X,Tips on New York,9781561719655,,,,ES,,,,false,1,15551001,0,0,0,0,,,,0,0,0,0,0,0.00,,,,0,0,Jack Ginkelstein,,,,,,,0,,
15551501,1899870180,"BMW M-Series: Including M1, M3, M5, M635 AMD M Roadster",9781899870189,,,,ES,1997/8/1,Motorbooks International,,false,2,15551501,4,4,1,0,1997/8/7,,,0,1,0,0,0,4.00,128,Hardcover,,1,0,Chris Rees,,,,,,2,0,,
15552001,1562010522,An English Odyssey,9781562010522,,,,ES,1998/6/4,Running Press,,false,1,15552001,0,0,0,0,1993/7/1,,,0,0,0,0,0,0.00,220,Paperback,,0,0,Alix Mata,,,,,,,0,,
15552501,8876861831,Fondazione Umberto Severi,9788876861833,,,,ES,1992/1/1,F.C. Panini,,false,1,15552501,0,0,0,0,,,,0,0,0,0,0,0.00,2,Unknown Binding,,0,0,,,Jadranka Bentini,,,,,0,,
15553001,8877362529,"Elevazione E Toccata Sopra ""Regina Coeli"": Per Grande Organo",9788877362520,,,,ES,,,,false,1,15553001,0,0,0,0,,,,0,0,0,0,0,0.00,,,,0,0,Fernando Giulietti,,,,,,,0,,
15554001,156241464X,The Market for Bakery Snacks,9781562414641,,,,ES,,,,false,1,15554001,0,0,0,0,,,,0,0,0,0,0,0.00,,,,0,0,Find Svp,,,,,,,0,,
15554501,0890817510,The Great Thistledown Flood: The Parable of the Two Builders,9780890817513,,,,ES,1989/9/1,Harvest House Publishers,,false,1,15554501,0,0,0,0,1989/9/1,,,0,0,0,0,0,0.00,28,Paperback,,0,0,Bron Smith,,,,,,,0,,
15555001,0890870519,Can't Argue with Sunrise: A Paper Movie,9780890870518,,,,ES,,,,false,1,15555001,6,19,4,0,,,,3,1,0,0,0,4.75,,,,4,0,Lou Stoumen,,,,,,2,0,,
15555501,1928622011,Where the Locals Eat: Los Angeles: A Guide to Local-Favorite Restaurants in the Los Angeles Area,9781928622017,,,,ES,1999/9/1,Magellan Press (TN),,false,1,15555501,0,0,0,0,1999/9/1,,,0,0,0,0,0,0.00,160,Paperback,,0,0,Magellan Press,,,,,,,0,,
15556001,0891060219,Targeting Learning Disabilities,9780891060215,,,,ES,,,,false,1,15556001,0,0,0,0,,,,0,0,0,0,0,0.00,,,,0,0,Pat Sheffer,,,,,,,0,,
15556501,0891121234,Self-Study Guide to the Corinthian Letters,9780891121237,,,,ES,1972/12/1,Abilene Christian University Press,,false,1,15556501,0,0,0,0,1972/12/1,,,0,0,0,0,0,0.00,,Paperback,,0,0,J.D. Thomas,,,,,,,0,,
15557001,1562926578,Kindess,9781562926571,,,,ES,2000/5/5,Honor Books,,false,1,15557001,1,4,1,0,2000/5/5,,book,0,1,0,0,0,4.00,96,Hardcover,,1,0,Honor Books,,,,,,,0,,"inspirational,non-fiction"
15557501,1563057387,Meditations for Mothers of Young Children,9781563057380,,,,ES,,,,false,1,15557501,1,0,0,0,,,,0,0,0,0,0,0.00,,,,0,0,Beth Wilson Saavedra,,,,,,,0,1,
15558001,0891344055,The Dough Book,9780891344056,,,,ES,2000/10/28,Northlight,,false,1,15558001,0,0,0,0,2000/10/28,,,0,0,0,0,0,0.00,,Hardcover,,0,0,Toni Bergli Joner,,,,,,,0,,
15558501,1563295377,Ambulatory Surgery Coding Clinic Guidelines for Asc (Apcg),9781563295379,,,,ES,,,,false,1,15558501,1,0,0,0,,,,0,0,0,0,0,0.00,,,,0,0,,,,Lolita Jones,,,1,0,,
15559001,1563373459,"Coding Illustrated, 2000: Gastrointestinal System",9781563373459,,,,ES,,,,false,1,15559001,0,0,0,0,,,,0,0,0,0,0,0.00,,,,0,0,"Ingenix,Medicode",,,,,,,0,,
15560001,8885266258,Teoria E Pratica Nel Pensiero Di S. Caramella,9788885266254,,,,ES,,,,false,1,15560001,0,0,0,0,,,,0,0,0,0,0,0.00,,,,0,0,Francesco Armetta,,,,,,,0,,
15560501,8885698824,Artimino: Il Guerriero Di Prato Rosello: La Tomba a Pozzo del Tumulo B,9788885698826,,,,ES,,,,false,1,15560501,0,0,0,0,,,,0,0,0,0,0,0.00,,,,0,0,Gabriella Poggesi,,,,,,,0,,
15561001,0891922458,U. S. University Activity Abroad: Implications of the Mexican Case,9780891922452,,,,ES,,,,false,1,15561001,0,0,0,0,,,,0,0,0,0,0,0.00,,,,0,0,Charles N. Myers,,,,,,,0,,
15561501,8886338279,Udine: Una Citta Nella Grande Guerra: Fotofrafie,9788886338271,,,,ES,,,,false,1,15561501,0,0,0,0,,,,0,0,0,0,0,0.00,,,,0,0,Enrico Folisi,,,,,,,0,,
15562001,0891979344,Seth's Brother's Wife,9780891979340,,,,ES,,,,false,6,9414411,10,21,6,0,2009/8/8,,,1,2,2,1,0,3.50,,,,0,0,Harold Frederic,,,,,,3,0,,classics
15562501,8886756879,Vivere in Friuli: Saggi Di Demografia Storica (Secc. XVI-XIX),9788886756877,,,,ES,,,,false,1,15562501,0,0,0,0,,,book,0,0,0,0,0,0.00,,,,0,0,Marco Breschi,,,,,,,0,,
15563001,8887027382,"La Bibbia in Italiano Tra Medioevo E Rinascimento: Atti del Convegno Internazionale, Firenze, Certosa del Galluzzo, 8-9 Novembre 1996 = La Bible Itali",9788887027389,,,,ES,,,,false,1,15563001,0,0,0,0,,,,0,0,0,0,0,0.00,,,,0,0,Lino Leonardi,,,,,,,0,,
15563501,8887364230,Leggenda Di San Feliciano,9788887364231,,,,ES,,,,false,1,15563501,0,0,0,0,,,,0,0,0,0,0,0.00,,,,0,0,Pier Angelo Bucciolini,,,,,,,0,,
15564001,1564552233,Healing with Light,9781564552235,,,,ES,1993/12/1,Sounds True,,false,1,15564001,5,5,1,1,1993/12/1,,,1,0,0,0,0,5.00,,Audio,,1,1,,,,,,,3,0,,
15564501,0892434961,Encyclopedia of American Religions,9780892434961,,,,ES,1993/12/12,Liguori Publications,,false,19,1346109,63,50,13,2,1985/1/1,Encyclopedia of American Religions,book,7,3,0,0,3,3.85,,Paperback,,0,0,,,,J. Gordon Melton,,,40,1,,"reference,religion"
15565001,2060065984,Michelin Red-Great Britian and Ireland 1989,9782060065984,,,,ES,,,,false,35,14658458,36,85,22,0,1983/1/1,added cover and pages,book,8,7,4,2,1,3.86,,,,0,0,Guides Touristiques Michelin,,,,,,6,0,,travel
15565501,2060591015,Michelin Green Guide Europe,9782060591018,,,,ES,1996/8/1,Michelin Travel Publications,,false,3,6186360,7,0,0,0,1996/8/1,Michelin Green Guide: Europe,,0,0,0,0,0,0.00,540,Paperback,,0,0,,,,Guides Touristiques Michelin,,,-1,0,,
15566001,089278721X,Weather: Complete Unit,9780892787210,,,,ES,,,,false,1,15566001,0,0,0,0,,,,0,0,0,0,0,0.00,,,,0,0,National Science Resources Center,,,,,,,0,,
15566501,0892874848,Chevrolet-GMC: C Series Pickups and Suburbans and G Series Vans 1969-1987,9780892874842,,,,ES,,,,false,1,15566501,0,0,0,0,,,,0,0,0,0,0,0.00,,,,0,0,Intertec Publishing Corporation,,,,,,,0,,
15567001,9023234146,Dilemma's in de Bedrijfskundige Wetenschap,9789023234142,,,,ES,1999/1/1,Thesis Publishers,,false,1,15567001,0,0,0,0,1999/1/1,,,0,0,0,0,0,0.00,237,Unknown Binding,,0,0,,,M.J. Van Riemsdijk,,,,,0,,
15567501,2110004711,Actes Du Colloque International Informatique Et Societe,9782110004710,,,,ES,,,,false,1,15567501,0,0,0,0,,,,0,0,0,0,0,0.00,,,,0,0,République Française,,,,,,,0,,
15568001,1565543572,Australian Bed & Breakfast Book,9781565543577,,,,ES,1998/3/1,Pelican Publishing Company,,false,9,10693677,0,0,0,0,2002/2/28,,book,0,0,0,0,0,0.00,384,Paperback,,0,0,James Thomas,,,,,,,0,,
15568501,2130486460,La Structure Par Terme Des Taux D'Interet,9782130486466,,,,ES,,,,false,1,15568501,0,0,0,0,,,,0,0,0,0,0,0.00,,,,0,0,Christophe Bisiere,,,,,,,0,,
15569001,2204012785,La Doctrine Des Douze Apotres =: Didache,9782204012782,,,,ES,,,,false,1,15569001,0,0,0,0,,,,0,0,0,0,0,0.00,,,,0,0,Willy Rordorf,,,,,,,0,,
15569501,9027977011,Old & New in Southern Shona Independent Churches: Church Growth-Causative Factors & Recruitment Techniques,9789027977014,,,,ES,,,,false,1,15569501,2,0,0,0,,,,0,0,0,0,0,0.00,373,Hardcover,,0,0,Marthinus L. Daneel,,,,,,2,0,,
15570001,2222022029,Grands Notables Du Premier Empire: Notices de Biographie Sociale,9782222022022,,,,ES,,,,false,4,15572320,0,0,0,0,,,,0,0,0,0,0,0.00,,,,0,0,Louis Bergeron,,,,,,,0,,
15570501,9034631427,Grenzen in de Ijle Ruimte: Variatie in Geografisch Schaalgebruik Verkend,9789034631428,,,,ES,,,,false,1,15570501,0,0,0,0,,,,0,0,0,0,0,0.00,,,,0,0,E. Ter Borg,,,,,,,0,,
15571001,2246482410,Les Maisons,9782246482413,,,,ES,1993/1/1,,fre,false,3,15571001,4,8,2,0,1993/9/8,,book,1,0,1,0,0,4.00,,Paperback,,2,0,Christophe Donner,,,,,,1,0,,
15571501,2252018038,Les Ordres Mendiants En Bretagne (Vers 1230-Vers 1530): Pauvrete Volontaire Et Predication a la Fin Du Moyen-Age,9782252018033,,,,ES,,,,false,1,15571501,0,0,0,0,,,,0,0,0,0,0,0.00,,,,0,0,Hervé Martin,,,,,,,0,,
15572001,9043500232,de Mythe Van de Autonomie,9789043500234,,,,ES,1999/1/1,Hotei Publishing,,false,1,15572001,0,0,0,0,1999/1/1,,,0,0,0,0,0,0.00,176,Unknown Binding,,0,0,Gerrit Manenschijn,,,,,,,0,,
15572501,9051702116,Combinatorial Optimization & Empirical Processes,9789051702118,,,,ES,,,,false,1,15572501,0,0,0,0,,,,0,0,0,0,0,0.00,,,,0,0,N. Piersma,,,,,,,0,,
15573001,9053121366,Achter Belgie: Een Pamflet Voor Degenen Die Verder Willen Denken,9789053121368,,,,ES,,,,false,1,15573001,0,0,0,0,,,,0,0,0,0,0,0.00,,,,0,0,Dirk Achten,,,,,,,0,,
15573501,9053563903,"Goethe & Rembrandt: Tekeningen Uit Weimar: Uit de Grafische Bestanden Van de Kunstsammlungen Zu Weimar, Aangevuld Met Werken Uit Het Goeth",9789053563908,,,,ES,,,,false,1,15573501,0,0,0,0,,,,0,0,0,0,0,0.00,,,,0,0,Bob van den Boogert,,,,,,,0,,
15574001,2551191718,Pacte 2000: Rapport de La Commission Nationale Sur Les Finances Et La Fiscalite Locales,9782551191710,,,,ES,,,,false,1,15574001,0,0,0,0,,,,0,0,0,0,0,0.00,,,,0,0,Jean-Yves Le Naour,,,,,,,0,,
15574501,1567611184,First Book of PageMaker for the Mac,9781567611182,,,,ES,1993/5/1,MacMillan Publishing Company,,false,1,15574501,0,0,0,0,1993/5/1,,,0,0,0,0,0,0.00,350,Paperback,,0,0,Carla Rose,,,,,,,0,,
15575001,1567702260,Share Your Blessings,9781567702262,,,,ES,,,,false,1,15575001,0,0,0,0,,,,0,0,0,0,0,0.00,,,,0,0,Chris Thornton,,,,,,,0,,
15575501,2709912880,Les Ignames Sauvages D'Afrique de L'Ouest (Wild Yams in West Africa): Caracteres Morphologiques (Morphological Characteristics),9782709912884,,,,ES,,,,false,1,15575501,1,0,0,0,,,,0,0,0,0,0,0.00,,,,0,0,"J. Zoundjihekpon,P. Hamon,René Dumont",,,,,,1,0,,
15576001,1568025793,Congressional Quarterly's Desk Reference on American Criminal Justice,9781568025797,,,,ES,2000/9/5,CQ-Roll Call Group Books,,false,1,15576001,0,0,0,0,2000/9/5,,book,0,0,0,0,0,0.00,,Paperback,,0,0,Patricia G. Barnes,,,,,,,0,,
15576501,2717720871,"Stanislas Fumet, Ou, La Presence Au Temps",9782717720877,,,,ES,,,,false,2,15576501,0,0,0,0,,,,0,0,0,0,0,0.00,,,,0,0,Marie-Odile Germain,,,,,,,0,,
15577001,2717839178,Globalisation Et Politiques Economiques: Les Marges de Manoeuvre: Colloque Du Gdr Cnrs-Efiq,9782717839173,,,,ES,,,,false,1,15577001,0,0,0,0,,,,0,0,0,0,0,0.00,,,,0,0,"Charles Gide,Gdr Cnrs-Efiq",,,,,,,0,,
15577501,2724702530,Les voûtes dans l'architecture de l'Egypte ancienne - Volume 1: Texte,9782724702538,,,,ES,1999/1/1, Institut français d'archéologie orientale,fre,false,1,15577501,0,0,0,0,,,,0,0,0,0,0,0.00,466,,,0,0,"Salah El-Naggar,Salah Najjar",,,,,,,0,,
15578001,2735107167,Criminalite Economique Et Atteintes a la Dignite de La Personne,9782735107162,,,,ES,,,,false,1,15578001,0,0,0,0,,,,0,0,0,0,0,0.00,,,,0,0,François-Bernard Mâche,,,,,,,0,,
15578501,1568848374,Windows 95 Communication and Online Secrets,9781568848372,,,,ES,,,,false,1,15578501,0,0,0,0,,,,0,0,0,0,0,0.00,,,,0,0,David W. Boles,,,,,,,0,,
15579001,9068390228,Tolerantie Onder Nap: 20 Essays Over Homoseksualiteit Voor Rob Tielman,9789068390223,,,,ES,,,,false,1,15579001,0,0,0,0,,,,0,0,0,0,0,0.00,,,,0,0,Rob Tielman,,,,,,,0,,
15579501,9070288311,"Complete Colour Facsimile of the Rosarium (MS Western 99) in the Chester Beatty Library, Dublin",9789070288310,,,,ES,1986/1/1,Purdue University Press,,false,1,15579501,0,0,0,0,1986/1/1,,,0,0,0,0,0,0.00,95,Unknown Binding,,0,0,,,Simon Bening,,,,,0,,
15580001,1569250324,Grants & Awards for K-12 Students,9781569250327,,,,ES,,,,false,1,15580001,0,0,0,0,,,,0,0,0,0,0,0.00,,,,0,0,Jackie Ferguson,,,,,,,0,,
15580501,907482904X,de Augustijnen Te Antwerpen (1608-1797): Dagelijks Leven in Het Klooster En Op Het College,9789074829045,,,,ES,,,,false,1,15580501,0,0,0,0,,,,0,0,0,0,0,0.00,,,,0,0,Dirk Leyder,,,,,,,0,,
15581001,2760918017,Lettres a Sa Femme,9782760918016,,,,ES,1997/1/1,Actes Sud,,false,12,676362,592,651,174,10,1976/1/1,Letters From Prison,book,51,54,44,23,2,3.74,,Unknown Binding,,0,0,Marquis de Sade,,,,,,345,5,16,"adult,amazon,classic-literature,classics,dark,erotica,essays,fiction,france,history,literature,memoir,non-fiction,philosophy,social"
15581501,2802707094,Une Alliance Franco-Russe: La France La Russie Et L'Europe Au Tournant Du Siecle Dernier,9782802707097,,,,ES,,,,false,2,15581501,0,0,0,0,1997/1/1,,,0,0,0,0,0,0.00,,,,0,0,Anne Hogenhuis-Seliverstoff,,,,,,,0,,
15582001,9120050518,Vem Ager Vad I Svenskt Naringsliv: Who Owns Whom in Swedish Industry,9789120050515,,,,ES,,,,false,1,15582001,0,0,0,0,,,,0,0,0,0,0,0.00,,,,0,0,Birgitta Forsgren,,,,,,,0,,
15582501,9127339076,Kulturvaxtlexikon,9789127339071,,,,ES,,,,false,1,15582501,0,0,0,0,,,,0,0,0,0,0,0.00,,,,0,0,Björn Aldén,,,,,,,0,,
15583001,913803221X,Psykiskt Avvikande Lag'overtr'adare: Bet'ankande,9789138032213,,,,ES,,,,false,1,15583001,0,0,0,0,,,,0,0,0,0,0,0.00,,,,0,0,Sweden,,,,,,,0,,
15583501,9138124203,Current Swedish Legislation on Narcotics and Psychotropic Substances,9789138124208,,,,ES,1990/1/1,Brottsf'orebyggande Radet Information Och F'Orlag,,false,2,15583501,0,0,0,0,1990/1/1,,,0,0,0,0,0,0.00,38,Hardcover,,0,0,,,Brottsf Orebyggande R Adet,,,,,0,,
15584001,9139201090,Kommunalrattens Grunder,9789139201090,,,,ES,,,,false,1,15584001,4,6,2,0,,,,0,1,0,1,0,3.00,,,,2,0,Alf Bohlin,,,,,,,0,,
15584501,2850563455,Le Musee Saint-Raymond: Musee Des Antiques de Toulouse,9782850563454,,,,ES,,,,false,2,4937901,0,0,0,0,,Le musee Saint-Raymond: Musee des antiques de Toulouse,,0,0,0,0,0,0.00,,,,0,0,Musée Saint-Raymond,,,,,,,0,,
15585001,2853090191,Louveciennes,9782853090193,,,,ES,,,,false,1,15585001,0,0,0,0,,,,0,0,0,0,0,0.00,,,,0,0,"Editions L Petit,EditionsLPetitit",,,,,,,0,,
15585501,2855662532,"Man's Two Natures, Human & Divine (Izvor, #213)",9782855662534,,,,ES,,,,false,8,514555,40,71,16,0,1984/4/1,Nature humaine et nature divine,book,10,4,1,1,0,4.44,,,,3,0,"Omraam Mikhahel Ahivanhov,Omraam Mikhaël Aïvanhov",,,,,,19,1,2,spirituality
15586001,9170051712,"Tjanster for Samhallet: Styrning, Sakring Och Utveckling Inom Kommuner Och Landsting",9789170051715,,,,ES,,,,false,1,15586001,0,0,0,0,,,,0,0,0,0,0,0.00,,,,0,0,Jan Von Heland,,,,,,,0,,
15586501,9170541930,Vaxelbruk 1950-1975 Med Mellan Himmel Och Jord,9789170541933,,,,ES,,,,false,1,15586501,0,0,0,0,,,,0,0,0,0,0,0.00,,,,0,0,Siv Arb,,,,,,,0,,
15587001,2863320912,Modern Methods in Celestial Mechanics =: Les Methodes Modernes de La Mecanique Celeste: Theorie Des Perturbations Et Chaos Intrinseque: Comptes Rendus,9782863320914,,,,ES,,,,false,1,15587001,0,0,0,0,,,,0,0,0,0,0,0.00,,,,0,0,Daniel Benest,,,,,,,0,,
15587501,2865530639,Gagne-Misere,9782865530632,,,,ES,1995/1/1,J.-C. Godefroy,,false,2,15587501,0,0,0,0,,,,0,0,0,0,0,0.00,7,Unknown Binding,,0,0,Gérard Boutet,,,,,,,0,,
15588001,9172584513,"Budgeteringens Roller, Aktorer Och Effekter: En Studie AV Budgetprocesserna I En Offentlig Organisation",9789172584518,,,,ES,,,,false,1,15588001,0,0,0,0,,,,0,0,0,0,0,0.00,,,,0,0,Claes Charpentier,,,,,,,0,,
15588501,9174760017,Lag Om Anstallningsskydd I Praktiken,9789174760019,,,,ES,,,,false,1,15588501,0,0,0,0,,,,0,0,0,0,0,0.00,,,,0,0,Sweden,,,,,,,0,,
15589001,1572573201,LT 2-A Tb Chano-Spanish Is,9781572573208,,,,ES,1996/10/1,Houghton Mifflin Harcourt (HMH),,false,1,15589001,0,0,0,0,1996/10/1,,,0,0,0,0,0,0.00,,Paperback,,0,0,Steck-Vaughn,,,,,,,0,,
15589501,9185130001,Om Fynden Pa Vinden I Majornas Vaxelundervisningsskola,9789185130009,,,,ES,,,,false,1,15589501,0,0,0,0,,,,0,0,0,0,0,0.00,,,,0,0,Elof Lindalv,,,,,,,0,,
15590001,9186324004,Kulturaktionen 1981/82 Mot Staten,9789186324001,,,,ES,,,,false,1,15590001,0,0,0,0,,,,0,0,0,0,0,0.00,,,,0,0,Jan Gehlin,,,,,,,0,,
15590501,9188148262,Diskriminering I Arbetslivet,9789188148261,,,,ES,,,,false,1,15590501,0,0,0,0,,,,0,0,0,0,0,0.00,,,,0,0,Tommy Iseskog,,,,,,,0,,
15591001,1573710237,Vietnamese - English Mini-Book Set with Audio,9781573710237,,,,ES,,,,false,1,15591001,0,0,0,0,,,,0,0,0,0,0,0.00,,,,0,0,Claudia Schwalm,,,,,,,0,,
15591501,9200503837,Nuclear Safety,9789200503832,,,,ES,,,,false,1,15591501,0,0,0,0,,,,0,0,0,0,0,0.00,,,,0,0,Organisation for Economic Co-operation and Development,,,,,,,0,,
15592001,9211320232,No Refuge: The Challenge of Internal Displacements,9789211320237,,,,ES,,Ofc Coord Humanitarian Affairs,,false,1,15592001,0,0,0,0,,,,0,0,0,0,0,0.00,132,Paperback,,0,0,Rose N. Osinde,,,,,,,0,,
15592501,2894481128,Les Anciennes Diligences Du Quebec: Le Transport En Voiture Publique Au Xixe Siecle,9782894481127,,,,ES,,,,false,1,15592501,0,0,0,0,,,,0,0,0,0,0,0.00,,,,0,0,Pierre Lambert,,,,,,,0,,
15593001,2901432875,"L'Indochine de Launois: Musee de L'Abbaye Sainte-Croix, Les Sables D'Olonne, 14 Mars-31 Mai 1998",9782901432876,,,,ES,1998/1/1,Musee,,false,1,15593001,0,0,0,0,1998/1/1,,,0,0,0,0,0,0.00,120,Unknown Binding,,0,0,,,Jean Launois,,,,,0,,
15593501,2903981558,"de L'Exil a la Resistance: Refugies Et Immigres D'Europe Centrale En France, 1933-1945: Colloque International, Centre de Recherche de L'Universi",9782903981556,,,,ES,,,,false,1,15593501,0,0,0,0,,,,0,0,0,0,0,0.00,,,,0,0,Karel Bartosek,,,,,,,0,,
15594001,9251003599,Recommended International Standard for Quick Frozen Fillets of Flat Fish,9789251003596,,,,ES,,,,false,1,15594001,0,0,0,0,,,,0,0,0,0,0,0.00,,,,0,0,Joint FAO/WHO Food Standards Programme,,,,,,,0,,
15594501,2906435988,L'Enfant Et La Psychanalyse,9782906435988,,,,ES,,,,false,1,15594501,0,0,0,0,,,,0,0,0,0,0,0.00,,,,0,0,Claude Allione,,,,,,,0,,
15595001,1575723441,Pieter Bruegel,9781575723440,,,,ES,2000/9/12,Heinemann Educational Books,,false,1,15595001,1,3,1,0,2000/8/1,,,0,0,1,0,0,3.00,32,Hardcover,,1,0,"Jane Woodhouse,Jayne Woodhouse",,,,,,,0,,
15595501,157576105X,Access for Windows 95 Virtual Tutor: With CD,9781575761053,,,,ES,1997/5/1,Que Educational & Training,,false,1,15595501,0,0,0,0,1997/5/1,,book,0,0,0,0,0,0.00,,Paperback,,0,0,John M. Preston,,,,,,,0,,
15596001,1575890615,Massachusetts Superior Court Civil Practice Jury Instructions,9781575890616,,,,ES,,,,false,1,15596001,0,0,0,0,,,,0,0,0,0,0,0.00,,,,0,0,Patrick F. Brady,,,,,,,0,,
15596501,1576590690,A Poor Man's Legacy: An Anthology of Franciscan Poverty,9781576590690,,,,ES,,,,false,1,15596501,3,0,0,0,,,,0,0,0,0,0,0.00,,,,0,0,,,,Cyprian J. Lynch,,,3,0,,
15597001,1576855813,Social Worker/Case Worker Exam,9781576855812,,,,ES,2008/3/1,Learning Express (NY),,false,1,15597001,0,0,0,0,2008/3/1,,,0,0,0,0,0,0.00,352,Paperback,,0,0,LearningExpress,,,,,,,0,,
15597501,2911855116,Savignac En Vrac: Musee de Trouville,9782911855115,,,,ES,,,,false,1,15597501,0,0,0,0,,,,0,0,0,0,0,0.00,,,,0,0,Frederique Citera,,,,,,,0,,
15598001,2912891396,Au Son Du Gamelan,9782912891396,,,,ES,,,,false,1,15598001,1,0,0,0,,,,0,0,0,0,0,0.00,,,,0,0,Augusta Volz,,,,,,1,0,,
15598501,1577481712,Word Search Collections,9781577481713,,,,ES,1998/1/1,Barbour Publishing,,false,1,15598501,2,0,0,0,1998/1/1,,,0,0,0,0,0,0.00,112,Paperback,Large Print,0,0,"Inc Staff Barbour Publication,Various",,,,,,1,0,,
15599001,2930088508,Rwanda: Documents Sur Le Genocide: Citoyens Pour Un Rwanda Democratique,9782930088501,,,,ES,,,,false,1,15599001,0,0,0,0,,,,0,0,0,0,0,0.00,,,,0,0,Danielle Helbig,,,,,,,0,,
15599501,2950609627,"Les 25 Premieres Annees de La Corporation Municipale, 1850-1875",9782950609625,,,,ES,,,,false,1,15599501,0,0,0,0,,,,0,0,0,0,0,0.00,,,,0,0,L. Rivaltz Quenette,,,,,,,0,,
15600001,2951221703,Fragments de L'Invisible: Suivi de Propos Holographiques,9782951221703,,,,ES,,,,false,1,15600001,0,0,0,0,,,,0,0,0,0,0,0.00,,,,0,0,Alain Joguet,,,,,,,0,,
15600501,9287149585,Recovery of Local and Regional Authorities in Financial Difficulties,9789287149589,,,,ES,2002/1/1,Council of Europe,,false,1,15600501,0,0,0,0,,,,0,0,0,0,0,0.00,,Paperback,,0,0,,,Council of Europe,,,,,0,,
15601001,9290601256,"Mejoramiento de La Batata (Ipomoea Batatas) En Latinoamerica: Memorias del ""Seminario Sobre Mejoramiento de La Batata (Ipomoea Batatas) En Latinoameri",9789290601258,,,,ES,,,,false,1,15601001,0,0,0,0,,,,0,0,0,0,0,0.00,,,,0,0,International Potato Center,,,,,,,0,,
15601501,9291130699,Scientific Writing for Agricultural Research Scientists: A Training Reference Manual,9789291130696,,,,ES,,,,false,1,15601501,1,0,0,0,,,,0,0,0,0,0,0.00,,,,0,0,Paul Stapleton,,,,,,1,0,,
15602001,9500511541,Dinamica de Las Relaciones Externas de America Latina y El Caribe,9789500511544,,,,ES,,,,false,1,15602001,0,0,0,0,,,,0,0,0,0,0,0.00,,,,0,0,Gerardo Orlando Noto,,,,,,,0,,
15602501,3100512014,Make Us One: Full Range,9783100512017,,,,ES,1995/12/1,Word Entertainment Music,,false,1,15602501,0,0,0,0,1995/12/1,,,0,0,0,0,0,0.00,,Paperback,,0,0,,,D. Clydesdale,,,,,0,,
15603001,3110236214,Yearbook of Phraseology 2011: [Print ] Online],9783110236217,,,,ES,,,,false,1,15603001,0,0,0,0,,,,0,0,0,0,0,0.00,,,,0,0,,,,Koenraad Kuiper,,,,0,,
15603501,9505819064,Un carancho muy devoto: Cuentos tradicionales,9789505819065,,,,ES,1997/1/1,,,false,1,15603501,3,0,0,1,1996/1/1,Un carancho muy devoto,book,0,0,0,0,0,0.00,96,,,0,1,Adolfo Colombres,,,,,,2,0,,
15604001,9507200630,"La Memoria del Ciudad: Centro Cultural Recoleta, del 12 Al 30 de Mayo de 1999, Sala C",9789507200632,,,,ES,,,,false,1,15604001,0,0,0,0,,,,0,0,0,0,0,0.00,,,,0,0,Banco De La Ciudad De Buenos Aires,,,,,,,0,,
15604501,3205985087,Raumplanung Und Neue Vertraglichkeiten: Aushandeln Von Widerspruchen Im Umgang Mit Dem Erschopflichen,9783205985082,,,,ES,,,,false,1,15604501,0,0,0,0,,,,0,0,0,0,0,0.00,,,,0,0,Maria Nicolini,,,,,,,0,,
15605001,321182264X,Cell Organelles,9783211822647,,,,ES,2001/12/5,Springer,,false,3,15605001,2,3,1,0,1992/10/16,,,0,0,1,0,0,3.00,467,Hardcover,,1,0,,,,Reinhold G. Herrmann,,,1,0,,
15605501,950961808X,M. Giardinelli lee a M. Giardinelli,9789509618084,,,,ES,,,spa,false,1,15605501,0,0,0,0,,,book,0,0,0,0,0,0.00,,,,0,0,Mempo Giardinelli,,,,,,,0,,
15606001,3260054340,Vom Knochen Zur Diagnose: Palaopathologische Untersuchungen an Spatmittelalterlichem Knochenmaterial Aus Oberwinterthur Und Nanikon-Buhl: Mit Besonderer Berucksichtigung Ihrer Klinischen Bedeutung,9783260054341,,,,ES,1999/1/1,Juris Druck + Verlag,,false,1,15606001,0,0,0,0,,,,0,0,0,0,0,0.00,,Unknown Binding,,0,0,Irene Bernadette Hof,,,,,,,0,,
15606501,3296109102,"Problemata, Forscshungen Zur Klassischen Philologie, Heft 11: Die Erzahlungskunst Des T. Livius",9783296109107,,,,ES,,,,false,1,15606501,0,0,0,0,,,,0,0,0,0,0,0.00,,,,0,0,Erich Burck,,,,,,,0,,
15607001,9514212223,Yhdysluokkaopetusjarjestelmien Arviointia =: Evaluation of Different Multiple Grade Systems,9789514212222,,,,ES,,,,false,1,15607001,0,0,0,0,,,,0,0,0,0,0,0.00,,,,0,0,Esko Kalaoja,,,,,,,0,,
15607501,9514662288,Matkailun Kehittamisohjelma Vuosille 1982-1990,9789514662287,,,,ES,,,,false,1,15607501,0,0,0,0,,,,0,0,0,0,0,0.00,,,,0,0,Matkailun Edist Amiskeskus,,,,,,,0,,
15608001,9515933757,"Saimaa, Matkailukartta",9789515933751,,,,ES,,,,false,1,15608001,0,0,0,0,,,,0,0,0,0,0,0.00,,,,0,0,Finland,,,,,,,0,,
15608501,3412034797,Themen Der Agyptischen Malerei Des 20. Jahrhunderts,9783412034795,,,,ES,1980/1/1,Bohlau Verlag,,false,1,15608501,0,0,0,0,,,,0,0,0,0,0,0.00,,Unknown Binding,,0,0,Ezzat Naguib,,,,,,,0,,
15609001,9517493282,Maantieproffat: Moottoripyoratarinoita = Road Profs: Motorbike Stories,9789517493284,,,,ES,,,,false,1,15609001,0,0,0,0,,,,0,0,0,0,0,0.00,,,,0,0,Nina Tuittu,,,,,,,0,,
15609501,9519111654,"Thesaurus Lutheri: Auf Der Suche Nach Neuen Paradigmen Der Luther-Forschung: Referate Des Luther-Symposiums in Finnland, 11.-12. November",9789519111650,,,,ES,,,,false,1,15609501,1,0,0,0,,,,0,0,0,0,0,0.00,,,,0,0,Tuomo Mannermaa,,,,,,1,0,,
15610001,342809509X,Liefer- Und Leistungsbeziehungen in Der Deutschen Automobilindustrie: Strukturelle Veranderungen Aus Unternehmerischer Und Wirtschaftspolitischer Sich,9783428095094,,,,ES,,,,false,1,15610001,0,0,0,0,,,,0,0,0,0,0,0.00,,,,0,0,Marcus Reeg,,,,,,,0,,
15610501,343302913X,Ernst & Sohn Terms for Civil Engineers: Deutsch-Englisch/Englisch-Deutsch - Online-Version 1.0,9783433029138,,,,ES,2019/6/4,Ernst & Sohn,,true,2,15610501,0,0,0,0,2012/9/25,,,0,0,0,0,0,0.00,244,ebook,,0,0,Ernst & Sohn,,,,,,,0,,
15611001,3443580394,Die Flechtengattung Biatora in Europa,9783443580391,,,,ES,,,,false,1,15611001,0,0,0,0,,,,0,0,0,0,0,0.00,,,,0,0,Christian Printzen,,,,,,,0,,
15611501,9536419157,Gospodarska Povijest Dalmacije Od 18. Do 20. Stoljeca,9789536419159,,,,ES,,,,false,1,15611501,3,0,0,1,,,book,0,0,0,0,0,0.00,,,,0,1,Sime Pericic,,,,,,1,1,,history
15612001,9541400132,"Съюзът на южнославянските художници ""Лада,"" 1904-1912): българското изкуство на южнославянските изложби",9789541400135,,,,ES,,"Българо-английско дружество ""ПъблишСайСет-Агри""",,false,1,15612001,0,0,0,0,,,book,0,0,0,0,0,0.00,,,,0,0,Милена Георгиева,,,,,,,0,,
15612501,9545230207,Подготовка на Илинденско-Преображенското въстание в Странджа - Малкотърновски революционен район 1902-1903,9789545230202,,,,ES,1996/1/1,"Народна библиотека ""Св. св. Кирил и Методий""",bul,false,1,15612501,0,0,0,0,1996/1/1,,book,0,0,0,0,0,0.00,,Unknown Binding,,0,0,Христо Караманджуков,,,,,,,0,,
15613001,9548256096,"Shte Se Vurnesh Li, Fotinov: Dokumentalni Fragmenti",9789548256094,,,,ES,,,,false,1,15613001,0,0,0,0,,,,0,0,0,0,0,0.00,,,,0,0,Georgi Karastoianov,,,,,,,0,,
15613501,3476452077,"Gewalt Der Geschichte, Geschichten Der Gewalt: Limitation Und Transgression in Literatur Und Asthetik",9783476452078,,,,ES,1999/1/1,Metzler,,false,1,15613501,0,0,0,0,,,,0,0,0,0,0,0.00,,Unknown Binding,,0,0,,,Claudia Benthien,,,,,0,,
15614001,9559219359,Simhala Samyutta Nikaya,9789559219354,,,,ES,,,,false,1,15614001,0,0,0,0,,,,0,0,0,0,0,0.00,,,,0,0,Bellanvila Vimalaratana,,,,,,,0,,
15614501,956201178X,Ingenieria Sismica En Chile: El Caso del Sismo del 3 de Marzo de 1985,9789562011785,,,,ES,,,,false,1,15614501,0,0,0,0,,,,0,0,0,0,0,0.00,,,,0,0,Rodrigo Flores,,,,,,,0,,
15615001,3487075938,"Gesammelte Werke Bd. XVI: Beschreibung Einer Reise Durch Deutschland Und Die Schweiz Im Jahre, 1781",9783487075938,,,,ES,1994/1/1,Georg Olms Publishers,,false,1,15615001,0,0,0,0,,,,0,0,0,0,0,0.00,,Hardcover,,0,0,Friedrich Nicolai,,,,,,,0,,
15615501,3487105020,Cristoforo Landino: Index,9783487105024,,,,ES,1998/1/1,Georg Olms Verlag AG,,false,1,15615501,0,0,0,0,1998/1/1,,,0,0,0,0,0,0.00,270,Unknown Binding,,0,0,,,Ute Ecker,,,,,0,,
15616001,3499169444,Lernbehinderte: Krit. Entwicklungsgeschichte E. Notstandes: Sonderpadagogik in Deutschland U. Schweden,9783499169441,,,,ES,,,,false,1,15616001,0,0,0,0,,,,0,0,0,0,0,0.00,,,,0,0,Ingeborg Altstaedt,,,,,,,0,,
15616501,9586163598,La Problematica de Las Drogas: Mitos y Realidades,9789586163590,,,,ES,,,,false,1,15616501,0,0,0,0,,,,0,0,0,0,0,0.00,,,,0,0,Richard Tovar Cardenas,,,,,,,0,,
15617001,9586950263,"Miscegenacion y Cultura En La Colombia Colonial, 1750-1810",9789586950268,,,,ES,,,,false,2,15617003,1,0,0,0,,,,0,0,0,0,0,0.00,,,,0,0,Virginia Gutiérrez de Pineda,,,,,,1,0,,
15617501,9589160352,Chachafruto O Balu: Erythrina Edulis T.: Cultivo y Aprovechamiento,9789589160350,,,,ES,,,,false,1,15617501,0,0,0,0,,,,0,0,0,0,0,0.00,,,,0,0,Luis Enrique Acero Duarte,,,,,,,0,,
15618001,3527260781,"Immuno Enzyme Techniques in Cytochemistry, Vol. 10",9783527260782,,,,ES,1984/12/1,John Wiley & Sons,,false,1,15618001,0,0,0,0,1984/12/1,,,0,0,0,0,0,0.00,162,Hardcover,,0,0,,,,Wolf D. Kuhlmann,,,,0,,
15618501,3527303235,Porous Silicon Technology,9783527303236,,,,ES,,,,false,1,15618501,0,0,0,0,,,,0,0,0,0,0,0.00,,,,0,0,,,,Jillian M. Buriak,,,,0,,
15619001,9592210055,Extraplagiario,9789592210059,,,,ES,,,,false,1,15619001,0,0,0,0,,,,0,0,0,0,0,0.00,,,,0,0,Jesus David Curbelo Rodriguez,,,,,,,0,,
15619501,3534085086,Literarisches Mazenatentum: Ausgewahlte Forschungen Zur Rolle Des Gonners Und Auftraggebers in Der Mittelalterlichen Literatur,9783534085088,,,,ES,,,,false,1,15619501,0,0,0,0,,,,0,0,0,0,0,0.00,,,,0,0,Joachim Bumke,,,,,,,0,,
15620001,3540196366,Vertigo: Its Multisensory Syndromes,9783540196365,,,,ES,1992/11/5,Springer,,false,6,15620001,3,5,1,0,1991/1/1,,book,1,0,0,0,0,5.00,,Hardcover,,0,0,Thomas  Brandt,,,,,,1,0,,
15620501,3540653147,Principles of Financial Asset Pricing: A Discrete Time Maringale Approach,9783540653141,,,,ES,2001/11/1,Springer,,false,1,15620501,0,0,0,0,2001/11/1,,,0,0,0,0,0,0.00,250,Hardcover,,0,0,T. Kariya,,,,,,,0,,
15621001,9616000187,Kitajski Zapiski,9789616000185,,,,ES,,,,false,1,15621001,0,0,0,0,,,,0,0,0,0,0,0.00,,,,0,0,Alenka Auersperger,,,,,,,0,,
15621501,9616214683,Japonska: dežela samurajev in robotov,9789616214681,,,,ES,1999/1/1,,slv,false,1,15621501,5,3,1,0,1999/1/1,,book,0,0,1,0,0,3.00,,,,1,0,Bogomil Ferfila,,,,,,3,0,,
15622001,3597105467,"Sinti in Der Grafschaft Lippe: Studien Zur Geschichte Der ""Zigeuner"" Im 18. Jahrhundert",9783597105464,,,,ES,1988/1/1,Minerva-Publikation,,false,1,15622001,0,0,0,0,,,,0,0,0,0,0,0.00,,Unknown Binding,,0,0,,,Karin Bott-Bodenhausen,,,,,0,,
15622501,3598341962,Griechesches Biographisches Archiv (Gba): Greek Biographical Archive,9783598341960,,,,ES,,,,false,15,15622505,0,0,0,0,2003/1/1,,,0,0,0,0,0,0.00,,,,0,0,Hilmar Schmuck,,,,,,,0,,
15623001,3631307462,"Der Leipziger Lehrerverein, Ein Bedeutender Vertreter Der Reformpaedagogik: Eine Studie Zu Seiner Geschichtlichen Entwicklung, Seinen Paedagogischen Leistungen Und Seinen Praktischen Erfolgen",9783631307465,,,,ES,1996/9/1,"Peter Lang Gmbh, Internationaler Verlag Der Wissenschaften",,false,1,15623001,0,0,0,0,,,,0,0,0,0,0,0.00,475,Paperback,,0,0,Annett Taubert-Striese,,,,,,,0,,
15623501,9630487497,Die kleinen Nationen in Europa,9789630487498,,,,ES,1997/1/1,Europa Institut Budapest,,false,1,15623501,0,0,0,0,1997/1/1,,book,0,0,0,0,0,0.00,163,Unknown Binding,,0,0,,,Ferenc Glatz,,,,,0,,
15624001,3631326696,Schreiben Mit Der Hand: Schreibmotorische Prozesse Bei 8-10-Jaehrigen Grundschuelern,9783631326695,,,,ES,1997/12/1,"Peter Lang Gmbh, Internationaler Verlag Der Wissenschaften",,false,1,15624001,0,0,0,0,,,,0,0,0,0,0,0.00,443,Paperback,,0,0,Jurgen W. Hasert,,,,,,,0,,
15624501,3631336497,Der Ausfuehrungsbescheid ALS Verwaltungsakt Im Sinne Des Verwaltungsverfahrensgesetzes Und Des Sozialgesetzbuchs - Zehntes Buch -,9783631336496,,,,ES,1998/7/1,"Peter Lang Gmbh, Internationaler Verlag Der Wissenschaften",,false,1,15624501,0,0,0,0,,,,0,0,0,0,0,0.00,153,Paperback,,0,0,Uwe Heilemann,,,,,,,0,,
15625001,9632432118,AZ Oshazatol a Karpatokig,9789632432113,,,,ES,,,,false,1,15625001,0,0,0,0,,,,0,0,0,0,0,0.00,,,,0,0,Zoltan Bay,,,,,,,0,,
15625501,363143944X,Phantasie Und Phantastik: Neuere Studien Zum Kunstmaerchen Und Zur Phantastischen Erzaehlung,9783631439449,,,,ES,1993/12/1,"Peter Lang Gmbh, Internationaler Verlag Der Wissenschaften",,false,1,15625501,0,0,0,0,1993/1/1,,,0,0,0,0,0,0.00,207,Paperback,,0,0,,,,Hans Schumacher,,,,0,,
15626001,9633506964,"Franciaorszag, Autoterkepe 1:1 000 000 =: France, Carte Routiere = France, Road Map",9789633506967,,,,ES,,,,false,4,15626001,0,0,0,0,,,,0,0,0,0,0,0.00,,,,0,0,Kartográfiai Vállalat,,,,,,,0,-1,
15626501,9633514150,Szolnok Megye Terkepe: 1:150 000,9789633514153,,,,ES,,,,false,5,15625668,0,0,0,0,,,,0,0,0,0,0,0.00,,,,0,0,Kartográfiai Vállalat,,,,,,,0,,
15627001,9634460607,"Debreceni Kodex, 1519: A Nyelvemlek Hasonmasa Es Betuhu Atirata Bevezetessel Es Jegyzetekkel",9789634460602,,,,ES,,,,false,1,15627001,0,0,0,0,,,,0,0,0,0,0,0.00,,,,0,0,Csilla N. Abaffy,,,,,,,0,,
15627501,963552305X,"Erdely, Szekelyfold",9789635523054,,,,ES,,,,false,2,15627501,0,0,0,0,,,,0,0,0,0,0,0.00,,,,0,0,Peter Pal Varadi,,,,,,,0,,
15628001,9637211373,"XV. Orszagos Keramia Biennale Pecs, 1998",9789637211379,,,,ES,,,,false,1,15628001,0,0,0,0,,,,0,0,0,0,0,0.00,,,,0,0,Jozsef Sarkany,,,,,,,0,,
15628501,3725534756,Zur Stellung Der Banken in Der Zurcher Strafuntersuchung: Insbesondere Bei Bankabfragen Und Beschlagnahmen,9783725534753,,,,ES,1996/1/1,Schulthess,,false,1,15628501,0,0,0,0,1996/1/1,,,0,0,0,0,0,0.00,351,Unknown Binding,,0,0,Christiane Lentjes Meili,,,,,,,0,,
15629001,9638256540,Retaliation,9789638256546,,,,ES,,,,false,1,15629001,0,0,0,0,,,,0,0,0,0,0,0.00,,,,0,0,Marton Matuska,,,,,,,0,,
15629501,9638579242,"Mondokaskonyv: Mondogatok, Kiszamolok, Jatekok",9789638579249,,,,ES,,,,false,1,15629501,0,0,0,0,,,,0,0,0,0,0,0.00,,,,0,0,Zsuzsa Fuzesi,,,,,,,0,,
15630001,9639188476,"Tibeti Kankalin: Papirosar, Bortonjegyzetek, Gyerekkor",9789639188471,,,,ES,,,,false,1,15630001,0,0,0,0,,,,0,0,0,0,0,0.00,,,,0,0,Mihaly Gedenyi,,,,,,,0,,
15630501,3767212897,Fabriketagen: Leben in Alten Industriebauten,9783767212893,,,,ES,,,,false,1,15630501,0,0,0,0,,,,0,0,0,0,0,0.00,,,,0,0,Ulrich Schneider,,,,,,,0,,
15631001,9665070630,Informatsiina Teoriia Leksykohrafichnykh Sistem,9789665070634,,,,ES,,,,false,1,15631001,0,0,0,0,,,,0,0,0,0,0,0.00,,,,0,0,V.A. Shyrokov,,,,,,,0,,
15631501,3770531841,"Deutschland Und Die Russische Revolution, 1917-1924",9783770531844,,,,ES,,,,false,1,15631501,1,0,0,0,,,,0,0,0,0,0,0.00,,,,0,0,Gerd Koenen,,,,,,,1,,
15632001,3773903499,Das Elektrizitats-Verbundsystem in Der Bundesrepublik Deutschland Mit Grenzuberschreitenden Leitungen,9783773903495,,,,ES,,,,false,1,15632001,0,0,0,0,,,,0,0,0,0,0,0.00,,,,0,0,Artur Schnug,,,,,,,0,,
15632501,3775704922,"Behnisch & Partner: Bauten Und Projekte, 1987-1997",9783775704922,,,,ES,1996/1/1,Hatje Cantz,,false,1,15632501,2,0,0,0,,,,0,0,0,0,0,0.00,,Unknown Binding,,0,0,,,Christian Kandzia,,,,1,0,,
15633001,9679420396,"Perbandaran Dan Pembangunan Negara: Seminar Perbandaran Dan Pembangunan Negara, 24-25 Oktober 1983",9789679420395,,,,ES,1985/1/1,Penerbit Universiti Kebangsaan Malaysia,,false,1,15633001,0,0,0,0,1985/1/1,,,0,0,0,0,0,0.00,415,Unknown Binding,,0,0,,,Sulong,,,,,0,,
15633501,3782904966,"Adolf Schreyer 1828-1899: Ausstellung in Der Receptur, Kronberg Im Taunus, 7. Mai-29. August 1999",9783782904964,,,,ES,,,,false,1,15633501,2,0,0,0,,,,0,0,0,0,0,0.00,,,,0,0,Adolf Schreyer,,,,,,2,0,,
15634001,9682977169,Poesia Lirica,9789682977169,,,,ES,,,,false,2,15634001,0,0,0,0,,,,0,0,0,0,0,0.00,,,,0,0,Guillermo Prieto,,,,,,,0,,
15634501,9683656951,"La Tercera Revolucion Industrial En Mexico: Aspectos Economicos, Tecnicos y Etico-Sociales",9789683656957,,,,ES,,,,false,1,15634501,0,0,0,0,,,,0,0,0,0,0,0.00,,,,0,0,Adrian Chavero,,,,,,,0,,
15635001,9684300174,He Brotado Raices--,9789684300170,,,,ES,1982/1/1,Editorial Katun,,false,1,15635001,0,0,0,0,1982/1/1,,,0,0,0,0,0,0.00,84,Unknown Binding,,0,0,Oscar Wong,,,,,,,0,,
15635501,3791716417,Die Okumenische Bedeutung Des Gregorianischen Singens: Untersuchungen Zum Schaffen Von Friedrich Buchholz,9783791716411,,,,ES,,,,false,1,15635501,0,0,0,0,,,,0,0,0,0,0,0.00,,,,0,0,Hans-Joachim Wensing,,,,,,,0,,
15636001,9686397469,"Sierra, Sea and Desert: El Vizcaino, Baja California",9789686397468,,,,ES,,,,false,1,15636001,0,0,0,0,,,,0,0,0,0,0,0.00,,,,0,0,Patricio Robles Gil,,,,,,,0,,
15636501,3799800808,Akademische Geburtstagsfeier Fur Universitatsprofessor Dr. Med. Dr. H.C. Hans Schadewaldt 7. Mai 1998,9783799800808,,,,ES,,,,false,1,15636501,0,0,0,0,,,,0,0,0,0,0,0.00,,,,0,0,Hans Schadewaldt,,,,,,,0,,
15637001,3802804597,"Handbuch Fur Die Bewertung Der Grundstucke Und Der Land- Und Forstwirtschaftlichen Betriebe: Bedarfsbewertung Fur Erbschaftsteuer, Schenkungsteuer, Gr",9783802804595,,,,ES,,,,false,1,15637001,0,0,0,0,,,,0,0,0,0,0,0.00,,,,0,0,Wolf-Dietrich Drosdzol,,,,,,,0,,
15637501,9688068187,"Ley del SAT: Vigente Desde El 1 de Julio de 1998; Reglamento Interior del SAT: Publicado El 30 de Junio de 1997, Reformado Mediante",9789688068182,,,,ES,,,,false,1,15637501,0,0,0,0,,,,0,0,0,0,0,0.00,,,,0,0,Mexico,,,,,,,0,,
15638001,9688426725,Bases Para La Planeacion del Desarrollo Urbano de La Metropoli,9789688426722,,,,ES,,,,false,1,15638001,2,0,0,0,,,,0,0,0,0,0,0.00,,,,0,0,Roberto Eibenschutz Hartman,,,,,,1,0,,
15638501,3807313109,Praxis Der Fortfuhrung Von Arztpraxen,9783807313108,,,,ES,,,,false,1,15638501,0,0,0,0,,,,0,0,0,0,0,0.00,,,,0,0,Alexander P.F. Ehlers,,,,,,,0,,
15639001,9698020098,Pakistan & Regional Economic Cooperation in SAARC-ECO,9789698020095,,,,ES,1996/1/1,,,false,1,15639001,1,0,0,0,1996/1/1,,book,0,0,0,0,0,0.00,,,,0,0,K.M. Asaf,,,,,,,0,,
15639501,3816490247,Ortsplan Ebensee: Mit Ortsteilen Und Teilplanen Offensee Sowie Vorderer Und Hinterer Langbathsee = Plan de Ville = Town Map,9783816490241,,,,ES,,,,false,1,15639501,0,0,0,0,,,,0,0,0,0,0,0.00,,,,0,0,NOT A BOOK,,,,,,,0,,
15640001,3820462678,Studien Zur Short Story ALS Fiktional-Narrative Textform Und Die Moeglichkeiten Einer Typenbildung,9783820462678,,,,ES,1982/12/31,"Peter Lang Gmbh, Internationaler Verlag Der Wissenschaften",,false,1,15640001,0,0,0,0,,,,0,0,0,0,0,0.00,390,Hardcover,,0,0,Michael Thomas,,,,,,,0,,
15640501,9706820221,Yunque de Sue~nos: 12 Artistas Contemporaneos,9789706820228,,,,ES,,,,false,1,15640501,0,0,0,0,,,,0,0,0,0,0,0.00,,,,0,0,Miguel Ángel Muñoz,,,,,,,0,,
15641001,9712200086,Editing & Publication: Handbook for Trainers,9789712200083,,,,ES,,,,false,1,15641001,0,0,0,0,,,,0,0,0,0,0,0.00,,,,0,0,Ian Montagnes,,,,,,,0,,
15641501,9717420300,Carrying the Burden of the World,9789717420301,,,,ES,,,,false,1,15641501,1,0,0,0,,,,0,0,0,0,0,0.00,,,,0,0,Jeanne Frances I. Illo,,,,,,,0,,
15642001,9719201827,The Philippine Revolution and Beyond: Papers from the International Conference on the Centennial of the 1896 Philippine Revolution,9789719201823,,,,ES,,,,false,1,15642001,6,7,2,0,,,,1,0,0,1,0,3.50,,,,2,0,Elmer A. Ordóñez,,,,,,4,0,,
15642501,9724010546,"Contrato de Agencia: Anotacao Ao Decreto-Lei No. 178/86, de 3 Julho",9789724010540,,,,ES,,,,false,1,15642501,1,0,0,0,,,,0,0,0,0,0,0.00,,,,0,0,António Pinto Monteiro,,,,,,,0,,
15643001,3852183111,Das Geschenk Des Targi Und Andere Saharageschichten,9783852183114,,,,ES,,,,false,1,15643001,0,0,0,0,,,,0,0,0,0,0,0.00,,,,0,0,Gert Müller,,,,,,,0,,
15643501,972838730X,Portugal e os caminhos do mar (séculos XVII - XIX),9789728387303,,,,ES,1998/1/1,Edições Inapa,por,false,1,15643501,0,0,0,0,1998/1/1,,book,0,0,0,0,0,0.00,181,Hardcover,,0,0,,,Zília Osório de Castro,,,,,0,,
15644001,9730009244,Testamentul Politic Al Lui Corneliu Z. Codreanu ..,9789730009248,,,,ES,,,,false,1,15644001,3,10,2,0,,,,2,0,0,0,0,5.00,,,,2,0,Șerban Milcoveanu,,,,,,1,0,,
15644501,386057079X,"Paul Valery: Philosophie der Politik, Wissenschaft und Kultur",9783860570791,,,,ES,1999/1/1,,,false,1,15644501,1,0,0,0,1999/1/1,,book,0,0,0,0,0,0.00,,,,0,0,Jürgen Schmidt-Radefeldt,,,,,,1,0,,
15645001,3861130289,Politisch Motivierte Verfolgang: Opfer Von SED-Unrecht,9783861130284,,,,ES,,,,false,1,15645001,0,0,0,0,,,,0,0,0,0,0,0.00,,,,0,0,Ulrich Baumann,,,,,,,0,,
15645501,9739404227,Carol Miculi: Viata Si Activitatea,9789739404228,,,,ES,,,,false,1,15645501,0,0,0,0,,,,0,0,0,0,0,0.00,,,,0,0,Mircea Bejinariu,,,,,,,0,,
15646001,9739773516,Cooperatia in Romania: Elemente Pentru O Definire a Identitatii Miscarii Cooperatiste,9789739773515,,,,ES,,,,false,1,15646001,0,0,0,0,,,,0,0,0,0,0,0.00,,,,0,0,Dan Cruceru,,,,,,,0,,
15646501,9744173955,Rabop Kanwatthanatham L Khunnaphap Mattrathan,9789744173959,,,,ES,,,,false,1,15646501,0,0,0,0,,,,0,0,0,0,0,0.00,,,,0,0,Thailand,,,,,,,0,,
15647001,9748192601,Kitchakam Kansksa Pha Thongthin: Kansksa Pha Sapphayakon Manut,9789748192604,,,,ES,,,,false,1,15647001,0,0,0,0,,,,0,0,0,0,0,0.00,,,,0,0,Thirasak,,,,,,,0,,
15647501,3876403588,"Konflikte Seit 1945: Daten, Fakten, Hintergrunde",9783876403588,,,,ES,,,ger,false,6,15647499,0,0,0,0,1997/8/1,,book,0,0,0,0,0,0.00,,,,0,0,Frank R. Pfetsch,,,,,,,0,,
15648001,9753382448,Turk Edebiyatnda Saknameler Ve Isretname,9789753382441,,,,ES,,,,false,1,15648001,0,0,0,0,,,,0,0,0,0,0,0.00,,,,0,0,Rdvan Canm,,,,,,,0,,
15648501,9754511624,Rauf Denktas'n Hatralar: 1964-74,9789754511628,,,,ES,1996/1/1,Bogazici Yaynlar,,false,9,9306704,10,18,5,1,2006/1/1,,book,2,1,1,0,1,3.60,9,Unknown Binding,,0,0,Rauf Raif Denktaş,,,,,,2,0,,"history,politics"
15649501,9757444022,"Turk Dilleri Arastrmalar, 1992",9789757444022,,,,ES,,,,false,1,15649501,1,5,1,0,,,,1,0,0,0,0,5.00,,,,1,0,Talat Tekin,,,,,,,0,,
15650001,975805404X,Varosta Kadn Olmak: Gunluk,9789758054046,,,,ES,1995/1/1,Gokkusag,,false,1,15650001,3,5,1,0,,,,1,0,0,0,0,5.00,151,Unknown Binding,,1,0,Nalan Turkeli,,,,,,2,0,,
15650501,976620117X,Matikor: The Politics of Identity for Indo-Caribbean Women,9789766201173,,,,ES,,,,false,1,15650501,1,0,0,0,,,,0,0,0,0,0,0.00,,,,0,0,Rosanne Kanhai,,,,,,1,0,,
15651001,3885554011,Creative Tasks for Promoting Indipendence (Sic) and Motivation,9783885554011,,,,ES,,,,false,1,15651001,0,0,0,0,,,,0,0,0,0,0,0.00,,,,0,0,Michael Brater,,,,,,,0,,
15651501,3887330684,"Regenritual Und Jahwetag Im Joelbuch: Kanaanaischer Hintergrund, Kolometrie, Aufbau Und Symbolik Eines Prophetenbuches",9783887330682,,,,ES,,,,false,1,15651501,0,0,0,0,,,,0,0,0,0,0,0.00,,,,0,0,Oswald Loretz,,,,,,,0,,
15652001,3889890776,Hildebrand Travel Guide: Indonesia,9783889890771,,,,ES,,,,false,1,15652001,0,0,0,0,,,book,0,0,0,0,0,0.00,,,,0,0,Hildebrand's,,,,,,,0,,
15652501,9782461512,Where I Stand,9789782461513,,,,ES,,,,false,1,15652501,3,10,2,0,,,,2,0,0,0,0,5.00,,,,2,0,Abubakar Mahmud Gummi,,,,,,1,0,,
15653001,3892443211,"Mikrogeschichte, Makrogeschichte: Komplementar Oder Inkommensurabel?",9783892443216,,,,ES,,,,false,1,15653001,0,0,0,0,,,,0,0,0,0,0,0.00,,,,0,0,Jürgen Schlumbohm,,,,,,,0,,
15653501,9794025925,"Peta Indeks Kecamatan Dan Desa/Kelurahan Di Propinsi [Nama Propinsi], 1990",9789794025925,,,,ES,1990/1/1,Biro Pusat Statistik,,false,6,5091418,0,0,0,0,,"Peta indeks kecamatan dan desa/kelurahan di Propinsi [nama propinsi], 1990",,0,0,0,0,0,0.00,7,Unknown Binding,,0,0,Republik Indonesia,,,,,,,0,,
15654001,9794599883,Sastra Lisan Ngadha Di Bajawa,9789794599884,,,,ES,,,,false,1,15654001,0,0,0,0,,,,0,0,0,0,0,0.00,,,,0,0,Firmina Angelanai,,,,,,,0,,
15654501,9798059956,Effects of Trade Liberalization on Agriculture in Indonesia: Institutional and Structural Aspects,9789798059957,,,,ES,,,,false,1,15654501,0,0,0,0,,,,0,0,0,0,0,0.00,,,,0,0,Erwidodo,,,,,,,0,,
15655001,9798827317,Anak Yang Membutuhkan Perlindungan Khusus Di Indonesia: Analisis Situasi,9789798827310,,,,ES,,,,false,1,15655001,0,0,0,0,,,,0,0,0,0,0,0.00,,,,0,0,Irwanto,,,,,,,0,,
15655501,3896783092,Interessenverbande Und Staat: Eberhard Schutt-Wetschky,9783896783097,,,,ES,,,,false,1,15655501,0,0,0,0,,,,0,0,0,0,0,0.00,,,,0,0,Eberhard Schutt-Wetschky,,,,,,,0,,
15656001,3900312621,"Geochemischer Atlas Der Republik Osterreich, 1:1,000.000: Bohmische Masse Und Zentralzone Der Ostalpen (Bachsedimente <0,18 MM)",9783900312626,,,,ES,,,,false,1,15656001,0,0,0,0,,,,0,0,0,0,0,0.00,,,,0,0,F. Thalmann,,,,,,,0,,
15656501,3901995056,Discretion,9783901995057,,,,ES,1999/1/1,Institut F Urg,,false,1,15656501,0,0,0,0,,,,0,0,0,0,0,0.00,,Unknown Binding,,0,0,Augustine Baker,,,,,,,0,,
15657001,3906757951,Le Don de La Parole: Melanges Offerts a Daniel Hameline Pour Son Soixante-Cinquieme Anniversaire,9783906757957,,,,ES,1997/9/1,"Peter Lang Gmbh, Internationaler Verlag Der Wissenschaften",,false,1,15657001,1,0,0,0,,,,0,0,0,0,0,0.00,161,Hardcover,,0,0,,,,Nanine Charbonnel,,,1,0,,
15657501,3908567521,"Die Verantwortlichkeit Des Revisors Nach Aktienrecht: Insbesondere Kausalitat, Schadenersatzbemessung Und Haftung Gegenuber Investoren Und Kreditgeber",9783908567523,,,,ES,,,,false,1,15657501,0,0,0,0,,,,0,0,0,0,0,0.00,,,,0,0,Peter Forstmoser,,,,,,,0,,
15658001,9806392361,Primera Bienal de Arte Fondene: Ambitos del Encuentro: Isla de Margarita,9789806392366,,,,ES,,,,false,1,15658001,0,0,0,0,,,,0,0,0,0,0,0.00,,,,0,0,Myriam Robles,,,,,,,0,,
15658501,3922197132,"Abgelehnt, Ausgewiesen, Ausgeliefert: Dokumentation Zum Hearing Uber Die Soziale Und Rechtliche Lage Der Asylbewerber in West-Berlin (20.-22.1.1984)",9783922197133,,,,ES,1984/1/1,,ger,false,1,15658501,0,0,0,0,,,book,0,0,0,0,0,0.00,,Paperback,,0,0,Tessa Hofmann,,,,,,,0,,
15659001,9814368962,Lecture Notes on Mathematical Olympiad Courses: For Senior Section - Volume 2,9789814368964,,,,ES,2012/3/21,World Scientific Publishing Company,,false,1,15659001,75,64,14,1,2012/3/31,,,9,4,1,0,0,4.57,298,Paperback,,14,1,Jiagu Xu,,,,,,61,0,3,
15659501,3924220123,Eurobarometer: Measurement Instruments for Opinions in Europe,9783924220129,,,,ES,,,,false,1,15659501,0,0,0,0,,,,0,0,0,0,0,0.00,,,,0,0,Willem E. Saris,,,,,,,0,,
15660001,3925355138,"Raumordnung Im Romischen Reich: Zur Regionalen Gliederung in Den Gallischen Provinzen, in Ratien, Noricum Und Pannonien: Kolloquium an Der Universitat",9783925355134,,,,ES,,,,false,1,15660001,0,0,0,0,,,,0,0,0,0,0,0.00,,,,0,0,Gunther Gottlieb,,,,,,,0,,
15660501,3926200359,Druck Im Quartier: Erfahrungen Mit Fixerraumen,9783926200358,,,,ES,,,,false,1,15660501,0,0,0,0,,,,0,0,0,0,0,0.00,,,,0,0,Norbert Dworsky,,,,,,,0,,
15661001,3927085219,Opfer Und Tater: Zum Nationalsozialistischen Und Antijudischen Alltag in Ostwestfalen-Lippe,9783927085213,,,,ES,,,,false,1,15661001,0,0,0,0,,,,0,0,0,0,0,0.00,,,,0,0,Hubert Frankemolle,,,,,,,0,,
15661501,9879009088,Por ESA Dama,9789879009086,,,,ES,,,,false,1,15661501,0,0,0,0,,,,0,0,0,0,0,0.00,,,,0,0,Cristina Imaz,,,,,,,0,,
15662001,3928878557,"Vom Tonenden Wirbel Menschlichen Tuns: Erich M. Von Hornbostel ALS Gestaltpsychologe, Archivar Und Musikwissenschaftler; Studien Und Dokumente",9783928878555,,,,ES,,,,false,1,15662001,0,0,0,0,,,,0,0,0,0,0,0.00,,,,0,0,Sebastian Klotz,,,,,,,0,,
15662501,987957978X,Coleccion Carlos Casavalle (1544-1904): Catalogos E Indices,9789879579787,,,,ES,,,,false,2,15662503,0,0,0,0,,,,0,0,0,0,0,0.00,,,,0,0,Graciela Swiderski,,,,,,,0,,
15663001,9879813405,Letras de Tango,9789879813409,,,,ES,1999/1/1,Basilico,,false,2,15663001,3,5,1,0,,,,1,0,0,0,0,5.00,3,Unknown Binding,,1,0,,,Juan Angel Russo,,,,1,0,,
15663501,3931269043,Rechtsgeschichten,9783931269043,,,,ES,,,,false,1,15663501,0,0,0,0,,,,0,0,0,0,0,0.00,,,,0,0,Gunther Viertel,,,,,,,0,,
15664001,9963832709,Anamneseis Grammenes S' Hena Hypogeio: Mythistorema,9789963832705,,,,ES,,,,false,1,15664001,0,0,0,0,,,,0,0,0,0,0,0.00,,,,0,0,Μύρια Αγρότου,,,,,,,0,,
15664501,9966460268,Maneno Yanayotatanisha: Kimaana Na Kimatamshi,9789966460264,,,,ES,,,,false,1,15664501,0,0,0,0,,,,0,0,0,0,0,0.00,,,,0,0,Godson S. Maanga,,,,,,,0,,
15665001,9968974390,"Guia Para El Estudio de La Calidad del Agua En Centroamerica, Una Aproximacion a la Armonizacion de Las Normas de Calidad",9789968974394,,,,ES,,,,false,1,15665001,0,0,0,0,,,,0,0,0,0,0,0.00,,,,0,0,Ernesto Brugnoli Olivera,,,,,,,0,,
15665501,9971993090,Making Small Enterprises More Competitive Through More Innovative Entrepreneurship Development Programs: Proceedings of the 1st Asia-Pacific Symposium,9789971993092,,,,ES,,,,false,1,15665501,0,0,0,0,,,,0,0,0,0,0,0.00,,,,0,0,University Of The Philippines,,,,,,,0,,
15666001,3980628639,"Kreislaufwirtschaft: Gesetz Und Verordnungen, Vollzugshilfen, Aktuelle Erlauterungen",9783980628631,,,,ES,,,,false,1,15666001,0,0,0,0,,,,0,0,0,0,0,0.00,,,,0,0,Karl Wagner,,,,,,,0,,
15666501,9975780156,Zhizn' V Periskop: Videnie Reliktovogo Podvodnika,9789975780155,,,,ES,,,,false,1,15666501,0,0,0,0,,,,0,0,0,0,0,0.00,,,,0,0,Anatolii Shtyrov,,,,,,,0,,
15667001,9977302995,"I Encuentro--Cultura Tradicional Hoy y Las Expresiones Artisticas Profesionales En Centroamerica: Tela, Atlantida, Honduras, Octubre de 1996",9789977302997,,,,ES,,,,false,1,15667001,0,0,0,0,,,,0,0,0,0,0,0.00,,,,0,0,Consejo Superior Universitario Centroame,,,,,,,0,,
15667501,4766104056,Tokyo Collection,9784766104059,,,,ES,,,,false,1,15667501,0,0,0,0,,,,0,0,0,0,0,0.00,,,,0,0,S. Kusunoki,,,,,,,0,,
15668001,9978861122,Ley de Sustancias Estupefacientes y Psicotropicas y Reglamento: Actualizada a Noviembre de 1991,9789978861127,,,,ES,,,,false,1,15668001,0,0,0,0,,,,0,0,0,0,0,0.00,,,,0,0,Ecuador,,,,,,,0,,
15668501,489607310X,Nagato No Reijo: Senkan Nagato Hiwa Saishuhen,9784896073102,,,,ES,,,,false,1,15668501,0,0,0,0,,,,0,0,0,0,0,0.00,,,,0,0,Heikichi Murata,,,,,,,0,,
15669001,5020024120,Geologiia I Otsenka Neftegazovogo Potentsiala Zapadnoi Sibiri: Sbornik Nauchnykh Trudov,9785020024120,,,,ES,,,,false,1,15669001,0,0,0,0,,,,0,0,0,0,0,0.00,,,,0,0,Viktor Semenovich Surkov,,,,,,,0,,
15669501,998464300X,Latvijas Valsts Atjaunosana: 1986.-1993,9789984643007,,,,ES,,,,false,1,15669501,1,0,0,0,,,,0,0,0,0,0,0.00,,,,0,0,Valdis Bluzma,,,,,,,0,1,
15670001,9985602625,Eesti Raadio: Esimesed 70,9789985602621,,,,ES,,,,false,1,15670001,0,0,0,0,,,,0,0,0,0,0,0.00,,,,0,0,Vello Laan,,,,,,,0,,
15670501,5020283886,Protivorechiia Semanticheskoi Struktury Bezlichnykh Predlozhenii V Russkom Iazyke,9785020283886,,,,ES,,,,false,1,15670501,0,0,0,0,,,,0,0,0,0,0,0.00,,,,0,0,V.M. Pavlov,,,,,,,0,,
15671001,5080000074,Doroga Na Strel'nu: Povest' I Rasskazy O Molodykh Zashchitnikakh Leningrada,9785080000072,,,,ES,,,,false,1,15671001,0,0,0,0,,,,0,0,0,0,0,0.00,,,,0,0,D. Al',,,,,,,0,,
15671501,5120039995,U Pivstolitnikh Zmahanniakh: Vybrani Lysty Do Kyryla Studyns'koho 1891-1941,9785120039994,,,,ES,,,,false,1,15671501,0,0,0,0,,,,0,0,0,0,0,0.00,,,,0,0,K. Studyns'kyi,,,,,,,0,,
15672001,9989390223,"Monetarna Ekonomija: Monetarna Teorija, Strategija I Analiza",9789989390227,,,,ES,,,,false,1,15672001,0,0,0,0,,,,0,0,0,0,0,0.00,,,,0,0,Tihomir Jovanovski,,,,,,,0,,
15672501,5210000613,Vostochnoe Sredizemnomor'e I Kavkaz IV-XVI VV.: Sbornik Statei,9785210000613,,,,ES,,,,false,1,15672501,0,0,0,0,,,,0,0,0,0,0,0.00,,,,0,0,V.L. Afanas'ev,,,,,,,0,,
15673001,9991163409,Introduction to the Law of Lesotho: A Basic Text on Law and Aspects of Judicial Conduct and Practice,9789991163406,,,,ES,,,,false,1,15673001,0,0,0,0,,,,0,0,0,0,0,0.00,,,,0,0,George W.K.L. Kasozi,,,,,,,0,,
15673501,9991730001,Tembikar Vietnam Di Negara Brunei Darussalam,9789991730004,,,,ES,1999/1/1,Jabatan Muzium-Muzium,,false,1,15673501,0,0,0,0,1999/1/1,,,0,0,0,0,0,0.00,106,Unknown Binding,,0,0,Hanapi,,,,,,,0,,
15674001,5251420226,Grani Muzhestva: Dokumental'naia Povest',9785251420227,,,,ES,,,,false,1,15674001,0,0,0,0,,,,0,0,0,0,0,0.00,,,,0,0,Kamenev,,,,,,,0,,
15674501,5279016799,Planirovanie Deiatel'nosti Firmy,9785279016792,,,,ES,,,,false,1,15674501,0,0,0,0,,,,0,0,0,0,0,0.00,,,,0,0,M.M. Alekseeva,,,,,,,0,,
15675001,5298003982,Комеш-Сылу Татар халык экиятлэре (Tatar Khalyk Akiiatlare Komesh-Sylu),9785298003988,,,,ES,1993/1/1,,tat,false,1,15675001,2,0,0,0,1993/1/1,,book,0,0,0,0,0,0.00,352,,,0,0,,,,Н.Валитова,,,2,0,,
15675501,5415003991,Po Dvyniu Zenklu: Teatro Menininko Kelias Tarp Dvieju Pasauliu,9785415003990,,,,ES,,,,false,1,15675501,0,0,0,0,,,,0,0,0,0,0,0.00,,,,0,0,Ausra Marija J. Sluckaite,,,,,,,0,,
15676001,5550021374,No Greater Love,9785550021378,,,,ES,,,,false,3,15676001,0,0,0,0,,,,0,0,0,0,0,0.00,,,,0,0,Good News Publishers,,,,,,,0,,
15676501,5551309703,Scarry's Best Word Book Ever,9785551309703,,,,ES,,,,false,1,15676501,0,0,0,0,,,book,0,0,0,0,0,0.00,,,,0,0,Richard Scarry,,,,,,,0,,
15677001,5555860803,Wilderness,9785555860804,,,,ES,,,,false,15,69631,1858,4292,1162,77,1979/1/1,Wilderness,book,293,398,332,100,39,3.69,,,,0,0,Robert B. Parker,,,,,,332,12,45,"action,adventure,crime,detective,fiction,mystery,mystery-thriller,suspense,thriller"
15677501,5558677015,Farmhouse,9785558677010,,,,ES,,,,false,2,685715,9,22,5,1,2002/9/16,The Farmhouse: Classic Homesteads of North America,,2,3,0,0,0,4.40,,,,0,0,Nancy L. Mohr,,,,,,4,0,,non-fiction
15678001,555875706X,"One for Sorrow, Two for Joy",9785558757064,,,,ES,,,,false,25,2049427,841,1555,466,69,2007/1/1,"One for Sorrow, Two for Joy",book,105,113,127,76,45,3.34,,,,0,0,Clive Woodall,,,,,,222,17,11,"animals,childrens,fantasy,fiction,young-adult"
15678501,5558865350,Renoir,9785558865356,,,,ES,,,,false,1,15678501,0,0,0,0,,,,0,0,0,0,0,0.00,,,,0,0,Nina Kalitina,,,,,,,0,,
15679001,5558970820,You've Got Mad Libs (Mad Libs),9785558970821,,,,ES,,,,false,1,15679001,3,0,0,0,,,,0,0,0,0,0,0.00,,,,0,0,"Leonard Stern,Roger Price",,,,,,3,0,,
15679501,5559109576,Sirens (Tales from the Odyssey),9785559109572,,,,ES,,,,false,8,17230,831,1614,398,26,2003/6/1,Tales from the Odyssey: Sirens and Sea Monsters - Book #3 (Tales from the Odyssey),book,159,133,82,17,7,4.06,,,,0,0,Mary Pope Osborne,Troy Howell,,,,,291,25,7,"adventure,chapter-books,childrens,classics,fantasy,fiction,historical-fiction,history,juvenile,literature,middle-grade,mythology,non-fiction"
15680001,5559299588,"The Healing Garden: Gardening for the Mind, Body and Soul",9785559299587,,,,ES,,,,false,3,7767859,19,23,5,0,2001/3/29,,,3,2,0,0,0,4.60,,,,0,0,Gay Search,,,,,,3,0,,
15680501,5559314021,The Movies That Changed Us: Reflections on the Screen,9785559314020,,,,ES,,,,false,4,783597,73,128,35,6,2002/1/1,The Movies That Changed Us: Reflections on the Screen,,4,16,14,1,0,3.66,,,,0,0,Nick Clooney,,,,,,24,1,1,"film,history,movies,non-fiction,reference"
15681001,5615016205,Zhaudy Shaptym Tu Bailap,9785615016202,,,,ES,,,,false,1,15681001,0,0,0,0,,,,0,0,0,0,0,0.00,,,,0,0,Manash Kabashevich Kozybaev,,,,,,,0,,
15681501,5701400158,Valiutnyi Kontrol' Kommercheskikh Bankov Za Eksportno-Importnymi Operatsiiami,9785701400151,,,,ES,,,,false,1,15681501,0,0,0,0,,,,0,0,0,0,0,0.00,,,,0,0,A.I. Shmyreva,,,,,,,0,,
15682001,5719610049,"Sovremennye Pol'zovateli Avtomatizirovannykh Informatsionno-Bibliograficheskikh Sistem--Problemy Obsluzhivaniia, Izucheniia I Obucheniia: Materialy Na",9785719610047,,,,ES,,,,false,1,15682001,0,0,0,0,,,,0,0,0,0,0,0.00,,,,0,0,Tat'iana Viktorovna Sokolova,,,,,,,0,,
15682501,5739005884,Isaak Dunaevskii: Bol'shoi Kontsert,9785739005885,,,,ES,1998/1/1,Olimp,,false,2,15682501,0,0,0,0,1998/1/1,,,0,0,0,0,0,0.00,552,Unknown Binding,,0,0,Dmitrii Minchenok,,,,,,,0,,
15683001,5750702227,Tvorchestvo M.A. Sholokhova I Sovetskaia Literatura: Sholokhovskie Chteniia,9785750702220,,,,ES,,,,false,1,15683001,0,0,0,0,,,,0,0,0,0,0,0.00,,,,0,0,N. I. Glushkov,,,,,,,0,,
15683501,5759512978,Dorogi Priveli V Berlin,9785759512974,,,,ES,,,,false,1,15683501,0,0,0,0,,,,0,0,0,0,0,0.00,,,,0,0,Aleksandr Ivanovich Plekhov,,,,,,,0,,
15684001,5766739001,Preobrazovanie Otnoshenii Sobstvennosti-Osnova Formirovaniia Rynochnoi Ekonomiki V Kazakhstane,9785766739005,,,,ES,,,,false,1,15684001,0,0,0,0,,,,0,0,0,0,0,0.00,,,,0,0,Al-Farabi Atyndaghy Qazaq Memlekett Ik,,,,,,,0,,
15684501,5770205210,Slovnyk Ukrains'koi Movy XVI-Pershoi Polovyny XVII St.: Spysok Vykorystanykh Dzherel,9785770205213,,,,ES,,,,false,1,15684501,0,0,0,0,,,,0,0,0,0,0,0.00,,,,0,0,Dmytro Hryhoriiovych Hrynchyshyn,,,,,,,0,,
15685001,5776900360,Kontseptsii Sovremennogo Estestvoznaniia,9785776900365,,,,ES,,,,false,1,15685001,0,0,0,0,,,,0,0,0,0,0,0.00,,,,0,0,E. S. Klimov,,,,,,,0,,
15685501,5790007317,As Apsisprendziu,9785790007316,,,,ES,,,,false,1,15685501,3,10,2,0,,,,2,0,0,0,0,5.00,,,,2,0,T. Ivanauskas,,,,,,1,0,,
15686001,5806606287,Siiasati-Furusat,9785806606281,,,,ES,,,,false,1,15686001,0,0,0,0,,,,0,0,0,0,0,0.00,,,,0,0,Eduard Petrovich Gavrilov,,,,,,,0,,
15686501,5833000653,"Protivostoianie: Krizis Vlasti, Tragediia Naroda: Iz Istorii Krest'ianskikh Volnenii I Vosstanii V Tambovskoi Gubernii V 1918-1921 Goda",9785833000656,,,,ES,,,,false,1,15686501,0,0,0,0,,,,0,0,0,0,0,0.00,,,,0,0,N. V. Fatueva,,,,,,,0,,
15687001,5852502391,Bam Prodolzhaetsia,9785852502391,,,,ES,,,,false,1,15687001,0,0,0,0,,,,0,0,0,0,0,0.00,,,,0,0,Gennadii Viktorovich Koposov,,,,,,,0,,
15687501,5857590647,Issledovaniia V Oblasti Balto-Slavianskoi Dukhovnoi Kul'tury,9785857590645,,,,ES,,,,false,1,15687501,0,0,0,0,,,,0,0,0,0,0,0.00,,,,0,0,T. M. Nikolaeva,,,,,,,0,,
15688001,586161038X,Pokoldui Pered Samym Zakatom: Kniga Stikhov,9785861610384,,,,ES,,,,false,1,15688001,0,0,0,0,,,,0,0,0,0,0,0.00,,,,0,0,Alina Mal'tseva,,,,,,,0,,
15688501,5867930432,Возвращение в Союз,9785867930431,,,,ES,1998/1/1,Новое литературное обозрение,rus,false,1,15688501,2,7,2,0,1998/1/1,,book,1,0,0,1,0,3.50,,,,2,0,Дмитрий Добродеев,,,,,,,0,,
15689001,5874421882,Rossiiskii Zhurnalist: Prava I Obiazannosti,9785874421885,,,,ES,,,,false,1,15689001,0,0,0,0,,,,0,0,0,0,0,0.00,,,,0,0,N. I. Buslenko,,,,,,,0,,
15689501,5880590208,Glaznye Zabavy,9785880590209,,,,ES,,,,false,1,15689501,0,0,0,0,,,,0,0,0,0,0,0.00,,,,0,0,Elena Petrovskaia,,,,,,,0,,
15690001,5884590040,Imenoslov: Znamenitye Liudi V Vologde,9785884590045,,,,ES,,,,false,1,15690001,0,0,0,0,,,,0,0,0,0,0,0.00,,,,0,0,Robert Balakshin,,,,,,,0,,
15690501,5889140817,Nasil'stvennaia Prestupnost',9785889140818,,,,ES,,,,false,1,15690501,0,0,0,0,,,,0,0,0,0,0,0.00,,,,0,0,V.N. Kudri︠a︡vt︠s︡ev,,,,,,,0,,
15691001,5892821021,Sotsial'no-Politicheskoe Razvitie Kambodzhi V XX Veke: Derevnia I Vlast',9785892821025,,,,ES,,,,false,1,15691001,0,0,0,0,,,,0,0,0,0,0,0.00,,,,0,0,D.V. Mosiakov,,,,,,,0,,
15691501,5896550022,Nashe Dvizhenie,9785896550020,,,,ES,,,,false,1,15691501,0,0,0,0,,,,0,0,0,0,0,0.00,,,,0,0,A. Iu Brezhnev,,,,,,,0,,
15692001,5900627039,"Chavashsen Yra Iala-Ierkisem: Ocherksem, Asa-Ilusem, Kalavsem",9785900627038,,,,ES,,,,false,1,15692001,0,0,0,0,,,,0,0,0,0,0,0.00,,,,0,0,Roza Akhtimirova,,,,,,,0,,
15692501,7105030062,Rgyun Mkho'i Cho Ga Phyag Len SNA Tshogs,9787105030064,,,,ES,,,,false,1,15692501,0,0,0,0,,,,0,0,0,0,0,0.00,,,,0,0,Byams-Pa-Nag-Db,,,,,,,0,,
15693001,7540914475,Dbu Ma Rtsa Ba Ses Rab Rtsa 'Grel Bzugs,9787540914479,,,,ES,,,,false,1,15693001,0,0,0,0,,,,0,0,0,0,0,0.00,,,,0,0,Nāgārjuna,,,,,,,0,,
15693501,802000730X,Juristicka a Lingvisticka Analyza Pravnich Textu: Pravneinformaticky Pristup,9788020007308,,,,ES,1999/1/1,Czech Institute of Egyptology Charles University,,false,1,15693501,1,3,1,0,1999/1/1,,,0,0,1,0,0,3.00,171,Unknown Binding,,1,0,Jan Korensky,,,,,,,0,,
15694001,8071081310,V Obkliceni Pribehu,9788071081319,,,,ES,,,,false,1,15694001,1,0,0,0,,,,0,0,0,0,0,0.00,,,,0,0,Milan Jungmann,,,,,,,0,,
15694501,808528149X,Dokumenty O Podkarpatske Rusi,9788085281491,,,,ES,,,,false,1,15694501,1,0,0,0,,,,0,0,0,0,0,0.00,,,,0,0,Jaromir Horec,,,,,,1,0,,
15695001,808617901X,"Co s doktorem. Cesta etikoterapie (Cesta etikoterapie, #1)",9788086179018,,,,ES,1997/1/1,Fontána,cze,false,1,15695001,9,26,6,2,1997/1/1,Co s doktorem. Cesta etikoterapie,book,3,2,1,0,0,4.33,,,,6,2,Vladimír Vogeltanz,,,,,,3,2,,education
15696001,8124005052,"Malayalanirupanam, Madhyaghattam",9788124005057,,,,ES,,,,false,1,15696001,0,0,0,0,,,,0,0,0,0,0,0.00,,,,0,0,Pi Ke Paramesvaran Nayar,,,,,,,0,,
15696501,8170367883,Planning for Executive Success: Shaping Up for the Real Corporate World,9788170367888,,,,ES,,,,false,3,15696501,0,0,0,0,1999/3/31,,,0,0,0,0,0,0.00,,,,0,0,Walter Vieira,,,,,,,0,,
15697001,8171432506,Rawindara Rawi Da Racana Samsara,9788171432509,,,,ES,,,,false,1,15697001,0,0,0,0,,,,0,0,0,0,0,0.00,,,,0,0,Brahamajagadish,,,,,,,0,,
15697501,8173805652,Hazarata Muhammada: Jiwana Ate Sikkhiawam,9788173805653,,,,ES,,,,false,1,15697501,0,0,0,0,,,,0,0,0,0,0,0.00,,,,0,0,Muhammada Irashada,,,,,,,0,,
15698001,,The Sound of Shiant,,B005ESFZW6,,,ES,2011/7/1,,eng,true,1,15698001,37,36,13,3,2011/7/1,,book,1,0,7,5,0,2.77,,Kindle Edition,,13,3,Hereward L M Proops,,,,,,19,1,2,"fantasy,fiction,historical-fiction,mystery,paranormal"
15698501,,"As Bob Would Say, Thanks for the Memories!",9780977261482,,,,ES,2011/1/1,Write Designs LTD,eng,false,1,15698501,1,5,1,1,2011/1/1,,book,1,0,0,0,0,5.00,201,Paperback,,1,1,Clara M. Hoffer,,,,,,,0,,"historical,humor"
15699001,,Drinking with Dead Women Writers,,B007VTRU06,,,ES,2012/4/18,Mill Park Publishing,en-GB,true,2,15699001,1042,1696,496,87,2012/4/18,,book,100,142,150,74,30,3.42,84,Kindle Edition,,491,87,"A.K. Turner,Elaine Ambrose",,,,,,439,15,23,"american,anthologies,biography,chick-lit,collections,contemporary,essays,family,fantasy,fiction,historical,historical-fiction,history,humor,language,memoir,mystery,non-fiction,psychology,relationships,short-stories,writing"
15699501,,Het zevende zwaard,,,,,ES,,,nl,false,1,15699501,12,13,4,0,1993/1/1,Het zevende zwaard,book,0,1,3,0,0,3.25,,,,4,0,Jef Nys,,,,,,4,0,,
15700001,8804614684,Vita e morte di un ingegnere,9788804614685,,,,ES,2012/2/14,Mondadori,ita,false,6,15700001,64,91,24,3,,,book,5,13,3,2,1,3.79,156,Hardcover,Scrittori italiani e stranieri,20,3,Edoardo Albinati,,,,,,5,1,,literature
15700501,,Wake Up and Smell the Bees,9781619372290,,,,ES,2012/6/29,Musa Publishing,eng,true,2,15700501,1,0,0,0,2012/6/29,,book,0,0,0,0,0,0.00,,ebook,,0,0,Donald Dewey,,,,,,,0,,
15701001,,"What a Boy Needs (What a Boy Wants, #2)",,B008A0MTJW,,,ES,2012/6/1,,en-US,true,7,13636617,8597,15547,4024,370,2012/6/1,What a Boy Needs,book,1141,1558,1025,235,65,3.86,164,Kindle Edition,,205,13,Nyrae Dawn,,,,,,3968,57,42,"abuse,amazon,chick-lit,college,contemporary,drama,family,fiction,funny,high-school,love,new-adult,realistic-fiction,romance,teen,young-adult"
15701501,8279002456,Journalistjævler - Rapport fra innsiden,,,,,ES,2006/1/1,Pantagruel,nor,false,1,15701501,13,22,8,0,2006/1/1,,book,0,2,3,2,1,2.75,160,Paperback,,8,0,Erik Tumyr,,,,,,3,1,,society
15702501,,"Her Vampire Husband (Wicked Games, #3)",,,,,ES,,,eng,false,22,7025989,4644,8930,2332,229,2012/11/15,,book,736,771,576,189,60,3.83,357,Paperback,,1,1,Michele Hauf,,,,,,370,15,31,"adult,comedy,demons,erotica,fantasy,fiction,harlequin,humor,magic,novels,paranormal,romance,shapeshifters,supernatural,urban-fantasy,vampires,werewolves,witches"
15703001,1990/5063,الانفجار 1967,,,,,ES,1989/1/1,مركز الاهرام للترجمة و النشر,ara,false,3,9911438,772,1161,288,18,1989/1/1,حرب الثلاثين سنة: الإنفجار,book,104,115,48,16,5,4.03,1089,,1st Edition,9,0,محمد حسنين هيكل,,,,,,369,3,11,"history,non-fiction,politics"
15703501,9797096335,Mohammad Hatta: Hati Nurani Bangsa,9789797096335,,,,ES,2012/4/1,Buku Kompas,ind,false,1,15703501,283,254,65,12,2012/4/1,,book,23,23,12,4,3,3.91,182,Paperback,,65,12,"Deliar Noer,Mohammad Hatta",,,,,,166,0,13,"biography,history,non-fiction"
15704001,,"Seduction and Snacks (Chocolate Lovers, #1)",,,,,ES,2012/6/11,,eng,true,25,23016317,84991,193588,47010,5591,2012/6/11,"Seduction and Snacks (Chocolate Lovers, #1)",book,22352,13444,7113,2612,1489,4.12,286,Kindle Edition,,33333,4382,Tara Sivec,,,,,,31368,365,898,"adult,adult-fiction,chick-lit,college,comedy,contemporary,erotica,family,fiction,funny,humor,love,new-adult,romance"
15704501,,Hemingway: A Life in Pictures,,,,,ES,,,,false,1,15704501,2,4,1,1,,,book,0,1,0,0,0,4.00,,,,1,1,Corey Michael Dalton,,,,,,1,0,,
15705001,8815234640,"Gramsci, Manzoni e mia suocera. Quando gli esperti sbagliano le previsioni politiche",9788815234643,,,,ES,2012/1/1,il Mulino,ita,false,2,15705001,22,15,5,0,2012/1/1,,book,0,2,1,2,0,3.00,120,Paperback,Voci,5,0,Ilvo Diamanti,,,,,,7,0,,"non-fiction,politics"
15705501,,Alter ego,9789197982016,,,,ES,2012/5/18,Collings Förlag,swe,true,1,15705501,8,22,7,1,2012/5/18,Alter ego,book,1,1,3,2,0,3.14,23,ebook,,7,1,Adam Hansson,,,,,,2,2,,"contemporary,short-stories"
15706001,,The Religion,9780985391720,,,,ES,2012/6/14,Robert J. Rosenblum and Robert Nathan,eng,true,12,15706001,325,300,83,15,1982/1/1,The Religion,book,19,27,25,10,2,3.61,,Kindle Edition,2,36,7,Nicholas Condé,,,,,,193,3,5,"crime,fiction,horror,suspense,thriller"
15706501,,Haagse Hakken: succesvolle vrouwen in de Nederlandse politiek,,,,,ES,,,nl,false,1,15706501,2,4,2,0,,,book,0,0,0,2,0,2.00,,,,2,0,"Bas Steunenberg,Lidewey van der Sluis,Marius Rietdijk,Neeke Eysbroek",,,,,,,0,,
15707001,,Hoe te eten : Het plezier van koken en good food,9789025426699,,,,ES,2007/1/1,Uitgeverij Contact,nl,false,18,39540,14387,27182,6549,125,1998/1/1,How to Eat: The Pleasures and Principles of Good Food,book,3015,2053,1064,286,131,4.15,526,Paperback,,2,0,Nigella Lawson,,,,,,7285,17,137,"biography,cookbooks,cooking,food,health,non-fiction,reference,self-help"
15708001,8759312610,Moving Media Studies - Remediation Revisited,9788759312612,,,,ES,2007/1/1,Samfundslitteratur,eng,false,1,15708001,1,4,1,1,2007/1/1,,book,0,1,0,0,0,4.00,213,Paperback,,1,1,,,,,,,,0,,
15708501,1771001062,Les quatre guerres de 1812,9781771001069,,,,ES,2012/1/1,Douglas & McIntyre,,false,2,13584776,23,45,12,4,2012/9/11,,book,2,5,5,0,0,3.75,95,Paperback,,1,1,D. Peter Macleod,,,,,,8,1,,"history,non-fiction"
15709001,,Ultimate Fucking,,,,,ES,2012/2/2,Aurora Dupree,,true,3,15709001,3,0,0,0,2012/2/2,,book,0,0,0,0,0,0.00,,ebook,,0,0,Aurora Dupree,,,,,,3,0,,
15709501,,Lähtö ja neljä muuta tarinaa,,,,,ES,2009/1/1,Avain,fin,false,1,15709501,24,49,14,2,2009/1/1,,book,2,5,5,2,0,3.50,216,Paperback,,14,2,Hanif Kureishi,,,,,,5,1,1,"fiction,short-stories"
15710501,0733617557,The Book of Flying,,,,,ES,2004/1/1,Hodder,eng,false,4,126348,6378,6086,1470,231,2004/1/1,The Book of Flying,book,714,413,225,71,47,4.14,262,Paperback,,7,0,Keith  Miller,,,,,,4628,29,31,"adult,adult-fiction,contemporary,fairy-tales,fantasy,fiction,high-fantasy,historical,love,magic,magical-realism,novels,poetry,romance,science-fiction-fantasy,speculative-fiction,young-adult"
15711001,,Çay Kaşığı,9786055369187,,,,ES,2012/5/1,Hayal Ya Yayınları,tur,false,1,15711001,19,33,9,1,2012/5/1,,book,3,2,3,0,1,3.67,255,Paperback,,9,1,Ottoman,,,,,,5,0,1,
15711501,,Icebus - Iceland by bus,,,,,ES,2012/1/1,,eng,true,1,15711501,1,3,1,0,2012/1/1,Icebus,book,0,0,1,0,0,3.00,220,ebook,Kindle Edition,1,0,Sheila Winpenny,,,,,,,0,,
15712001,,"On the Nickle (Cleopatra Jones, #2)",,,,,ES,,,,false,5,16249421,800,650,180,26,2011/3/16,,book,42,55,58,21,4,3.61,,,,10,1,Maggie Toussaint,,,,,,532,23,26,"amazon,chick-lit,cozy-mystery,fiction,literary-fiction,mystery,suspense,thriller"
15712501,,Kinder des Schicksals,,,,,ES,1920/1/1,,ger,false,1,15712501,1,2,1,0,1920/1/1,,book,0,0,0,1,0,2.00,,,,1,0,Jakob Schaffner,,,,,,,0,,
15713001,,Δε μ'αγαπάς. Μ'αγαπάς.,9789600348378,,,,ES,2008/11/17,Καστανιώτης,gre,false,1,15713001,32,50,16,1,2008/11/17,,book,1,6,5,2,2,3.12,244,Paperback,,16,1,"Foteini Tsalikoglou,Φωτεινή Τσαλίκογλου",,,,,,7,0,,psychology
15713501,,History of the World (Volume II),,,,,ES,1936/1/1,"The Ridpath Historical Society , Inc. ",eng,false,2,15713501,16,23,5,0,1919/1/1,,book,3,2,0,0,0,4.60,,,,4,0,John Clark Ridpath,,,,,,10,1,1,history
15715001,,موازنة بين الحكمة في شعر المتنبي والحكمة في شعر أبي العلاء المعريّ,,,,,ES,,,,false,1,15715001,123,68,20,2,,,book,2,10,4,2,2,3.40,643,Hardcover,,20,2,زهدي صبري الخواجا,,,,,,93,0,6,
15715501,,"STOP SMILING, WE'RE NOT JOKING: A Very Rough Anal Sex Gangbang (The Rough Stuff)",,,,,ES,,,eng,true,3,15715501,12,8,2,0,2012/5/27,,book,1,0,1,0,0,4.00,,ebook,,1,0,Veronica Halstead,,,,,,10,0,2,
15716001,,"Deadly Expectations (The Chronicles of Anna, #1)",9780987833501,,,,ES,,,eng,true,5,13412668,292,122,34,15,2011/11/28,,book,10,12,3,6,3,3.59,,ebook,,1,0,Elizabeth Munro,,,,,,219,5,11,"amazon,horror,paranormal,romance,science-fiction,thriller,time-travel"
15716501,,When Promise Meets Passion,9781619268630,,,,ES,2012/6/19,"Siren Bookstrand, Inc.",eng,true,3,15716501,56,98,24,3,2012/6/19,,book,9,8,7,0,0,4.08,163,ebook,,22,3,Nicole Morgan,,,,,,27,0,,contemporary
15717001,,Avaruuden armoilla,,,,,ES,1958/1/1,Mikrokirjat,fin,false,7,8560247,28,35,12,5,1937/1/1,Adrift in the Stratosphere,book,2,2,3,3,2,2.92,210,Hardcover,,0,0,A.M. Low,,,,Jyrki Oras,,10,0,1,"fiction,science-fiction,speculative-fiction"
15717501,,Work Ends at Nightfall,,,,,ES,1938/1/1,The Bobbs-Merrill company,,false,1,15717501,26,17,5,1,1938/1/1,,book,1,2,1,0,1,3.40,94,Hardcover,,5,1,Marjorie Hillis,,,,,,20,1,,poetry
15718001,,Wuthering Heights,,,,,ES,,Thomas Nelson & Sons Ltd,eng,false,523,6185,1814998,4441041,1156488,30641,1847/12/1,Wuthering Heights,book,407497,356497,245006,95062,52426,3.84,333,Hardcover,The Nelson Classics,1,0,Emily Brontë,,,,,,496416,2999,42373,"adult,adult-fiction,british-literature,classic-literature,classics,drama,english-literature,fiction,gothic,high-school,historical,historical-fiction,literary-fiction,literature,love,novels,romance,school,tragedy,unfinished,victorian"
15718501,,Lost and Found #1,,,,,ES,2012/4/3,,eng,true,3,13622812,969,1891,480,12,2012/4/3,"Lost and Found: A Novella from Hero, Come Back",book,180,139,121,32,8,3.94,94,Kindle Edition,,1,0,Stephanie Laurens,,,,,,317,16,23,"adult,fiction,historical,historical-fiction,love-story,new-adult,novella,regency,romance,victorian"
15719001,0903729814,"Volunteers for Palestine Papers 1977-1980 (Volunteers for Palestine series, #1)",9780903729819,,,,ES,1981/1/1,Key (Miftah),eng,false,1,15719001,1,0,0,0,1981/1/1,,book,0,0,0,0,0,0.00,152,,,0,0,,,,Manfred Ropschitz,,,1,0,,
15719501,,The Platinum Penguin,9780615565545,,,,ES,2011/11/9,Mica Inc.,eng,false,1,15719501,32,8,2,2,2011/11/9,,book,1,0,1,0,0,4.00,126,Paperback,,2,2,Shamica Anderson,,,,,,25,2,,
15720001,,Instrumento di divisione seguita li 12 settembre 1493 tra le sorelle Angela ed Ippolita Sforza Visconti,,,,,ES,1863/2/1,Google Books,lat,true,1,15720001,2,4,1,1,1863/2/1,,book,0,1,0,0,0,4.00,,ebook,,1,1,Luigi N. Cittadella,,,,,,1,0,,
15720501,,Principy a modely řízení podnikové informatiky,9788024514406,,,,ES,2010/1/1,Oeconomica,cze,false,1,15720501,11,11,5,1,2010/1/1,,book,0,0,1,4,0,2.20,446,Paperback,,5,1,Jiří Voříšek,,,,,,2,1,,
15721001,,Le Roi de la Patate,,,,,ES,,,fre,false,2,12356659,161,357,109,17,2012/5/8,,book,15,26,44,22,2,3.28,,,,8,1,Rogé,,,,,,32,12,1,"animals,childrens,fantasy,fiction,food,funny,love,picture-books,romance,travel"
15721501,8860887674,Il ragazzo che voleva dormire,9788860887672,,,,ES,2012/6/21,Guanda,ita,false,13,11708333,880,834,220,41,2010/1/1,האיש שלא פסק לישון,book,62,69,73,13,3,3.79,304,Paperback,Narratori della Fenice,2,0,Aharon Appelfeld,,,,Elena Loewenthal,,593,6,17,"cultural,european-literature,fiction,historical,historical-fiction,history,literary-fiction,religion"
15722001,,Claire,9789023412755,,,,ES,2003/1/1,Bezige Bij,,false,14,963799,706,1337,363,51,2002/3/1,Claire Marvel,book,88,134,88,44,9,3.68,278,Paperback,,4,1,John Burnham Schwartz,,,,,,260,18,4,"drama,fiction,france,marvel,mystery,romance"
15722501,,The Tree That Walked,,,,,ES,1967/1/1,Chatto and Windus,,false,1,15722501,1,0,0,0,1967/1/1,,book,0,0,0,0,0,0.00,48,Hardcover,,0,0,John    Fuller,,,,,,,0,,
15723001,,Project,,B0082DE3N2,,,ES,2012/1/1,smashwords,eng,true,2,15723001,4,1,1,0,2012/1/1,,book,0,0,0,0,1,1.00,216,ebook,,1,0,Shaun Whittington,,,,,,3,0,,
15723501,,James Joyce Quarterly Vol. 23 No. 4,,,,,ES,1986/1/1,University of Tulsa,,false,1,15723501,1,0,0,0,1986/1/1,,book,0,0,0,0,0,0.00,130,Paperback,,0,0,,,,Thomas F. Staley,,,,0,,
15724001,8806197797,L'esistenza: tutte le poesie 1980-1992,9788806197797,,,,ES,2010/1/1,Einaudi,ita,false,1,15724001,8,16,4,0,2010/1/1,L'esistenza: tutte le poesie 1980-1992,book,1,2,1,0,0,4.00,194,Paperback,Collezione di poesia #389,4,0,Alberto Vigevani,,,Enrico Testa,,,2,0,,poetry
15724501,9515020611,Järki ja tunteet ja merihirviöt,9789515020611,,,,ES,2011/1/1,Schildts,fin,false,28,6425725,27892,35512,10877,1110,2009/1/1,Sense and Sensibility and Sea Monsters,book,1759,2807,3694,1790,827,3.26,350,Paperback,,18,3,Ben H. Winters,,,,,,14645,74,413,"adult,adult-fiction,adventure,chick-lit,classics,comedy,contemporary,fantasy,fiction,funny,historical,historical-fiction,horror,humor,literature,love,novels,paranormal,regency,retellings,romance,science-fiction,supernatural,unfinished,young-adult"
15725001,,Moderna samhällsteorier,9789113028620,,,,ES,2010/1/1,Norstedts,swe,false,3,15725001,15,32,10,2,1988/1/1,"Moderna samhällsteorier: traditioner, riktningar, teoretiker",book,1,1,7,1,0,3.20,456,Paperback,,9,2,,,,Per Månson,,,2,1,,non-fiction
15725501,,Bijschriften,9789041411501,,,,ES,2008/3/1,Anthos ,nl,false,23,1658265,11085,26836,6966,482,2007/7/2,Notes from an Exhibition,book,1841,2893,1708,411,113,3.85,314,Paperback,,0,0,Patrick Gale,,,,Sophie Brinkman,,3152,54,143,"art,contemporary,drama,family,fiction,lgbt,literary-fiction,literature,mental-health,mental-illness,modern,mystery,novels,psychology"
15726001,8370011004,Księżyc dwudziestu rąk,9788370011000,,,,ES,1988/1/1,Alfa,pol,false,1,15726001,17,30,9,0,1988/1/1,,book,1,5,1,0,2,3.33,318,Paperback,,9,0,Lino Aldani,,,,Ewa Komorowska,,5,1,,fiction
15726501,9755450785,Dişi Domuz,9789755450780,,,,ES,1997/2/1,Telos Y.,tur,false,35,767124,3083,5140,1501,172,1996/1/1,Truismes,book,245,502,477,199,78,3.42,112,Paperback,,3,0,Marie Darrieussecq,,,,,,1156,11,16,"adult-fiction,contemporary,dystopia,erotica,fantasy,feminism,fiction,france,literary-fiction,literature,magical-realism,novels,school,short-stories"
15727001,,Winter Trails - Echo's Voice: Episode IV,,B008BDRAGA,,,ES,2012/6/12,WordThunder Publications ,en-GB,true,1,15727001,13,17,5,2,2012/6/12,,book,0,2,3,0,0,3.40,153,Kindle Edition,,5,2,Sarah Mankowski,,,,,,5,0,1,
15727501,902144206X,DroomNummerNegen,9789021442068,,,,ES,2012/5/1,Uitgeverij Querido Bv,nl,false,50,6820,37261,72739,18592,1473,2001/1/1,number9dream,book,5161,8116,4114,927,274,3.91,432,Paperback,,6,2,David Mitchell,,,,Aad van der Mijn,,15347,98,654,"adult,adult-fiction,british-literature,contemporary,crime,cultural,drama,fantasy,fiction,literary-fiction,literature,magical-realism,modern,mystery,novels,romance,science-fiction,speculative-fiction,unfinished"
15728001,,Remember the Shagmeister,,B007R0HEKK,,,ES,2012/4/2,Kindle,en-GB,true,2,15728001,51,102,24,4,2012/4/1,Remember the Shagmeister,book,13,6,3,2,0,4.25,340,Kindle Edition,,23,4,Carol Schede,,,,,,21,1,,romance
15728501,3404186982,Im süßen Bann der Versuchung,9783404186983,,,,ES,2005/11/22,Bastei Lübbe,ger,false,12,967635,580,796,208,14,2003/8/1,"Master of the Highlands (MacLean, #2)",book,63,77,45,15,8,3.83,334,Paperback,,2,0,,,,,,,251,11,18,"adult,adult-fiction,erotica,historical,historical-fiction,medieval,romance"
15729501,,Elektra,,,,,ES,,,,false,89,1171954,7921,18113,4602,120,-420/1/1,Ηλέκτρα,book,1449,1722,1152,245,34,3.94,,,,140,7,Euripides,,,,,,2372,29,16,"classics,drama,family,fantasy,fiction,historical,historical-fiction,history,literature,mythology,philosophy,plays,poetry,school,theatre,tragedy"
15730501,8497100107,Contes de Peterburg,,,,,ES,2001/1/1,Destino,cat,false,149,1923531,6288,14666,3488,175,1842/1/1,Петербургские повести,book,1510,1344,506,94,34,4.20,243,Paperback,,5,0,Nikolai Gogol,,,,"Victòria Izquierdo,Àngels Margarit",,1799,15,155,"classics,fantasy,fiction,humor,literature,magical-realism,school,short-stories,travel"
15731001,9046113396,"Licht de Titanic (Dirk Pitt, #4)",9789046113394,,,,ES,2009/2/1,Zwarte Beertjes,nl,false,90,41706,33877,90824,22866,712,1976/1/1,Raise the Titanic!,book,7348,8819,5584,941,174,3.97,352,Paperback,,15,1,Clive Cussler,,,,Elf Leonard,,4981,13,363,"action,adult,adult-fiction,adventure,american,contemporary,crime,fiction,historical,historical-fiction,history,mystery,mystery-thriller,novels,science-fiction,suspense,thriller"
15731501,,"Moi, Gourmand? (Garfield, #46)",9782205061215,,,,ES,2008/1/1,Dargaud,fre,false,2,15731501,13,37,9,1,2008/1/1,,book,3,4,2,0,0,4.11,,,,9,1,Jim Davis,,,,Thomas Deltombe,,2,2,,
15732001,0451465067,"Blood Trade (Jane Yellowrock, #6)",9780451465061,,,,ES,2013/4/2,Roc,eng,false,8,15732001,16976,46365,10834,507,2013/4/2,Blood Trade,book,4916,4271,1449,156,42,4.28,337,Mass Market Paperback,,8946,451,Faith Hunter,,,,,,3926,72,142,"action,adult,angels,contemporary,fantasy,fiction,horror,magic,mystery,paranormal,romance,science-fiction,science-fiction-fantasy,shapeshifters,supernatural,thriller,urban-fantasy,vampires,werewolves,witches"
15732501,,The longest Way - 4646 Kilometer zu Fuß durch China,9783890293868,,,,ES,2012/1/1,Malik,ger,false,7,15732501,339,423,107,12,2012/1/1,,book,29,50,22,6,0,3.95,446,Hardcover,,89,11,Christoph Rehage,,,,,,189,0,12,"adventure,biography,non-fiction,travel"
15733001,,Ashins Forår,9788770909204,,,,ES,2012/1/1,Turbine Forlaget,dan,false,1,15733001,19,67,16,5,2012/1/1,,book,7,5,4,0,0,4.19,195,Paperback,,16,5,Christina Lund Sørensen,,,,,,3,0,,
15733501,,The Flipped Classroom: The Full Picture,,B008ENPEP6,,,ES,,Kindle eBook,,true,1,15733501,145,198,60,4,2012/6/21,,book,9,20,16,10,5,3.30,,,,60,4,Jackie Gerstein,,,,,,49,2,19,"education,non-fiction,teaching"
15734001,,Nordhörn,9783866809642,,,,ES,2012/4/27,Sutton,ger,false,3,15734001,10,33,9,2,2012/1/1,,book,0,6,3,0,0,3.67,272,Paperback,,9,2,Jürgen Rath,,,,,,1,0,,
15734501,1891229338,Islamic Perspective of Contraception and Abortion,,,,,ES,2000/1/1,Al-Kitaab & As-Sunnah Publishing,eng,false,1,15734501,45,10,2,0,2000/1/1,,book,2,0,0,0,0,5.00,46,Paperback,,2,0,Muhammad Mustafa al-Jibaly,,,,,,35,0,2,
15735001,,Winding Road,,B008K1G8NY,,,ES,2012/7/12,,en-GB,true,1,15735001,31,33,10,3,2012/7/12,,book,0,6,2,1,1,3.30,164,ebook,,10,3,Cecilia Ryan,,,,,,15,2,,"abuse,contemporary,music,novella,romance,young-adult"
15735501,1419135686,Mr. Tennyson's Drama,9781419135682,,,,ES,2004/6/30,Kessinger Publishing,eng,false,1,15735501,4,0,0,0,2004/6/30,,book,0,0,0,0,0,0.00,48,Paperback,,0,0,Henry James,,,,,,3,0,,non-fiction
15736001,3992000575,Mount Maroon,9783992000579,,,,ES,2012/2/1,Braumüller Literaturverlag,ger,false,2,15736001,18,36,11,0,2012/2/1,,book,2,3,4,0,2,3.27,674,Hardcover,,9,0,Ethan Bayce,,,,,,3,1,,
15736501,,Photographs not taken: A collection of photographers' essays,,B007SNHOHE,,,ES,2012/3/27,Daylight,en-GB,true,2,13509871,428,630,163,24,2012/1/1,,book,45,62,45,11,0,3.87,223,Kindle Edition,2nd Edition,4,0,Will Steacy,,,,,,139,4,25,"art,essays,non-fiction"
15737001,,"Oh, Brother!",,B008H4WI1U,,,ES,2012/7/2,Amazon Digital,en-GB,true,1,15737001,275,482,163,13,2012/7/2,,book,18,37,49,38,21,2.96,136,Kindle Edition,,163,13,Peg Cochran,,,,,,87,0,1,"funny,high-school,music,mystery,realistic-fiction,romance,unfinished,young-adult"
15737501,B0068I82YE,Islamic Art,,,,,ES,,Taschen,,false,6,7141708,66,92,25,3,2009/1/1,Islamic Art (Taschen Basic Genre),book,5,9,9,2,0,3.68,,,,0,0,Annette Hagedorn,,,,,,27,0,,art
15738001,,Figuræ,,,,,ES,2001/1/1,Circolo culturale di Meduno,ita,false,1,15738001,1,5,1,0,2001/1/1,,book,1,0,0,0,0,5.00,,Paperback,,1,0,Ida Vallerugo,,,,,,,0,,
15738501,,Holy Bible: King James Version (Gideon),,,,,ES,,,,false,4072,1923820,283608,864531,195582,5049,1611/1/1,,book,146179,16472,13466,7885,11580,4.42,1291,,,0,0,Anonymous,,,,,,50056,202,23666,"adult,biography,christian,christianity,classic-literature,classics,faith,fantasy,fiction,historical,historical-fiction,history,horror,inspirational,literature,mythology,non-fiction,philosophy,poetry,politics,reference,religion,school,self-help,spirituality,theology,unfinished"
15739001,,Salt Spray,,B008E69ZVW,,,ES,2012/1/1,Kindle,en-GB,true,1,15739001,7,23,6,2,2012/1/1,,book,0,5,1,0,0,3.83,202,Kindle Edition,Kindle,6,2,Paula Napier,,,,,,1,0,1,
15740001,9054260084,Koken als in een Taverna,9789054260080,,,,ES,1999/2/1,De Lantaarn,nl,false,2,15740001,3,4,1,0,1996/1/1,Taverna,book,0,1,0,0,0,4.00,127,Hardcover,,1,0,Joyce Goldstein,,,,Kim Maclean,,1,0,,cookbooks
15740501,0434927309,Percy Goes to the Harbour (Thomas Bath Books),9780434927302,,,,ES,1988/9/12,Heinemann Young Books,eng,false,1,15740501,4,7,2,1,1988/9/12,,book,1,0,0,1,0,3.50,10,Spiral-bound,,2,1,Wilbert Awdry,,,,,,2,1,,
15741001,8858506286,Fiore di ghiaccio,9788858506288,,,,ES,2012/1/1,Piemme,ita,false,55,15750714,6789,14521,3830,352,2010/1/1,Tusenskönor ,book,785,1742,1061,203,39,3.79,406,Paperback,,9,2,Kristina Ohlsson,,,,"Alessandro Bassini,Sara Culeddu",,2076,48,91,"adult,adult-fiction,contemporary,crime,fiction,murder-mystery,mystery,mystery-thriller,suspense,thriller"
15741501,,De trek naar Oklahoma (Lucky Luke #14),9789031401772,,,,ES,,Dupuis,,false,22,2456095,440,1130,303,9,1960/1/1,Ruée sur l'Oklahoma,book,58,126,100,17,2,3.73,48,Paperback,,8,0,"Morris,René Goscinny",,,,,,42,2,,"adventure,comics,fiction,france,graphic-novels,graphic-novels-comics,humor"
15742501,,"O ljubavi, knjigama i stvarima koje govore",9789533194813,,,,ES,2012/7/1,Profil,scr,false,1,15742501,18,30,7,0,2012/7/1,,book,3,3,1,0,0,4.29,183,Paperback,Biblioteka Velimir Visković bira za Vas,7,0,Nadežda Čačinovič,,,,,,10,0,,
15743001,,Menghidupkan malam,9789673714353,,,,ES,,Synergy Media,msa,false,1,15743001,2,3,1,0,,,book,0,0,1,0,0,3.00,156,Paperback,,1,0,Abu Malikah al-Husnayaini,,,,,,1,0,,
15743501,,Google Marketing,9789043022668,,,,ES,2011/1/1,Pearson Education Benelux B.V.,nl,false,1,15743501,14,27,10,1,2011/1/1,,book,1,1,3,4,1,2.70,176,Paperback,,10,1,Mark Jansen,,,,,,3,1,,
15744001,,"Dune (Dune Chronicles, #1)",9786065793590,,,,ES,2012/1/1,Nemira,rum,false,287,39776179,986633,2559440,607351,16116,1965/6/1,Dune,book,306627,178007,83195,25170,14352,4.21,816,Hardcover,a patra revizuita,40,9,Frank Herbert,,,,Ion Doru Brana,,309844,1068,20997,"adult,adult-fiction,adventure,american,classics,dystopia,epic,fantasy,fiction,literature,novels,politics,religion,science,science-fiction,science-fiction-fantasy,speculative-fiction,unfinished,war"
15744501,9172281243,Den osynlige mannen,,,,,ES,1976/1/1,Delta,swe,false,1318,17184,250500,417760,114983,4655,1897/1/1,The Invisible Man,book,22406,41638,39255,9729,1955,3.63,219,Paperback,,5,0,H.G. Wells,,,,Ingrid Ekman Nordgaard,,107085,614,9687,"adult,adult-fiction,adventure,british-literature,classic-literature,classics,english-literature,fantasy,fiction,horror,literature,mystery,novels,school,science,science-fiction,science-fiction-fantasy,speculative-fiction,steampunk,thriller,unfinished,victorian"
15745001,9639307904,"Lányok késésben (Lányok, #3)",,,,,ES,2005/1/1,Animus Kiadó,hun,false,49,266794,10997,23582,6572,144,1999/1/1,Girls Out Late,book,1483,1938,2282,700,169,3.59,218,Hardcover,,8,1,Jacqueline Wilson,,,,,,1842,107,80,"british-literature,chick-lit,childrens,contemporary,fiction,funny,middle-grade,novels,romance,teen,young-adult"
15745501,3877914721,"Adventures: Die besten Spiele, die besten Stories, die besten Lösungen, die besten Infos, ... die beste Unterhaltung!",9783877914724,,,,ES,1993/1/1,Markt und Technik,ger,false,1,15745501,2,5,2,1,1993/1/1,,book,0,0,1,1,0,2.50,218,Paperback,,2,1,Rainer Babiel,,,,,,,0,,
15746001,1477677046,The Dragon and the Moon,9781477677049,,,,ES,,,eng,false,1,15746001,2,0,0,0,,,book,0,0,0,0,0,0.00,,,,0,0,Katy Hulme,,,,,,2,0,,
15746501,,Quer pasticciaccio brutto de via Merulana,,,,,ES,1982/9/1,Garzanti,ita,false,44,596986,6238,6927,1890,170,1957/6/1,Quer pasticciaccio brutto de via Merulana,book,547,574,463,201,105,3.67,341,Paperback,,6,0,Carlo Emilio Gadda,,,,,,3458,6,124,"classics,crime,cultural,european-literature,fiction,literature,mystery,novels,thriller,unfinished"
15747001,9020424076,Moby Dick,9789020424072,,,,ES,1980/1/1,L.J. Veen,nl,false,796,153747,819792,1532164,439428,13201,1851/1/1,,book,116621,114245,113350,56817,38395,3.49,485,Paperback,,5,1,Herman Melville,,,,,,306630,1651,30032,"adult,adult-fiction,adventure,american,animals,classic-literature,classics,college,drama,epic,fantasy,fiction,high-school,historical,historical-fiction,history,literary-fiction,literature,novels,philosophy,school,unfinished"
15747501,1478212152,The Secrets of Gaining Mass Muscle Made Easy,9781478212157,,,,ES,2012/1/9,Dawn Xhudo,en-GB,true,3,15747501,5,12,3,1,2012/7/9,The Secrets of Gaining Mass Muscle Made Easy,book,2,0,0,1,0,4.00,40,Kindle Edition,,3,1,Tony Xhudo,,,,,,,0,,
15748001,,"Mónica, a Maria-Rapaz (7 irmãos, #3)",9789897413100,,,,ES,2015/1/1,Oficina do Livro,por,false,1,15748001,41,92,22,0,,"Mónica, a Maria-Rapaz",book,9,9,3,1,0,4.18,176,Paperback,,22,0,"Margarida Fonseca Santos,Maria João Lopo de Carvalho",,,,,,6,1,,
15748501,,Tuhat roosi,,,,,ES,1995/1/1,Kuldsulg,est,false,4,6238103,75,94,30,3,1986/1/1,Thousand Roses,book,2,8,13,6,1,3.13,227,Paperback,,0,0,Bethany Campbell,,,,,,22,4,1,"fiction,harlequin,holiday,romance"
15749501,9021668017,Hockeyhobbels en kunstgrasknieën,9789021668017,,,,ES,2010/1/1,Ploegsma,nl,false,2,15749501,18,27,9,1,2010/1/1,,book,2,0,4,2,1,3.00,128,Hardcover,,9,1,Barbara Scholten,,,,,,3,0,,
15750001,,Spirit Lance (Native Protectors #1),,B008E37A4E,,,ES,2012/6/23,,en-GB,true,2,15750001,19,34,10,1,2012/6/23,,book,2,2,4,2,0,3.40,109,Kindle Edition,,10,1,,,,,,,9,0,,
15750501,9780985062,"All or Nothing (To Save a Life, #3)",,,,,ES,2012/1/1,,eng,false,2,15750501,151,177,38,7,2012/1/1,,book,27,9,2,0,0,4.66,384,Paperback,,33,7,"Jim Britts,Rachel Britts",,,,,,96,1,3,"faith,romance,young-adult"
15751001,,Zagrebački žigolo: pustolovine usrećitelja usamljenih Zagrepčanki,9789532890297,,,,ES,2010/1/1,"Škorpion, Zagreb",scr,false,1,15751001,5,4,2,0,2010/1/1,,book,0,0,1,0,1,2.00,203,Paperback,Biblioteka Eros i Psyche,2,0,Viktor Stranac,,,,,,2,0,,
15751501,9510071765,Sirkkelisirkus,,,,,ES,1975/1/1,WSOY,fin,false,1,15751501,10,22,6,0,1975/1/1,,book,1,3,1,1,0,3.67,248,Hardcover,,6,0,Lassi Sinkkonen,,,,,,4,0,,
15752001,,"La Voz de Francia, Charles de Gaulle: Discursos, Declaraciones, Documentos",,,,,ES,1943/1/1,Centro de Información y Prensa,,false,1,15752001,1,3,1,0,1943/1/1,,book,0,0,1,0,0,3.00,110,,,1,0,Charles de Gaulle,,,,,,,0,,
15753001,,Arretje Nof en de ontvoerde Baljuw,,,,,ES,1957/1/1,Calvé ,,false,1,15753001,1,0,0,0,1957/1/1,,book,0,0,0,0,0,0.00,16,Paperback,,0,0,Toonder Studio's,,,,,,1,0,,
15753501,,"Všechny párty zejtřka (Bridge, #3)",9788071933229,,,,ES,2011/1/18,Laser - books,cze,false,14,22321,21352,54338,13942,362,1999/10/1,All Tomorrow's Parties,book,3665,5884,3753,578,62,3.90,344,Paperback,,7,1,William Gibson,,,,Tomáš Richtr,,4531,25,144,"adventure,american,dystopia,fantasy,fiction,literature,novels,science,science-fiction,science-fiction-fantasy,speculative-fiction,thriller"
15754001,,Wanita-Wanita Mulia di Sekitar Nabi,9786029024128,,,,ES,2011/6/1,Pustaka Arafah,ind,false,1,15754001,14,17,4,0,2011/6/1,,book,1,3,0,0,0,4.25,620,Hardcover,,4,0,Abu Salsabil Muhammad Abdul Hadi,,,,,,8,0,1,
15754501,,La transformación y otros relatos,,,,,ES,,,spa,false,3,15754501,76,145,42,15,2011/1/1,,book,6,13,17,6,0,3.45,,,,18,2,Mary Wollstonecraft Shelley,,,,,,27,1,,"british-literature,fiction,gothic,historical,historical-fiction,horror,mystery,science,science-fiction"
15755001,0615626882,Quests of Shadowind: The Grounding Stone (Young Adult Series - Book 2),9780615626888,,,,ES,2012/7/10,Millhouse Press,en-US,false,2,15755001,12,5,1,0,2012/7/10,,book,1,0,0,0,0,5.00,271,Paperback,,1,0,L.A. Miller,,,,,,9,0,2,
15755501,146633276X,SUCCESSFUL LIVING,9781466332768,,,,ES,2012/6/1,Createspace,eng,false,1,15755501,2,5,1,0,2012/6/11,,book,1,0,0,0,0,5.00,206,Paperback,,1,0,NEIL A MENCE,,,,,,1,0,,
15756001,8866650552,Ma piove sempre qui?!,9788866650553,,,,ES,2012/1/1,Lite Editions,ita,true,1,15756001,3,9,2,1,2012/1/1,,book,1,1,0,0,0,4.50,,ebook,,2,1,Nora Noir,,,,,,1,0,,
15756501,0006751210,The Amulet (Nightmares),,,,,ES,1995/1/1,Harper Collins,eng,false,2,1188047,199,418,106,4,1995/1/1,"The Amulet (Year of the Cat, No 3)",book,41,26,33,4,2,3.94,232,Mass Market Paperback,,6,0,Zoe Daniels,,,,,,50,7,1,"contemporary,fantasy,fiction,paranormal,shapeshifters,supernatural,teen,urban-fantasy,young-adult"
15757001,,Reamde,9788374802574,,,,ES,2012/7/27,MAG,pol,false,33,10552338,81936,177224,44645,4581,2011/9/20,Reamde,book,14389,18270,8931,2351,704,3.97,1072,Hardcover,,24,4,Neal Stephenson,,,,Wojciech Szypuła,,29445,123,3089,"action,adult,adult-fiction,adventure,american,contemporary,crime,fantasy,fiction,literature,mystery,mystery-thriller,novels,science,science-fiction,science-fiction-fantasy,speculative-fiction,suspense,technology,thriller,unfinished"
15758001,,Toldi trilógia,,,,,ES,,,hun,false,3,1566663,247,551,150,3,1854/1/1,Toldi-Trilogia,book,42,45,37,24,2,3.67,,,,4,0,János Arany,,,,,,21,5,,"classics,fiction,high-school,historical-fiction,history,poetry"
15758501,,Lady (Little Golden Book),,B000IOOFEK,,,ES,1982/1/1,Golden Books,,false,3,2688208,148,276,71,9,1954/1/1,Walt Disney's Lady,book,22,23,22,4,0,3.89,24,Hardcover,,9,1,"Samuel Armstrong,Ward Greene",,,,,,31,6,,"childrens,fiction,juvenile,picture-books"
15759001,,Intermediate Accounting [with Annual Report],,,,,ES,2012/3/9,McGraw-Hill/Irwin,eng,false,64,4189839,360,381,113,13,1998/1/1,Intermediate Accounting,,27,29,29,15,13,3.37,1339,Hardcover,Seventh Edition,10,3,J. David Spiceland,,,,,,38,1,-5,"academic,business,non-fiction,school,textbooks"
15759501,9026982437,"De huurling (Nick Stone, #3)",9789026982439,,,,ES,2013/6/1,Van Holkema & Warendorf,nl,false,44,666675,4271,10400,2693,72,2000/1/1,Firewall,book,700,1119,705,140,29,3.86,365,Paperback,,13,1,Andy McNab,,,,Gert Jan de Vries,,678,8,122,"action,adult,adventure,crime,fiction,mystery,novels,suspense,thriller,unfinished,war"
15760001,,"On Dublin Street (On Dublin Street, #1)",,B0094J01VG,,,ES,2012/8/31,,eng,true,66,15760001,256165,660285,156196,8636,2012/8/31,On Dublin Street,book,76616,50023,20936,5684,2937,4.23,372,Kindle Edition,,145328,7208,Samantha Young,,,,,,83453,1013,1389,"adult,adult-fiction,chick-lit,contemporary,drama,erotica,fiction,funny,love,new-adult,realistic-fiction,romance,young-adult"
15760501,1595548890,The House that Love Built,9781595548894,,,,ES,2013/4/2,Thomas Nelson,eng,false,10,15760501,2557,3862,939,154,2013/4/2,,book,372,352,173,33,9,4.11,320,Paperback,,817,142,Beth Wiseman,,,,,,1358,20,32,"adult,christian,christian-fiction,contemporary,family,fiction,inspirational,modern,realistic-fiction,romance"
15761001,,"Ascension (Shadow and Light Trilogy, #1)",9781909306066,,,,ES,,,eng,true,7,10992228,1611,1961,488,68,2011/4/18,,book,205,154,81,29,19,4.02,196,ebook,,0,0,Felicity Heaton,,,,,,950,29,36,"amazon,demons,erotica,fantasy,fiction,magic,paranormal,romance,witches"
15761501,8770321027,"Inger Prier, 2",,,,,ES,1970/1/1,M. Normanns Forlag,dan,false,1,15761501,4,15,4,0,1970/1/1,,book,0,3,1,0,0,3.75,447,Paperback,,4,0,Helene Strange,,,,,,,0,,"fiction,history"
15762001,9775340179,الأمير والدرويش: ترانيم صوفية,,,,,ES,1996/1/1,دار الهدى,ara,false,1,15762001,480,379,103,27,1996/1/1,,book,34,22,33,8,6,3.68,141,Paperback,,103,27,أحمد بهجت,,,,,,355,2,2,"historical-fiction,literature,novels,philosophy,religion"
15762501,1612001203,"The Drive on Moscow, 1941",9781612001203,,,,ES,2012/10/1,Casemate,en-GB,false,1,15762501,77,128,37,5,2012/10/1,,book,4,12,18,3,0,3.46,288,Hardcover,,37,5,Niklas Zetterling & Anders Frankson,,,,,,31,0,1,"american-history,biography,crime,history,non-fiction,politics,war"
15763001,0774732849,Sociology,9780774732840,,,,ES,1994/1/1,"Harcourt, Brace",eng,false,2,15763001,7,9,2,1,1983/2/1,Sociology,,1,1,0,0,0,4.50,707,Paperback,5th,2,1,Robert Hagedorn,,,,,,2,0,,non-fiction
15763501,,Brothers Courageous: Shooter (Brothers Courageous #1),,B007KTDMJ0,,,ES,2012/3/15,Vanessa Gray Bartal,en-GB,true,1,15763501,53,119,27,1,2012/3/15,,book,13,12,2,0,0,4.41,200,Kindle Edition,,27,1,Vanessa Gray Bartal,,,,,,12,2,2,chick-lit
15764001,9879791985,Melankoli Kota Batu,,,,,ES,2010/10/1,Jejak Kata Kita Publishing,ind,false,1,15764001,168,140,35,1,2010/10/1,,book,16,7,9,2,1,4.00,66,Hardcover,1st edition,35,1,"A. Herman Susanto,Abdul Sukur",,,,,,124,0,2,biography
15764501,,Academisch Schrijven,9789033481062,,,,ES,2010/8/1,Acco,nl,false,2,15764501,12,34,9,0,2010/8/1,,book,2,4,2,1,0,3.78,120,Paperback,,8,0,Lieve De Wachter,,,,,,,0,,"non-fiction,school"
15765001,9789892702,Guardei as lágrimas no bolso,,,,,ES,2011/1/1,π,por,false,3,15765001,24,46,14,1,1998/1/1,Guardei as lágrimas no bolso,book,1,4,7,2,0,3.29,93,Paperback,"BABEL, 2011",13,0,Ana Meireles,,,,,,7,2,,
15765501,,Report of the Special Investigative Counsel Regarding the Actions of Pennsylvania State University Related to the Child Sexual Abuse Committed by Gerald A. Sandusky,,,,,ES,2012/7/12,"Freeh Sporkin and Sullivan, LLP",eng,false,2,15765501,4,9,3,2,2012/7/12,,book,0,1,1,1,0,3.00,267,Unbound,,3,2,Louis Freeh,,,,,,1,0,,
15766001,,Scritture Aliene - Albo 3,9788896086285,,,,ES,,Edizioni Diversa Sintonia,ita,true,1,15766001,6,19,4,0,,,book,3,1,0,0,0,4.75,,ebook,,4,0,"Broccolino Amoroso,Gabriella Maganza,Livin Derevel,Scilla Bonfiglioli",Alexia Bianchini,,Vito Introna,,,2,0,,
15766501,2092524844,Cauchemar à la scierie ( Les désastreuses aventures des Orphelins Baudelaire #4 ),9782092524848,,,,ES,2011/2/1,Nathan Poche,fre,false,1,65119,188577,479336,124491,3608,2000/4/15,The Miserable Mill,book,36711,42872,35856,7673,1379,3.85,209,Mass Market Paperback,Nathan (Paris-France),15,1,Lemony Snicket,,,,,,23191,1040,1059,"adventure,childrens,classics,comedy,contemporary,family,fantasy,fiction,funny,gothic,humor,juvenile,middle-grade,mystery,novels,realistic-fiction,teen,young-adult"
15767001,1475149808,Martin McMillan and the Secret of the Ruby Elephant,9781475149807,,,,ES,2012/7/3,Createspace,eng,false,3,15767001,184,38,9,5,,,book,5,2,1,1,0,4.22,184,Paperback,,8,5,Elaine  Russell,,,,,,174,2,1,
15767501,3426510057,"Die Rache der Wanderhure (Die Wanderhure, #6)",9783426510056,,,,ES,2012/1/1,Knaur,ger,false,4,15767501,221,245,65,3,2012/1/1,Die Rache der Wanderhure,book,18,21,20,5,1,3.77,480,Paperback,,64,2,Iny Lorentz,,,,,,126,4,1,historical-fiction
15768001,,"Miekkani laulaa (My Swordhand is Singing, #1)",9789512077182,,,,ES,2008/1/1,Gummerus,fin,false,27,1840934,4233,8489,2322,304,2006/7/25,My Swordhand is Singing,book,500,850,707,203,62,3.66,240,Hardcover,,34,2,Marcus Sedgwick,,,,Ulla Lempinen,,1355,32,36,"adult,adventure,contemporary,dark,family,fantasy,fiction,gothic,historical,historical-fiction,horror,medieval,mystery,novels,paranormal,romance,school,science-fiction-fantasy,supernatural,survival,teen,vampires,young-adult,zombies"
15769001,,Your Customer Creation Equation: Unexpected Website Formulas of The Conversion Scientist,,B008ND4ZXY,,,ES,2012/7/21,CMI Books,eng,true,2,13634475,63,101,25,5,2012/6/1,,book,10,9,3,3,0,4.04,233,Kindle Edition,,2,1,Brian  Massey,,,,,,31,1,3,business
15769501,3785568665,"Totengesang (Puerta Oscura, #3)",9783785568668,,,,ES,2012/8/1,Loewe Verlag,ger,false,4,7847708,895,1541,394,21,2009/10/14,,book,137,127,96,26,8,3.91,560,Gebunden,,20,4,David Lozano Garbala,,,,,,66,5,4,"dark,fantasy,ghosts,horror,mystery,novels,paranormal,suspense,thriller,urban-fantasy,young-adult"
15770001,,Overpass,9781467532549,,,,ES,2012/8/1,,eng,false,1,15770001,14,34,7,2,2012/8/1,,book,6,1,0,0,0,4.86,70,Paperback,,7,2,Steve Davenport,,,,,,6,0,,poetry
15770501,,A Meeting by the River,,,,,ES,1967/1/1,Simon and Schuster,,false,21,243966,1079,1947,516,61,1967/1/1,A Meeting by the River,book,106,216,169,21,4,3.77,191,Hardcover,First Edition,2,1,Christopher Isherwood,,,,,,468,17,10,"british-literature,classics,cultural,european-literature,family,fiction,gay,historical-fiction,lgbt,literature,love,modern,queer,relationships,spirituality"
15771001,,"Golden Hands: The Complete Knitting, Dressmaking and Needlecraft Guide, Volume 15 (Golden Hands, #15)",,,,,ES,1978/1/1,Marshall Cavendish,eng,false,1,15771001,1,0,0,0,1978/1/1,,book,0,0,0,0,0,0.00,,Hardcover,,0,0,Marshall Cavendish,,,,,,,0,,reference
15771501,,Human Sister,,B007P9993I,,,ES,2012/3/27,,en-GB,true,2,9924597,428,630,174,22,2010/12/11,,,50,50,43,20,11,3.62,338,Kindle Edition,,73,3,Jim Bainbridge,,,,,,137,18,3,"fiction,science-fiction,young-adult"
15772001,,Sunday the Rabbi Stayed Home,,,,,ES,1970/4/1,Fawcett,eng,false,26,415639,1776,4195,1107,76,1969/1/1,Sunday the Rabbi Stayed Home,book,230,466,364,42,5,3.79,190,Mass Market Paperback,,8,1,Harry Kemelman,,,,,,314,14,36,"amazon,cozy-mystery,crime,faith,fiction,funny,murder-mystery,mystery,mystery-thriller,novels,religion"
15772501,3596177405,Die Irische Rebellin,9783596177400,,,,ES,2008/7/14,Fischer Taschenbuch Verlag,ger,false,2,15772501,17,26,9,0,2008/7/14,Die irische Rebellin,book,0,3,3,2,1,2.89,416,Paperback,,8,0,Inez Corbi,,,,,,8,0,,history
15773001,,One Million Tiny Plays About Britain,,B0058CMSLO,,,ES,2011/6/1,Bloomsbury Publishing,en-GB,true,3,3804190,350,667,195,20,2009/3/2,One Million Tiny Plays About Britain,,33,62,61,32,7,3.42,232,Kindle Edition,,57,3,Craig Taylor,,,,,,118,13,5,"comedy,contemporary,drama,fiction,plays,short-stories,theatre"
15773501,,Le scorpion et l'amour,,,,,ES,,Marabout,fre,false,1,15773501,1,3,1,0,,,book,0,0,1,0,0,3.00,,,,1,0,Frédéric Maisonblanche,,,,,,,0,,
15774001,,قوارب النجاة,,,,,ES,,,,false,1,15774001,144,140,36,5,,,book,13,13,5,3,2,3.89,,,,36,5,فتحي يكن,,,,,,81,0,5,
15774501,,Killing Calvinism: How to Destroy a Perfectly Good Theology from the Inside,,,,,ES,2012/6/1,Cruciform Press,eng,true,4,14760916,557,1180,278,64,2012/6/1,,book,120,114,37,6,1,4.24,,ebook,,2,0,Greg Dutcher,,,,,,219,12,6,"christian,christianity,faith,religion,theology"
15775001,,Venganza de sangre,9788498726565,,,,ES,2012/5/1,Ediciones B (B de Bolsillo),spa,false,2,15775001,140,209,52,6,2012/5/1,Venganza de sangre,book,16,22,13,1,0,4.02,744,Mass Market Paperback,Primera,40,6,Sebastián Roa,,,,,,51,2,8,historical-fiction
15775501,0733609104,Polar: the Titanic bear,,,,,ES,1998/1/1,Hodder Headline Australia,eng,false,10,2157716,1007,2335,570,61,1994/1/1,Polar: the Titanic Bear,book,251,171,113,22,13,4.10,64,Hardcover,,1,0,Daisy Corning Stone Spedden,Laurie McGaw,,,,,277,10,7,"animals,childrens,christmas,classics,historical-fiction,history,juvenile,non-fiction,picture-books,realistic-fiction,travel"
15776001,,The Descendant,,B008GET9KE,,,ES,2012/5/24,"KG Publishing, LLC",en-US,true,5,15860991,1692,1465,388,116,2012/5/24,The Descendant,book,128,125,79,32,24,3.78,289,Kindle Edition,,158,10,Kelley Grealis,,,,,,587,16,16,"fantasy,fiction,mythology,paranormal,romance,urban-fantasy,vampires"
15776501,9722205617,"Anita na Escola de Vela (Série Anita, #5)",9789722205610,,,,ES,1999/1/1,Verbo Infantil,por,false,6,1461272,91,214,57,1,1979/1/1," Martine fait de la voile (Martine, #29)",book,15,18,20,3,1,3.75,22,Hardcover,,19,0,Gilbert Delahaye,Marcel Marlier,,,,,15,2,,childrens
15777501,1937044858,"Haven 6 (A New Dawn, #3)",9781937044855,,,,ES,2012/9/11,Entangled Publishing,,false,5,15777501,383,199,45,19,2011/9/11,,book,27,11,6,1,0,4.42,326,Paperback,,41,17,Aubrie Dionne,,,,,,310,7,2,"adventure,aliens,fantasy,fiction,paranormal,post-apocalyptic,romance,science-fiction,urban-fantasy"
15778001,,The Magic of a Well Managed Life,,,,,ES,,Ron Ball Association,eng,false,1,15778001,2,2,1,0,,,not a book,0,0,0,1,0,2.00,,Audio Cassette,,1,0,Ron Ball,,,,,,1,0,,
15779001,2012\13809,رسائل من البحروإليه,,,,,ES,2012/7/1,دار نفرو للنشر والتوزيع,ara,false,1,15779001,41,31,7,1,2012/7/1,رسائل من البحر وإليه,book,5,1,0,1,0,4.43,103,,,7,1,مها العباسى,,,,,,34,0,,
15780001,,"Seductive Secrets (Secret Lives, #1)",,B008K881HS,,,ES,2012/7/10,,en-GB,true,6,15780001,6347,9956,2782,182,2012/4/7,Daughter of Deceit,book,711,823,782,297,169,3.58,237,Kindle Edition,,2657,169,"Carrie James Haynes,Colleen Connally",,,,,,2397,47,469,"adult,amazon,chick-lit,erotica,fiction,historical,historical-fiction,mystery,regency,romance,suspense"
15780501,,Somersneeu,,,,,ES,,,,false,2,15780501,17,43,11,1,,,book,3,6,1,0,1,3.91,,Paperback,,10,1,Helene De Kock,,,,,,6,0,,
15781001,2070632342,Pierre Lapin,9782070632343,,,,ES,2012/4/16,Gallimard jeunesse,fre,false,618,19321,259523,763100,183013,1709,1901/12/16,The Tale of Peter Rabbit ,book,86998,52923,33153,7020,2919,4.17,38,Paperback,,12,2,Beatrix Potter,,,,,,58222,292,595,"adventure,animals,childrens,classics,fairy-tales,family,fantasy,fiction,juvenile,literature,picture-books,short-stories,young-adult"
15781501,,"Blood and Feathers (Blood and Feathers, #1)",,B008RLST9I,,,ES,2012/7/31,Solaris,en-GB,true,4,13033924,2419,1767,498,107,2012/7/31,Blood and Feathers,book,100,180,133,63,22,3.55,384,Kindle Edition,,30,5,Lou Morgan,,,,,,1729,17,22,"action,adult,angels,demons,fantasy,fiction,horror,mystery-thriller,mythology,paranormal,unfinished,urban-fantasy,young-adult"
15782001,0986653160,Sunset Val's Hat Trick,9780986653162,,,,ES,2012/7/1,Weird & Wondrous Books,eng,false,3,15782001,13,34,7,0,2012/7/1,Sunset Val's Hat Trick,book,6,1,0,0,0,4.86,234,Paperback,,6,0,Rob St.Martin,,,,,,1,0,,
15783001,,Joshua: His Life and Times,,,,,ES,1889/10/1,Fleming H. Revell,eng,false,7,15783001,2,5,2,0,1889/10/1,Joshua: His Life and Times,book,0,0,1,1,0,2.50,213,,,1,0,William John Deane,,,,,,,0,,"christian,non-fiction"
15783501,0749275731,"U210 The English Language: past, present and future - Study Guide 2",,,,,ES,1998/1/1,The Open University,eng,false,1,15783501,1,0,0,0,1997/1/1,,book,0,0,0,0,0,0.00,42,Paperback,,0,0,John Swann,,,,,,1,0,,
15784001,,Touch the top of the world,,,,,ES,,,eng,false,24,140053,2157,4553,1111,142,2001/2/1,Touch the Top of the World: A Blind Man's Journey to Climb Farther than the Eye Can See: My Story,book,435,407,222,37,10,4.10,,,,0,0,Erik Weihenmayer,,,,,,796,8,50,"adventure,autobiography,biography,biography-memoir,inspirational,memoir,nature,non-fiction,survival,travel"
15784501,,Persuasión,9788447361236,,,,ES,,RBA,spa,false,816,2156,702970,1918552,464108,15352,1817/12/1,Persuasion,book,204704,152197,80420,18197,8590,4.13,287,Hardcover,,2,1,Jane Austen,,,,,,268614,1882,12395,"adult,adult-fiction,british-literature,chick-lit,classic-literature,classics,drama,english-literature,fiction,historical,historical-fiction,literary-fiction,literature,love,novels,regency,romance,school"
15785001,,Infinity Children,9781615727186,,,,ES,2012/8/1,Eternal Press,,false,3,15869715,128,38,8,2,2012/8/1,,book,6,2,0,0,0,4.75,,,,2,0,Trevor E. Donaldson,,,,,,104,1,1,
15785501,0982167075,Fahim Speaks: A Warrior-Actor's Odyssey from Afghanistan to Hollywood and Back,9780982167076,,,,ES,2012/2/25,Warriors Publishing Group,en-US,false,9,15785501,80,169,38,12,2012/2/25,,book,22,11,5,0,0,4.45,218,Paperback,,32,10,"Fahim Fazli,Michael Moffett",,,,,,35,2,1,"biography,cultural,history,memoir,non-fiction,war"
15786001,9712707806,America's Boy: The Marcoses and the Philippines,,,,,ES,1998/1/1,"Anvil Publishing, Inc.",,false,7,867058,194,156,39,5,1998/1/1,America's Boy: A Century of Colonialism in the Philippines ,book,12,19,5,2,1,4.00,504,Paperback,,8,1,James Hamilton-Paterson,,,,,,128,0,14,"biography,economics,history,non-fiction,politics"
15786501,,Wise Follies,,B008O5KVOS,,,ES,2012/7/22,Accent Press,en-GB,true,10,15786501,139,197,60,8,2007/4/16,Wise Follies,,9,18,16,15,2,3.28,259,Kindle Edition,,31,5,Grace Wynne-Jones,,,,,,56,5,2,"chick-lit,christian,fiction,romance"
15787001,,"Star Station (NEBADOR, #6)",9781936253548,,,,ES,2012/8/1,Nebador Archives,eng,false,7,15787001,44,77,17,16,2012/8/1,,book,10,6,1,0,0,4.53,282,Paperback,Medium Print Edition,16,10,"J.Z. Colby,Karen Buchanan",,,,,,19,1,,"science,science-fiction,young-adult"
15787501,,Deus Irae,978802703083,,,,ES,2010/8/27,Argo,cze,false,57,22594,5204,9371,2723,147,1976/8/1,Deus Irae,book,414,872,1041,294,102,3.44,236,Paperback,,3,0,"Philip K. Dick,Roger Zelazny",,,,Filip Krajník,,1725,17,38,"adventure,christianity,criticism,dystopia,fantasy,fiction,horror,novels,philosophy,post-apocalyptic,psychology,religion,science,science-fiction,science-fiction-fantasy,speculative-fiction"
15788001,0316220167,Surviving High School,9780316220163,,,,ES,2012/9/4,Poppy,,true,6,13570724,1128,1562,384,64,2012/1/1,,book,160,119,80,21,4,4.07,224,ebook,,1,1,M. Doty,,,,,,604,12,30,"contemporary,death,drama,family,fiction,high-school,love-story,realistic-fiction,romance,sports,young-adult"
15788501,,Sunny side up!,9783522501323,,,,ES,2010/1/18,Planet Girl,ger,false,1,15788501,10,28,7,1,,,book,2,3,2,0,0,4.00,267,Paperback,,7,1,Cora Gofferjé,,,,,,1,0,,young-adult
15789001,0316216747,"Unconditional Surrender (Sword of Honour, #3)",9780316216746,,,,ES,2012/12/11,"Little, Brown and Company",,true,41,600834,1749,3501,868,66,1961/1/1,The End of the Battle,book,271,387,181,26,3,4.03,336,ebook,,1,0,Evelyn Waugh,,,,,,655,16,10,"british-literature,classic-literature,classics,european-literature,fiction,historical,historical-fiction,history,literary-fiction,literature,novels,war"
15789501,1619697246,Rich Dad Advisors: ABCs of Real Estate Investing: The Secrets of Finding Hidden Profits Most Investors Miss,9781619697249,,,,ES,2013/1/29,Hachette Original,,false,20,142109,9945,16621,4107,78,2004/9/1,Rich Dad's Advisors®: The ABC's of Real Estate Investing: The Secrets of Finding Hidden Profits Most Investors Miss (Rich Dad's Advisors),,1724,1246,829,222,86,4.05,,Audiobook,,0,0,Ken McElroy,,,,,,5112,18,342,"business,non-fiction,personal-development,reference,self-help"
15790001,9517680538,Diskurssianalyysi liikkeessä,,,,,ES,2006/1/1,Vastapaino,fin,false,1,15790001,18,33,10,1,2006/1/1,,book,2,2,4,1,1,3.30,281,Paperback,,10,1,"Arja Jokinen,Eero Suoninen,Kirsi Juhila",,,,,,3,1,,non-fiction
15790501,,Привіт зі Станиславова,,,,,ES,2012/1/1,,ukr,false,1,15790501,4,7,2,1,2012/1/1,,book,0,1,1,0,0,3.50,64,Paperback,,2,1,"Іван Бондарев,Олег Гречаник",,,,,,1,0,,
15791001,0892968850,Living in the Abundance of God,9780892968855,,,,ES,2013/5/14,FaithWords,,false,9,15791001,443,264,64,5,2013/1/1,,book,33,13,13,3,2,4.12,224,Hardcover,,52,4,John Osteen,,,,,,366,4,8,"christian,non-fiction,spirituality"
15791501,,الهجرة إلى الداخل,,,,,ES,,,ara,false,1,15791501,7,10,4,0,,,book,0,0,2,2,0,2.50,,,,4,0,أحمد سماحة,,,,,,2,0,,
15792001,0670066575,Not Quite the Classics,9780670066575,,,,ES,2013/10/22,Viking,,false,9,15792001,1419,1635,448,82,2012/11/6,,book,91,162,153,31,11,3.65,231,Hardcover,,353,63,Colin Mochrie,,,,,,813,13,69,"biography,christmas,comedy,crime,fantasy,fiction,funny,humor,memoir,mystery,non-fiction,poetry,short-stories,sports,zombies"
15792501,038536119X,The Knights' Tales Collection: Book 1: Sir Lancelot the Great; Book 2: Sir Givret the Short; Book 3: Sir Gawain the True; Book 4: Sir Balin the Ill-Fated,9780385361194,,,,ES,2013/2/12,Listening Library (Audio),,false,3,15792501,182,281,65,17,2013/2/12,,,33,21,10,1,0,4.32,5,Audio CD,,60,16,Gerald Morris,,,,,,92,8,2,"adventure,cultural,fantasy,historical-fiction,short-stories,teen"
15793001,1137286091,The Job Guarantee: Toward True Full Employment,9781137286093,,,,ES,2013/1/22,Palgrave Macmillan,,false,4,15792828,11,0,0,0,2012/1/22,,,0,0,0,0,0,0.00,198,Hardcover,,0,0,,,,"Mathew Forstater,Michael J. Murray",,,11,0,,economics
15793501,0374296820,Zibaldone,9780374296827,,,,ES,2013/7/16,"Farrar, Straus and Giroux",eng,false,31,18490595,1923,1069,242,19,1898/1/1,Zibaldone,book,139,72,27,1,3,4.42,2592,Hardcover,,21,4,Giacomo Leopardi,,,"Franco D'Intino,Michael Caesar",,,1423,12,78,"biography-memoir,classics,criticism,essays,fiction,history,literature,non-fiction,philosophy,poetry,reference"
15794001,0230232000,Men and Masculinities in Irish Cinema,9780230232006,,,,ES,2012/12/7,Palgrave Macmillan,,false,5,17767479,6,5,2,0,2012/1/1,,,0,1,0,0,1,2.50,264,Hardcover,,0,0,Debbie Ging,,,,,,3,0,,
15794501,0230293697,Cult Film Stardom: Offbeat Attractions and Processes of Cultification,9780230293694,,,,ES,2012/12/24,Palgrave Macmillan,,false,4,15794501,7,4,1,0,2012/1/1,,,0,1,0,0,0,4.00,304,Hardcover,,1,0,,,,"Kate Egan,Sarah Thomas",,,4,0,,
15795001,1466825197,Great Possessions: An Amish Farmer's Journal,9781466825192,,,,ES,1991/4/1,North Point Press,,true,5,85742,366,442,108,21,1985/1/1,Great Possessions : An Amish Farmer's Journal,book,40,45,17,5,1,4.09,272,ebook,,0,0,David  Kline,,,,,,211,5,9,"autobiography,essays,food,health,memoir,nature,non-fiction,philosophy,poetry,science"
15795501,0719086027,"Ireland, Africa and the End of Empire: Small State Identity in the Cold War 1955 - 75",9780719086021,,,,ES,2013/2/5,Manchester University Press,,false,2,15795501,5,0,0,0,2013/2/5,,,0,0,0,0,0,0.00,240,Hardcover,,0,0,Kevin O'Sullivan,,,,,,4,0,,
15796001,,زندگانی شاه عباس اول - جلد ۱,,,,,ES,,,per,false,1,15796001,32,29,7,3,,زندگانی شاه عباس اول - جلد ۱,book,4,1,1,1,0,4.14,328,,,7,3,نصرالله فلسفی,,,,,,21,1,2,
15796501,2952060207,Secrets et méthode d'un grand champion,9782952060202,,,,ES,,Ridercom Editions,fre,false,1,15796501,4,0,0,0,,,book,0,0,0,0,0,0.00,208,Paperback,,0,0,Michel Robert,,,,,,1,0,,
15797001,0385363036,"To Heaven and Back: A Doctor's Extraordinary Account of Her Death, Heaven, Angels, and Life Again: A True Story",9780385363037,,,,ES,2012/6/19,Random House Large Print,,false,26,13158130,15856,33816,8706,1039,2011/11/5,"To Heaven and Back: A Doctor's Extraordinary Account of Her Death, Heaven, Angels, and Life Again: A True Story",book,2892,2890,2152,568,204,3.88,276,Paperback,Large Print,13,1,Mary C. Neal,,,,,,1605,40,334,"adult,autobiography,biography,christian,christianity,death,faith,inspirational,medical,memoir,non-fiction,philosophy,religion,self-help,spirituality,theology"
15797501,0345803809,The Bachelor of Arts,9780345803801,,,,ES,2012/7/25,Vintage,,true,23,1007172,4588,9415,2473,144,1937/1/1,Bachelor of Arts ,book,566,1044,714,118,31,3.81,160,ebook,,41,1,R.K. Narayan,,,,,,1540,8,53,"classics,comedy,contemporary,drama,fiction,historical-fiction,humor,literature,novels"
15798001,1936975386,Sonic the Hedgehog Archives 20,9781936975389,,,,ES,2013/3/19,Archie Comics,eng,false,2,15798001,108,165,39,2,2013/3/19,,book,18,12,9,0,0,4.23,112,Paperback,,38,2,Ken Penders,,,,,,55,1,3,"comics,graphic-novels,manga,science-fiction"
15798501,0307826619,Hell's Angels: A Strange and Terrible Saga,9780307826619,,,,ES,2012/8/1,Ballantine Books,,true,74,10882,63117,148765,37236,1348,1966/1/1,Hell's Angels,book,11550,15852,8189,1395,250,4.00,288,ebook,,15,1,Hunter S. Thompson,,,,,,19355,46,1424,"adult,adult-fiction,adventure,american,american-history,americana,angels,autobiography,biography,biography-memoir,classics,contemporary,crime,criticism,dark,drama,fiction,historical,history,humor,language,literature,memoir,modern,non-fiction,novels,science,social,society,sociology,true-crime"
15799001,0771047959,True North,9780771047954,,,,ES,2016/3/22,McClelland & Stewart,,false,3,15799001,1,4,1,0,2012/1/1,,,0,1,0,0,0,4.00,304,Paperback,,0,0,Bernie Finkelstein,,,,,,,0,,
15799501,0747812640,Victorian Country Life,9780747812647,,,,ES,2012/9/18,Shire,,true,5,13331178,8,4,1,1,2012/1/1,,,0,1,0,0,0,4.00,56,ebook,,0,0,Janet Sacks,,,,,,5,2,,"history,non-fiction"
15800001,1442356952,Pimsleur Punjabi Level 1 Lessons  6-10: Learn to Speak and Understand Punjabi with Pimsleur Language Programs,9781442356955,,,,ES,2012/6/19,Pimsleur,,false,1,15800001,1,0,0,0,2012/6/19,,,0,0,0,0,0,0.00,,Audiobook,,0,0,Pimsleur Language Programs,,,,,,1,0,,
15800501,1421549298,"Vagabond, Vol. 11",9781421549293,,,,ES,2012/12/18,Viz Media,eng,false,1,15800501,249,601,133,6,2012/12/18,,book,83,39,8,3,0,4.52,632,Paperback,VIZBIG Edition,133,6,Takehiko Inoue,,,,,,77,13,,"action,adult,collections,comics,drama,fiction,graphic-novels,historical-fiction,manga,thriller"
15801001,1442355913,Purple Cane Road,9781442355910,,,,ES,2012/6/26,Simon  Schuster Audio,,false,32,44766,9677,26584,6404,273,2000/8/1,Purple Cane Road,book,2505,2627,1065,149,58,4.15,,Audiobook,,2,1,James Lee Burke,,,,,,1545,8,263,"adult,crime,death,detective,fiction,murder-mystery,mystery,mystery-thriller,suspense,thriller"
15801501,0373732104,One Winter's Night,9780373732104,,,,ES,2012/11/27,Harlequin,,false,15,15767502,1388,3493,801,67,2012/1/1,,book,448,227,99,21,6,4.36,192,Paperback,,27,6,Brenda Jackson,,,,,,348,13,40,"contemporary,fiction,harlequin,romance"
15802001,1416985700,Backyardigans Shaped Board Book w/flaps (V-dy themed),9781416985709,,,,ES,2014/6/30,Simon Spotlight/Nickelodeon,,false,1,15802001,1,0,0,0,2014/6/30,,,0,0,0,0,0,0.00,14,Board Book,,0,0,To Be Announced,,,,,,1,0,,
15802501,0689874324,Charlie and the Chocolate Factory,9780689874321,,,,ES,2014/6/30,Little Simon,,false,391,6310,784530,2344340,568700,10145,1964/1/1,Charlie and the Chocolate Factory,book,236395,200912,103885,19554,7954,4.12,16,Novelty Book,,0,0,Roald Dahl,,,,,,138577,1525,3769,"adventure,chapter-books,childrens,classics,comedy,family,fantasy,fiction,funny,humor,juvenile,literature,middle-grade,movies,novels,school,young-adult"
15803001,1416538410,Seeking the Cure: A History of Medicine in America,9781416538417,,,,ES,2012/9/15,Scribner,,false,4,7755582,211,179,52,4,2010/1/1,,,10,13,20,8,1,3.44,368,Paperback,,1,0,Ira Rutkow,,,,,,130,4,5,"history,non-fiction,science"
15803501,,The Charm Bracelet,,,,,ES,2012/1/1,,eng,true,2,15803501,17,5,3,1,2012/1/1,,book,0,0,0,2,1,1.67,,Kindle Edition,,3,1,Allen Gregory,,,,,,12,0,,
15804001,8533608187,A Formação Social da Mente,9788533608184,,,,ES,2003/1/1,Martins Fontes,por,false,17,146977,2682,3415,818,45,1978/1/1,Mind in Society: Development of Higher Psychological Processes,book,361,282,142,23,10,4.17,191,Paperback,6,2,0,Lev S. Vygotsky,,,,,,1535,10,76,"academic,classics,college,education,language,non-fiction,philosophy,psychology,reference,research,science,society,teaching"
15804501,,From the Heart,,B008258L10,,,ES,2012/6/7,Headline,en-US,true,2,15804501,938,1485,410,19,2003/1/1,,book,102,118,136,41,13,3.62,91,Kindle Edition,,408,19,Sheila O'Flanagan,,,,,,401,16,12,"amazon,chick-lit,romance,short-stories"
15805001,,"Acquired Traits (Dominant Species, #3)",,B008GHFP72,,,ES,2012/6/30,David Coy,eng,true,3,15805001,138,219,56,8,2005/4/1,Extinction,book,18,22,11,3,2,3.91,274,Kindle Edition,,53,7,David Coy,,,,,,68,3,3,"aliens,horror,science"
15805501,160981505X,"Come, Sit, Stay (Library Edition): An Invitation to Deeper Life in Christ",9781609815059,,,,ES,2012/7/3,Oasis Audio,,false,10,15807549,90,133,34,9,2012/7/1,,book,8,19,5,0,2,3.91,,Audio CD,,0,0,Ellen Vaughn,,,,,,3,1,7,"christianity,non-fiction"
15806001,,La société en jeu(x),9782130591603,,,,ES,2011/8/1,PUF,fre,false,1,15806001,1,0,0,0,2011/8/1,La société en jeu(x),book,0,0,0,0,0,0.00,200,Paperback,,0,0,Sylvie Craipeau,,,,,,,1,,non-fiction
15806501,8415241143,¡Qué fastidio ser princesa!,9788415241140,,,,ES,2012/8/10,Cuento de Luz,,false,8,13592611,46,78,23,5,2012/1/1,,,4,3,14,2,0,3.39,28,Hardcover,,8,2,Carmen Gil,,,,,,18,1,,"fiction,juvenile,picture-books"
15807001,,God’s Plan After Salvation: A Basic Study of the Christian Way of Life,9781935222019,,,,ES,1997/1/1,Jericho Press,eng,false,1,15807001,7,10,2,1,1997/1/1,,book,2,0,0,0,0,5.00,49,Paperback,,2,1,Moses C. Onwubiko,,,,,,5,0,,
15807501,1609815645,Caboose Mystery,9781609815646,,,,ES,2012/8/14,Oasis Audio,,false,18,823355,4496,9818,2549,44,1966/1/1,"Caboose Mystery (The Boxcar Children, #11)",book,794,791,778,164,22,3.85,,Audio CD,,0,0,Gertrude Chandler Warner,,,,,,634,32,26,"adventure,chapter-books,childrens,classics,family,fiction,juvenile,middle-grade,mystery,novels,realistic-fiction,young-adult"
15808001,1453265775,"Out of My Later Years: The Scientist, Philosopher, and Man Portrayed Through His Own Words",9781453265772,,,,ES,2011/9/27,Philosophical Library/Open Road,eng,true,37,231609,3816,3040,763,51,1950/1/1,"Out of My Later Years: The Scientist, Philosopher, and Man Portrayed Through His Own Words",book,291,242,173,41,16,3.98,282,ebook,,0,0,Albert Einstein,,,,,,2456,15,260,"autobiography,biography,classics,essays,history,memoir,non-fiction,philosophy,politics,reference,science,spirituality,technology"
15808501,0452298970,The Book of Jonas,9780452298972,,,,ES,2013/2/26,Plume,eng,false,12,12528627,4688,5788,1599,378,2012/3/1,,book,305,607,498,152,37,3.62,272,Paperback,,63,43,Stephen Dau,,,,,,2763,27,42,"action,adult,adult-fiction,adventure,american,drama,family,fiction,historical,historical-fiction,literary-fiction,literature,novels,realistic-fiction,relationships,sports,war,young-adult"
15809001,1741660866,"The Striker (Jasper Zammit: Soccer Legend, #2)",9781741660869,,,,ES,2005/10/1,Penguin Random House Australia,,false,3,7362851,19,30,8,2,2005/1/1,,book,3,2,2,0,1,3.75,198,Paperback,,0,0,Deborah Abela,,,,,,4,1,,middle-grade
15809501,,Low Carb Diet Made Easy Cookbook,9781623150129,,,,ES,2011/12/12,Rockridge University Press,eng,true,1,15809501,1,0,0,0,2011/12/12,The Low Carb Diet Made Easy: The Cookbook,book,0,0,0,0,0,0.00,51,ebook,,0,0,John Chatham,,,,,,,0,,
15810001,1452638683,"Lunch in Paris: A Love Story, with Recipes",9781452638683,,,,ES,2012/7/30,Tantor Media,,false,39,6422680,41648,52219,14219,1507,2010/12/21,"Lunch in Paris: A Love Story, with Recipes",book,3184,5083,4426,1163,363,3.67,,Audio CD,,7,2,Elizabeth Bard,,,,,Ann Marie Lee,2126,83,271,"adult,autobiography,biography,biography-memoir,chick-lit,contemporary,cookbooks,cooking,family,fiction,food,france,humor,love,memoir,non-fiction,novels,romance,travel"
15810501,,Ottoline läheb kooli,9789949919246,,,,ES,2012/1/1,Draakon & Kuu,est,false,28,2852879,2164,5592,1361,131,2008/1/1,Ottoline Goes to School,book,548,487,266,46,14,4.11,170,Hardcover,,10,0,Chris Riddell,,,,Leelo Märjamaa,,489,15,15,"adventure,animals,chapter-books,childrens,fantasy,fiction,funny,graphic-novels,humor,juvenile,middle-grade,mystery,novels,supernatural,young-adult"
15811001,1849734046,Nanofluidics,9781849734042,,,,ES,2013/12/31,Royal Society of Chemistry,,false,2,11091105,0,0,0,0,2008/12/3,,book,0,0,0,0,0,0.00,270,Hardcover,Second Edition,0,0,,,Joshua Edel,"Andrew J. deMello,Paul O'Brien,Ralph Nuzzo,The Royal Society of Chemistry",,,,0,,
15811501,1594204373,The Myths of Happiness,9781594204371,,,,ES,2013/1/3,The Penguin Press HC,,false,14,15811501,8978,4895,1346,157,2012/1/1,"The Myths of Happiness: What Should Make You Happy, but Doesn't, What Shouldn't Make You Happy, but Does",book,317,447,409,122,51,3.64,320,Hardcover,,1207,144,Sonja Lyubomirsky,,,,,,1006,40,86,"academic,family,health,marriage,non-fiction,personal-development,philosophy,psychology,science,self-help,sociology,spirituality"
15812001,0735664021,Windows 8 Step by Step,9780735664029,,,,ES,2012/10/3,Microsoft Press,,false,6,15812001,198,84,23,3,2012/9/22,,book,8,3,9,2,1,3.65,778,Paperback,,23,3,"Ciprian Adrian Rusen,Joli Ballew",,,,,,144,0,4,"business,non-fiction,technology"
15812501,1592124909,Fortune of Fear: Mission Earth Volume 5,9781592124909,,,,ES,2003/6/15,Galaxy Audio,,false,28,996394,2396,5516,1615,24,1986/1/1,Fortune of Fear,book,342,425,519,220,109,3.42,,Audio,,1,0,L. Ron Hubbard,,,,,,339,13,12,"aliens,american,epic,fantasy,fiction,humor,science,science-fiction,science-fiction-fantasy"
15813001,,Baby's in black. Historia Astrid Kirchherr i Stuarta Sutcliffe'a,9788360915615,,,,ES,2012/1/1,Kultura Gniewu,pol,false,12,12510887,3683,6911,1842,277,2010/10/1,Baby's in Black - The Story of Astrid Kirchherr & Stuart Sutcliffe,book,448,677,555,136,26,3.75,214,,,5,0,Arne Bellstorf,,,,,,1596,31,26,"adult,art,biography,biography-memoir,comics,death,fiction,graphic-novels,graphic-novels-comics,historical,historical-fiction,history,love,memoir,music,non-fiction,relationships,romance,teen,young-adult"
15813501,,Lord Edgware Dies,,,,,ES,1996/1/1,Bantam Books,eng,false,237,215492,41352,92961,23845,1234,1933/1/1,Lord Edgware Dies,book,6098,10221,6634,793,99,3.90,214,Leatherette Bound,The Agatha Christie Collection,1,0,Agatha Christie,,,,,,9720,132,466,"adult,adult-fiction,british-literature,classics,cozy-mystery,crime,detective,fiction,historical,historical-fiction,literature,murder-mystery,mystery,mystery-thriller,novels,suspense,thriller"
15814001,1600858465,Wiring Complete,9781600858468,,,,ES,2013/4/30,Taunton Press,,false,4,15814001,82,99,23,3,2008/9/2,,book,11,9,2,1,0,4.30,272,Paperback,,13,1,"Michael McAlister,Michael W. Litchfield",,,,,,35,4,1,"non-fiction,reference"
15814501,0547928289,New and Selected Poems: 1962-2012,9780547928289,,,,ES,2013/3/26,Houghton Mifflin Harcourt,eng,false,4,15814501,541,733,170,25,2013/3/26,,book,85,59,21,4,1,4.31,384,Hardcover,,157,25,Charles Simic,,,,,,298,14,33,"literature,poetry"
15815001,0985861118,What To Do Before Your Book Launch,9780985861117,,,,ES,2012/7/9,Argo-Navis,,false,6,15815001,207,377,83,17,2012/7/9,,book,57,17,7,1,1,4.54,100,Paperback,,59,13,"M.J. Rose,Randy Susan Meyers",,,,,,78,0,4,"non-fiction,writing"
15816001,,Jadranski otoci Jugoslavije,,,,,ES,1983/1/1,NIO Poslovna politika,scr,false,1,15816001,1,0,0,0,1983/1/1,Jadranski otoci Jugoslavije,book,0,0,0,0,0,0.00,332,Hardcover,,0,0,,,,Toma Dragosavac,,,,0,,
15816501,1610455622,Lead Like Butler: Six Principles for Values-Based Leaders,9781610455626,,,,ES,2013/2/1,christianaudio,,false,3,19032917,20,54,13,1,2012/11/1,,,5,5,3,0,0,4.15,,Audio CD,,0,0,"Judith Cebula,M. Kent Millard",,,,,,5,0,2,
15817001,1453285059,"Chicken Soup for the Beach Lover's Soul: Memories Made Beside a Bonfire, on the Boardwalk, and with Family and Friends",9781453285053,,,,ES,2012/8/7,Chicken Soup for the Soul,eng,true,10,801182,187,209,50,9,2007/5/1,"Chicken Soup for the Beach Lover's Soul: Memories Made Beside a Bonfire, on the Boardwalk, and with Family and Friends in the Summer Sun",book,22,16,11,1,0,4.18,384,ebook,,0,0,"Jack Canfield,Lisa Ricard Claro,Mark Victor Hansen,Patty Aubery,Peter Vegso",,,,,,107,4,2,"anthologies,inspirational,non-fiction"
15817501,,The Pale Horse,,,,,ES,1986/5/1,Bantam Books,eng,false,142,95382,20477,43130,11462,704,1961/1/1,The Pale Horse,book,2766,4205,3620,749,122,3.76,214,Leatherette Bound,,5,1,Agatha Christie,,,,,,5169,53,234,"adult,adult-fiction,british-literature,classics,cozy-mystery,crime,detective,fiction,historical-fiction,murder-mystery,mystery,mystery-thriller,novels,romance,suspense,thriller"
15818001,,Sweet Dreams,,B004ZUIRTM,,,ES,2011/5/7,,en-GB,true,2,12061578,28,45,12,1,2011/5/7,,book,3,5,2,2,0,3.75,85,Kindle Edition,,7,0,Fred      Anderson,,,,,,9,2,2,thriller
15818501,,Рассказы о детях,,,,,ES,,,,false,1,15818501,1,5,1,0,,,book,1,0,0,0,0,5.00,,,,1,0,Константин Ушинский,,,,,,,0,,
15819001,,The Picture of Dorian Gray,,,,,ES,,,eng,true,3354,5297,1411629,3280395,806328,24151,1890/6/20,The Picture of Dorian Gray,book,313806,293817,150657,36078,11970,4.07,,Kindle Edition,,10,1,Oscar Wilde,,,,,,459397,3140,45517,"adult,adult-fiction,british-literature,classic-literature,classics,drama,english-literature,fantasy,fiction,gothic,high-school,historical,historical-fiction,horror,lgbt,literary-fiction,literature,magical-realism,mystery,novels,paranormal,philosophy,queer,school,supernatural,unfinished,victorian"
15819501,0062190113,"Circle of Heroes (The Familiars, #3)",9780062190116,,,,ES,2012/9/4,HarperCollins,,true,13,13623856,3610,8144,1860,109,2012/9/4,Circle of Heroes,book,1054,532,216,40,18,4.38,336,ebook,,3,2,"Adam Jay Epstein,Andrew Jacobson",Greg Call,,,,,109,25,68,"action,adventure,animals,childrens,fantasy,fiction,high-fantasy,juvenile,magic,middle-grade,young-adult,zombies"
15820001,0062218913,The Pearl Diver,9780062218919,,,,ES,2012/5/1,Harper Perennial,,true,2,412243,1603,3767,1042,59,2004/8/1,The Pearl Diver: A Novel,book,171,400,385,71,15,3.62,352,ebook,,6,0,Sujata Massey,,,,,,264,7,20,"contemporary,cozy-mystery,crime,detective,fiction,historical-fiction,mystery,mystery-thriller,realistic-fiction,romance"
15820501,0062237705,What We Talk About When We Talk About God,9780062237705,,,,ES,2013/3/12,HarperAudio,,false,17,15769209,12935,21620,5523,651,2012/1/1,,book,1825,2082,1132,287,197,3.91,4,Audiobook,,8,3,Rob Bell,,,,,,5992,57,489,"adult,christian,christianity,contemporary,faith,inspirational,non-fiction,philosophy,religion,self-help,spirituality,theology"
15821001,1443413933,A Tale of Two Cities,9781443413930,,,,ES,2012/2/21,HarperPerennial Classics,,true,2696,1953,1327372,2828559,738760,15145,1859/11/1,A Tale of Two Cities,book,248352,236233,164299,59094,30782,3.83,430,ebook,,0,0,Charles Dickens,,,,,,475274,2049,40722,"adult,adult-fiction,british-literature,classic-literature,classics,drama,english-literature,fiction,france,high-school,historical,historical-fiction,history,literary-fiction,literature,novels,romance,school,unfinished,victorian,war"
15821501,954384547,Aristomenes of Messene: Legends of Sparta's Nemesis,,,,,ES,2004/12/1,The Classical Press of Wales,eng,false,2,752135,11,9,2,1,2004/12/1,Aristomenes of Messene: Legends of Sparta's Nemesis,book,1,1,0,0,0,4.50,244,Hardcover,,1,0,Daniel Ogden,,,,,,7,0,,
15822001,,Ίριδα: Η πόλη της ψυχής μας,9789601638812,,,,ES,2012/5/1,Πατάκης,gre,false,1,15822001,163,286,65,16,2012/1/1,Ίριδα: Η πόλη της ψυχής μας,book,42,10,11,1,1,4.40,801,Paperback,,65,16,Σουζάνα Χατζηνικολάου,,,,,,92,3,2,"european-literature,fantasy,romance"
15822501,9781477429,Are You Ready To Receive The Love You Desire,,,,,ES,2012/8/2,CreateSpace,eng,false,4,15822501,11,13,4,2,2012/8/1,,book,1,1,0,2,0,3.25,204,Paperback,,4,2,Shearon D. Hurst,,,,,,7,2,,
15823001,,"Pesadillas (Edición Monstruo, #3)",,,,,ES,,Ediciones B,spa,false,2,125648,292,292,73,1,1997/9/1,"Goosebumps Monster Edition #3: The Ghost Next Door, Ghost Beach, The Barking Ghost",book,34,13,19,6,1,4.00,141,Hardcover,,1,0,R.L. Stine,,,,,,173,5,3,"childrens,fantasy,horror,manga,philosophy,short-stories,young-adult"
15823501,,"The Hunt Begins (Big Game Hunting, #1)",,B008S22Z8W,,,ES,2012/8/1,Jane's House Publishing,eng,true,1,15823501,10,14,3,0,2012/8/1,,book,2,1,0,0,0,4.67,17,Kindle Edition,,3,0,Jane      Shaw,,,,,,5,0,1,"bdsm,erotica"
15824001,145265994X,Savage Continent: Europe in the Aftermath of World War II,9781452659947,,,,ES,2012/9/24,Tantor Media,,false,36,13167112,7676,11620,2786,405,2012/1/1,Savage Continent: Europe in the Aftermath of World War II,book,1124,1152,400,82,28,4.17,,Audio CD,,6,3,Keith Lowe,,,,,John Lee,4126,30,351,"amazon,historical,history,non-fiction,politics,research,unfinished,war"
15824501,,Me sotilaiden lapset,9789512079674,,,,ES,2009/12/31,Gummerus,fin,false,1,15824501,12,17,5,1,2009/12/31,,book,1,0,4,0,0,3.40,219,Hardcover,2nd print,5,1,Irja Wendisch,,,,,,1,1,,"adult,history,non-fiction,war"
15825001,0245561781,The Georgian Century 1714-1837,9780245561788,,,,ES,1966/1/1,George G. Harrap,eng,false,1,15825001,5,0,0,0,1966/1/1,,book,0,0,0,0,0,0.00,520,Hardcover,First Edition,0,0,S. E. Ayling,,,,,,4,1,,
15825501,,مقالات فلسفی,9645600227,,,,ES,,,,false,2,15825503,14,18,5,1,,,book,0,3,2,0,0,3.60,328,Paperback,,1,0,مرتضی مطهری/ Morteza Motahhari,,,,,,8,0,,
15826001,1623610400,Chicken Soup for the Mother and Son Soul: Stories to Celebrate the Lifelong Bond,9781623610401,,,,ES,2012/10/2,"Backlist, LLC - a unit of Chicken Soup of the Soul Publishing LLC",,false,11,129110,375,454,108,5,2006/4/4,Chicken Soup for the Mother and Son Soul: Stories to Celebrate the Lifelong Bond (Chicken Soup for the Soul),book,58,26,16,4,4,4.20,400,Paperback,,1,0,"Jack Canfield,Mark Victor Hansen",,,,,,212,3,14,"christian,collections,essays,non-fiction,parenting,self-help,sociology,spirituality"
15826501,9789583508,La Negociación: Teoría y Práctica,,,,,ES,,,spa,false,1,15826501,4,4,1,1,,,book,0,1,0,0,0,4.00,,,,1,1,Juan Esguerra,,,,,,1,0,,
15827001,8493306282,¿Cómo se puede ser pagano?,,,,,ES,2004/1/1,Ediciones Nueva República,spa,false,6,1462501,371,379,97,9,1981/3/1,Comment peut-on être païen? ,book,33,39,14,5,6,3.91,332,Paperback,Traducción de Jordi Garriga y José Luis Campos,0,0,Alain de Benoist,,,,,,238,5,10,"european-literature,history,mythology,philosophy,politics,religion,spirituality"
15827501,1574571273,"Rifter, Volume 39: Super Summer Swimsuit Issue",9781574571271,,,,ES,2007/7/1,Palladium Books,,false,1,15827501,7,10,2,0,2007/7/1,,book,2,0,0,0,0,5.00,96,,,2,0,Kevin Siembieda,,,,,,3,0,,
15828001,,"The Banshee's Embrace (The Banshee's Embrace Trilogy, #1)",,B008VT0ITA,,,ES,2012/8/9,,en-GB,true,2,15828001,1226,1180,335,53,2012/8/9,The Banshee's Embrace,book,78,97,102,38,20,3.52,117,Kindle Edition,,333,51,Victoria Richards,,,,,,778,11,32,"adult,amazon,fantasy,fiction,horror,magic,novella,paranormal,romance,urban-fantasy"
15828501,070910152x,The Sharp Edge,9780709101529,,,,ES,1968/1/1,Robert Hale,eng,false,1,15828501,0,0,0,0,1968/1/1,,book,0,0,0,0,0,0.00,,Hardcover,,0,0,Wade Wright,,,,,,,0,,
15829001,,Doña Berta / ¡Adiós Cordera!,9788403602687,,,,ES,1995/1/1,Editorial Aguilar,spa,false,1,15829001,4,11,3,0,1892/1/1,Doña Berta / ¡Adiós Cordera!,book,1,0,2,0,0,3.67,78,Paperback,,3,0,Leopoldo Alas,,,,,,,0,,
15829501,,As Sequence,,,,,ES,2012/5/1,these signals press,,false,1,15829501,0,0,0,0,2012/5/1,As Sequence,book,0,0,0,0,0,0.00,16,,,0,0,David James Miller,,,,,,,0,,
15830001,,Psychic Readings With The Thinkers Of Heaven,9780988181205,,,,ES,2012/8/13,,eng,true,2,15830001,29,52,13,4,2012/8/12,,book,7,2,2,1,1,4.00,,ebook,,6,2,"John McGinnis,Martha McGinnis",,,,,,13,1,1,
15830501,,The Pilgrimage of Faith in the World of Modern Thought: Stephanos Nirmalendu Ghosh Lectures,,,,,ES,1931/1/1,University of Calcutta,eng,false,1,15830501,0,0,0,0,1931/1/1,The Pilgrimage of Faith in the World of Modern Thought: Stephanos Nirmalendu Ghosh Lectures,book,0,0,0,0,0,0.00,299,Hardcover,,0,0,Douglas Clyde MacIntosh,,,,,,,0,,
15831001,,Gli invasori,,,,,ES,1997/8/1,Mondadori,ita,false,5,7013545,47,52,17,2,1934/1/1,The Strange Invaders,book,2,3,7,4,1,3.06,234,Mass Market Paperback,Classici Urania #245,2,1,Alun Llewellyn,,,,Riccardo Valla,,5,1,,"adventure,fiction,post-apocalyptic,science,science-fiction"
15831501,1478376864,Ghost Lover,9781476169132,,,,ES,2012/8/6,CreateSpace,eng,false,7,15831501,245,16,4,2,2012/5/8,,book,2,1,0,1,0,4.00,224,Paperback,,4,2,Stephanie Payne Hurt,,,,,,235,1,,"fiction,love-story,romance,suspense"
15832001,9728651325,O Que Fazem Mulheres,9789728651329,,,,ES,2005/11/1,Edições Caixotim,por,false,12,9808854,197,353,93,15,1983/1/1,O Que Fazem Mulheres,book,17,42,32,2,0,3.80,208,Hardcover,,2,1,Camilo Castelo Branco,,,,,,66,3,3,"classics,novels,romance"
15832501,938040929X,Good Teacher,9789380409290,,,,ES,2010/1/7,Emesco,eng,false,2,15832501,79,52,14,1,2005/1/6,గుడ్‌ టీచర్‌,book,4,5,2,3,0,3.71,192,Paperback,,14,1,B.V. Pattabhi Ram,,,,,,49,0,7,
15833001,1477472983,"Tree & Sky: The Secrets of Meshyah's World (The Secrets of Meshyah's World, #1-3)",9781477472989,,,,ES,2012/8/15,CreateSpace Independent Publishing Platform,eng,false,2,15833001,58,38,9,5,2012/8/15,TREE & SKY: The Secrets of Meshyah's World,book,5,3,0,0,1,4.22,78,Mass Market Paperback,,9,5,Judith-Victoria Douglas,,,,,,35,2,,
15833501,1926958195,Capital in Manga,9781926958194,,,,ES,2012/1/1,Red Quill Books,eng,false,11,15833501,470,1001,267,36,2008/12/1,,book,72,95,70,21,9,3.75,369,Paperback,,85,9,Unknown,,,,,,50,2,1,"comics,economics,fiction,graphic-novels,manga,philosophy,sociology"
15834001,8817258164,Storia delle crociate. Due volumi - 100 tavole di Gustave Dorè,9788817258166,,,,ES,1999/2/24,Bur Biblioteca Universale Rizzoli,ita,false,1,15834001,7,0,0,0,1999/2/24,,book,0,0,0,0,0,0.00,758,Paperback,,0,0,Joseph-François Michaud,,,,,,1,0,,
15834501,0330518496,Saving Faith,9780330518499,,,,ES,2003/1/1,Pan MacMillan,en-GB,false,4,15157,32056,70169,18175,744,1999/11/28,Saving Faith,book,4744,7442,4905,882,202,3.86,453,Mass Market Paperback,,10,1,David Baldacci,,,,,,5071,27,2283,"action,adult,adult-fiction,adventure,american,contemporary,crime,detective,fiction,mystery,mystery-thriller,novels,politics,romance,suspense,thriller,unfinished"
15835001,3455403859,Falsch,9783455403855,,,,ES,2012/8/17, Hoffmann und Campe,ger,false,2,15835001,47,97,25,6,2012/8/17,,book,8,11,3,1,2,3.88,673,Hardcover,,25,6,Gerd Schilddorfer,,,,,,16,0,1,"adventure,crime,history,thriller"
15835501,,Hidan No Aria 8,,,,,ES,,,,false,1,15835501,36,69,15,0,,,book,9,6,0,0,0,4.60,,,,15,0,Yoshino Koyoka,,,,,,14,0,,manga
15836001,,The Tool That Tells The Story: New Narratives and Metalives in the Age of Connected Devices [Kindle Edition],,B008RCZL98,,,ES,2012/7/30,Metalife Press,eng,true,1,15836001,2,5,1,1,2012/7/30,,book,1,0,0,0,0,5.00,135,Kindle Edition,,1,1,Barry Chadukov,,,,,,,0,1,"non-fiction,technology"
15836501,9100119156,Fjärilen i glaskupan,9789100119157,,,,ES,2008/1/1,Albert Bonniers förlag,swe,false,93,193755,112224,207443,51721,4158,1997/1/1,Le Scaphandre et le Papillon,book,18114,19778,10757,2418,654,4.01,138,Paperback,,54,1,Jean-Dominique Bauby,,,,,,52497,192,927,"adult,autobiography,biography,biography-memoir,classics,contemporary,drama,fiction,france,health,inspirational,literature,medical,memoir,movies,non-fiction,novels,philosophy,psychology,school,science"
15837001,8807830019,Diario del Che in Bolivia,9788807830013,,,,ES,2005/1/1,Feltrinelli,ita,false,81,234538,4779,7248,1952,109,1968/1/1,Diario del Che en Bolivia,book,462,687,619,149,35,3.71,242,Paperback,,31,4,Ernesto Che Guevara,,,,,,2052,3,95,"autobiography,biography,biography-memoir,history,literature,memoir,non-fiction,philosophy,politics,reference,travel,war"
15838001,,Cool Customer,B007FRY142,,,,ES,2012/3/1,Amazon Kindle,eng,true,2,19054019,15,12,4,2,2012/2/29,,book,0,1,2,1,0,3.00,161,Kindle Edition,,3,1,Deborah Fenwick,,,,,,9,0,,romance
15838501,0740808974,"Cuckoo's Egg (Age of Exploration, #3)",9780740808975,,,,ES,2002/1/1,DAW,eng,true,1,18155,2439,6135,1555,73,1985/1/1,Cuckoo's Egg,book,481,596,399,70,9,3.95,320,ebook,,2,1,C.J. Cherryh,,,,,,523,4,5,"aliens,fantasy,fiction,novels,science,science-fiction,science-fiction-fantasy,speculative-fiction"
15839001,,"The Broken Pieces (The Paladins, #4)",,B008ZUWMQC,,,ES,2012/8/19,Eschaton Press,eng,true,4,15872091,1420,3550,840,26,2012/8/19,,book,367,315,140,17,1,4.23,273,Kindle Edition,,339,6,David Dalglish,,,,,,401,14,24,"epic-fantasy,fantasy,fiction,horror,magic,science-fiction-fantasy,speculative-fiction,war,zombies"
15839501,9500701936,Primera Línea,,,,,ES,1983/1/1,Sudamericana,spa,false,1,15839501,2,0,0,0,1983/1/1,,book,0,0,0,0,0,0.00,172,Paperback,,0,0,Carlos Gardini,,,,,,2,0,,
15840001,,"The Incredible Hulk: Silent Screams (The Ultimate Graphic Novels Collection: Publication Order, #8)",,,,,ES,2012/1/1,Hachette Partworks Ltd.,eng,false,9,13590139,517,1068,283,23,,Hulk: Silent Scream,book,66,116,78,17,6,3.77,200,Hardcover,,39,2,Peter David,,,,,,192,4,4,"collections,comics,fiction,graphic-novels,marvel,superheroes"
15840501,,A Good Minion Is Hard To Find,9781452482521,,,,ES,2012/8/24,Lindsay Weigel,eng,true,2,15840501,13,33,7,2,2012/8/23,,book,5,2,0,0,0,4.71,107,ebook,,7,2,Lindsay Weigel,,,,,,6,0,,
15841001,,João Vêncio: Os Seus Amores,9789722116282,,,,ES,2004/1/1,Caminho,por,false,2,1945497,47,56,14,4,1991/3/1,João Vêncio: Os Seus Amores,book,5,6,1,2,0,4.00,96,Paperback,,3,0,José Luandino Vieira,,,,,,29,1,1,"fiction,novella,novels"
15841501,5834601316,Pilote de Guerre; Vol de Nuit,,,,,ES,2001/1/1,Менеджер,fre,false,3,15841501,277,413,117,9,2014/10/1,Vol de Nuit/ Pilote de Guerre,book,22,44,33,10,8,3.53,253,Paperback,,89,3,Antoine de Saint-Exupéry,,,,,,84,0,10,"classics,fiction"
15842001,0307979660,Doug Unplugged,9780307979667,,,,ES,2013/2/12,Knopf Books for Young Readers,,true,8,14823951,1679,3797,1024,220,2013/1/1,,,217,394,326,71,16,3.71,40,ebook,,2,1,Dan Yaccarino,,,,,,423,27,6,"adventure,childrens,family,fantasy,fiction,juvenile,nature,picture-books,science-fiction,technology"
15843001,1453275851,Chicken Soup for the Mother and Son Soul: Stories to Celebrate the Lifelong Bond,9781453275856,,,,ES,2012/8/21,Chicken Soup for the Soul,,true,11,129110,375,454,108,5,2006/4/4,Chicken Soup for the Mother and Son Soul: Stories to Celebrate the Lifelong Bond (Chicken Soup for the Soul),book,58,26,16,4,4,4.20,384,ebook,,0,0,"Barbara LoMonaco,Jack Canfield,LeAnn Thieman,Mark Victor Hansen",,,,,,212,3,14,"christian,collections,essays,non-fiction,parenting,self-help,sociology,spirituality"
15843501,1610455290,Compelling Interest: The Real Story behind Roe v. Wade,9781610455299,,,,ES,2012/11/21,christianaudio,,false,6,15843503,214,412,99,26,2012/11/1,,book,40,42,12,3,2,4.16,375,Audiobook,,11,1,Roger Resler,,,,,,85,15,8,"american,christian,historical,history,non-fiction,politics,reference,sociology"
15844001,0642976155,ABC Radio's Q & A Collection - Volume Two,,,,,ES,1984/1/1,Australian Broadcating Corporation,eng,false,1,15844001,0,0,0,0,1984/1/1,,book,0,0,0,0,0,0.00,160,Paperback,,0,0,,,,,,,,0,,
15844501,,Dağıstan Aslanı,,,,,ES,,,tur,false,1,15844501,4,16,4,0,,,book,1,2,1,0,0,4.00,,,,4,0,Ahmet Yılmaz Boyunağa,,,,,,,0,,
15845001,9620424786,民主與民本：洛克與黃宗義的政治及宗教思想,,,,,ES,2005/6/1,"Joint Publishing (H.K.) Co., Ltd.",zho,false,1,15845001,1,5,1,0,2005/6/1,,book,1,0,0,0,0,5.00,216,Paperback,,1,0,Jason Yeung,,,,,,,0,,
15845501,,A Piece of Love in Korea,9786028277594,,,,ES,2012/7/1,Indiva Media Kreasi ,ind,false,1,15845501,77,72,24,6,2012/7/1,,book,3,3,11,5,2,3.00,288,Paperback,,24,6,Deasylawati P.,,,,,,41,0,4,
15846001,,Texte und Zeichen. Eine literarische Zeitschrift. #13,,,,,ES,1957/1/1,Hermann Luchterhand Verlag,,false,1,15846001,1,0,0,0,1957/1/1,,book,0,0,0,0,0,0.00,110,Paperback,,0,0,,,,Alfred Andersch,,,,0,,
15846501,,Maybe I'll Pitch Forever: A Great Baseball Player Tells the Hilarious Story behind the Legend,9781441712127,,,,ES,2009/1/1,Tantor Media,,false,11,1556867,368,693,171,21,1993/1/1,Maybe I'll Pitch Forever,book,53,80,32,6,0,4.05,,Audiobook,,0,0,"David Lipman,Leroy Satchel Paige",,,,,,161,4,2,"autobiography,biography,biography-memoir,history,memoir,non-fiction,sports"
15847001,,Nicht ganz schlechte Menschen,9783832196820,,,,ES,2012/8/1,Dumont,ger,false,3,15847001,41,74,21,1,2012/8/1,Nicht ganz schlechte Menschen,book,6,4,7,3,1,3.52,600,Hardcover,Erstausgabe,20,1,Helmut Krausser,,,,,,14,1,2,
15847501,,"Cum For Bigfoot 11, Lena's Story",,B0091XF4CQ,,,ES,2012/8/23,I Love Stacy,en-US,true,2,15847501,90,97,27,0,2012/8/23,,book,7,9,5,5,1,3.59,,ebook,,27,0,Virginia Wade,,,,,,45,2,,"erotica,fantasy,menage,paranormal"
15848001,,Wenn Zärtlichkeit dein Herz berührt (Timeswept #3),,,,,ES,,Bastei Lübbe,ger,true,3,1851726,177,273,67,6,1997/12/1,Dangerous Waters,book,25,27,12,1,2,4.07,,ebook,,1,0,Amy J. Fetzer,,,,,,39,13,,"fiction,historical,love-story,paranormal,romance,time-travel"
15848501,,The Cover-Up,,,,,ES,2012/10/14,Createspace,eng,true,4,15848501,339,667,155,28,2012/10/1,The Cover-Up,book,80,47,24,3,1,4.30,312,ebook,,33,14,Dana Griffin,,,,,,98,4,36,"contemporary,crime,fiction,mystery,suspense,thriller"
15849501,1616952652,Murder in the Marais,9781616952655,,,,ES,2013/2/5,Soho Crime,,false,23,71467,10499,18649,5524,852,1999/1/1,Murder in the Marais,book,645,1867,2145,654,213,3.38,,Paperback,,0,0,Cara Black,,,,,,3451,39,319,"adult,adult-fiction,crime,detective,fiction,france,historical,historical-fiction,history,international,murder-mystery,mystery,mystery-thriller,suspense,thriller,travel,unfinished,war"
15850001,,"First Kill (Assassin Chronicles, #1)",,,,,ES,2012/8/25,,eng,true,1,15850001,5,10,2,1,2012/8/25,,book,2,0,0,0,0,5.00,,Kindle Edition,1st,2,1,James A. Bannon,,,,,,2,0,,
15850501,3551753075,"Black Butler, Band 5",9783551753076,,,,ES,2011/1/1,Carlsen Manga,ger,false,16,7663586,13656,40515,9022,191,2008/9/18,黒執事 V [Kuroshitsuji V],book,5723,2205,929,128,37,4.49,178,Paperback,,55,3,Yana Toboso,,,,Claudia Peter,,3031,106,53,"action,adventure,comedy,comics,dark,demons,fantasy,fiction,gothic,graphic-novels,historical,historical-fiction,horror,humor,magic,manga,mystery,paranormal,steampunk,supernatural,teen,urban-fantasy,victorian,young-adult"
15851001,,Vagabond Scholar,,,,,ES,1962/1/1,Bridgehead Books,,false,1,15851001,3,8,2,0,1962/1/1,,book,1,0,1,0,0,4.00,191,Hardcover,,2,0,Bruno Lind,,,,,,,0,,
15851501,,Igauņu zelta noveles,,,,,ES,2009/1/1,Lauku Avīze,--,false,1,15851501,2,0,0,0,2009/1/1,,book,0,0,0,0,0,0.00,320,Paperback,,0,0,Vītola Līvija (sastādītāja),,,,,,1,0,,
15852001,1612354653,Thrush,9781612354651,,,,ES,2012/2/27,Melange Book,eng,false,2,15852001,3,0,0,0,2012/2/27,,book,0,0,0,0,0,0.00,128,Paperback,First,0,0,B.C. Sirrom,,,,,,1,0,,
15852501,,The Thief Lord,,,,,ES,2005/1/1,Chicken House,eng,false,103,113304,111037,295082,74550,3729,2000/1/1,Herr der Diebe,book,24360,28071,17601,3677,841,3.96,349,Paperback,,10,3,Cornelia Funke,,,,,,21993,197,789,"adventure,chapter-books,childrens,classics,contemporary,crime,family,fantasy,fiction,historical,historical-fiction,juvenile,magic,magical-realism,middle-grade,mystery,novels,realistic-fiction,school,teen,urban-fantasy,young-adult"
15853001,3499108838,Die Affen von Gibraltar,,,,,ES,1991/1/1,Rowohlt,ger,false,6,2820035,203,428,111,10,1962/1/1,Scruffy,book,29,43,33,6,0,3.86,281,Paperback,,0,0,Paul Gallico,,,,"Jutta Knust,Theodor Knust",,55,7,,"animals,classics,fiction,humor,research,war"
15853501,,A Life Interwoven with Gayatri,,,,,ES,,Gayatri Pragna Pith,eng,false,1,15853501,7,10,2,0,,,book,2,0,0,0,0,5.00,,,,2,0,Shriram Sharma Acharya,,,,,,6,0,,
15854001,1415201765,The Great Agony and Pure Laughter of the Gods,9781415201763,,,,ES,2012/1/1,Umuzi,,false,4,15854001,58,65,19,4,2012/1/1,,book,5,4,5,4,1,3.42,,Paperback,,18,4,Jamala Safari,,,,,,29,0,4,
15854501,,Canon Revisited: Establishing The Origins And Authority Of The New Testament Books,,B007RPROCS,,,ES,2012/4/30,Crossway,,true,2,13251912,1114,1654,363,86,2012/4/30,,,239,99,17,4,4,4.56,368,Kindle Edition,,55,5,Michael J. Kruger,,,,,,492,15,82,"canon,christianity,history,non-fiction,reference,religion,theology"
15855001,0077893042,Essentials of Marketing with Connect Plus,9780077893040,,,,ES,2011/7/12,Irwin/McGraw-Hill,,false,38,7266462,320,289,79,6,1997/1/1,,book,25,21,17,13,3,3.66,,Unknown Binding,,0,0,"E. Jerome McCarthy,Joseph P. Cannon,William D. Perreault Jr.",,,,,,166,3,9,"academic,business,non-fiction,school,textbooks"
15855501,0133007545,Early Childhood Education Today [with MyEducationLab & eText Access Card],9780133007541,,,,ES,2012/8/1,Pearson,eng,false,45,6836431,312,239,62,7,1990/10/1,Early Childhood Education Today,book,19,23,13,6,1,3.85,600,Hardcover,,2,0,George S. Morrison,,,,,,171,0,11,"adult,college,education,non-fiction,science,textbooks"
15856001,0153502304,Harcourt School Publishers Storytown: Ell Rdr Ranches&frms..America G4 Stry08,9780153502309,,,,ES,2005/9/1,Harcourt School Publishers,,false,1,15856001,1,0,0,0,2005/9/1,,,0,0,0,0,0,0.00,16,Paperback,,0,0,,,,,,,1,0,,
15856501,0816748217,10 Awesome Card Tricks,9780816748211,,,,ES,1998/1/1,,eng,false,1,15856501,2,0,0,0,1998/1/1,,book,0,0,0,0,0,0.00,,Paperback,,0,0,John Railing,,,,,,,0,,magic
15857501,0262018217,Borges and Memory: Encounters with the Human Brain,9780262018210,,,,ES,2012/9/21,Mit Press,,false,8,15857501,215,228,60,10,2011/1/1,,book,11,29,17,3,0,3.80,213,Hardcover,,35,9,Rodrigo Quian Quiroga,,,,Juan Pablo Fernández,,126,3,10,"essays,nature,philosophy,science"
15858001,,دروس البلياردو للتميز في الحياة,,,,,ES,,,ara,false,2,9335684,108,178,43,6,1430/1/1,دروس البلياردوا للتميز في الحياة,book,22,8,10,3,0,4.14,143,,,7,0,فوزان بن عبد الرحمن الحماد,,,,,,35,0,3,self-help
15858501,0415514762,War and Migration: Social Networks and Economic Strategies of the Hazaras of Afghanistan,9780415514767,,,,ES,2012/12/15,Routledge,,false,7,1973909,19,0,0,0,2005/6/10,"War and Migration: Social Networks and Economic Strategies of the Hazaras of Afghanistan (Middle East Studies: History, Politics & Law)",,0,0,0,0,0,0.00,346,Paperback,,0,0,Alessandro Monsutti,,,,,,14,0,2,
15859001,0415634938,"Nationalism, Law and Statelessness: Grand Illusions in the Horn of Africa",9780415634939,,,,ES,2013/7/2,Routledge,,false,7,18610070,1,0,0,0,2013/1/1,,book,0,0,0,0,0,0.00,240,Hardcover,,0,0,John R. Campbell,,,,,,1,0,,
15859501,0443069298,"The Malalignment Syndrome: diagnosis and treatment of common pelvic and back pain, 2e: Diagnosing and treating a common cause of acute and chronic pelvic, limb and back pain",9780443069291,,,,ES,2012/10/5,Churchill Livingstone,,false,1,15859501,6,9,2,0,2012/11/9,,,1,1,0,0,0,4.50,624,Hardcover,,2,0,Wolf Schamberger,,,,,,3,0,,
15860001,0521782465,The Cambridge Edition of the Works of Ben Jonson,9780521782463,,,,ES,2012/9/30,Cambridge University Press,,false,1,15860001,5,10,2,0,2012/9/30,,,2,0,0,0,0,5.00,5224,Hardcover,,2,0,Ben Jonson,,,"David Bevington,Ian Donaldson",,,3,1,,
15860501,0606262180,Into the Storm,9780606262187,,,,ES,2012/5/1,Turtleback Books,,false,6,121880,916,1954,503,25,1996/9/1,,book,147,194,125,31,6,3.88,380,Hardcover,,0,0,Avi,,,,,,246,8,10,"adventure,childrens,family,fiction,health,historical,historical-fiction,juvenile,middle-grade,teen,travel,young-adult"
15861001,0615613691,Joshua's Box,9780615613697,,,,ES,2012/5/1,Cuana International,,false,1,15861001,1,0,0,0,2012/5/15,,book,0,0,0,0,0,0.00,248,Paperback,,0,0,Stephen  Cooney,,,,,,,0,,
15861501,0643097392,"Australia's Amazing Kangaroos: Their Conservation, Unique Biology and Coexistence with Humans",9780643097391,,,,ES,2012/10/1,CSIRO Publishing,,false,5,17168314,6,4,1,0,2012/1/1,,book,0,1,0,0,0,4.00,244,Paperback,,0,0,Ken Richardson,,,,,,3,0,,
15862001,0738592668,Millbury (Images of America: Massachusetts),9780738592664,,,,ES,2012/10/8,Arcadia Publishing,,false,2,15862001,2,10,2,0,2012/10/8,Millbury (Images of America: Massachusetts),book,2,0,0,0,0,5.00,128,Paperback,,2,0,Chris Sinacola,,,,,,,0,,non-fiction
15862501,,The Genius of Homeopathy,,,,,ES,,,eng,false,1,15862501,16,21,6,1,,,book,2,1,2,0,1,3.50,,,,6,1,Stuart Close,,,,,,7,0,2,
15863001,0764469444,Postcards from the Palace Student Book,9780764469442,,,,ES,2012/1/1,Group Publishing (CO),,false,1,15863001,0,0,0,0,2012/1/1,,,0,0,0,0,0,0.00,,Paperback,,0,0,,,,,,,,0,,
15863501,0800698800,Theologians in Their Own Words,9780800698805,,,,ES,2013/2/1,Fortress Press,,false,3,17170722,7,6,2,1,2013/2/1,,,0,1,0,1,0,3.00,288,Paperback,,1,1,,,,"Derek R. Nelson,Joshua M. Moritz,Ted Peters",,,3,0,1,theology
15864001,0814432344,Innovation at Work: 55 Activities to Spark Your Team's Creativity,9780814432341,,,,ES,2012/9/5,AMACOM,,false,5,15864001,10,13,4,1,2012/9/4,,,0,1,3,0,0,3.25,288,Paperback,,4,1,Richard Brynteson,,,,,,3,0,1,business
15864501,,The Water of Sunlight,,,,,ES,2012/10/1,,eng,true,3,15864501,43,13,3,1,2012/10/1,,book,2,0,1,0,0,4.33,,Kindle Edition,,3,1,Eugenia O'Neal,,,,,,40,2,,
15865001,0882708082,"Breaking the Power of Unmet Needs, Unhealed Hurts, and Unresolved Issues in Your Life",9780882708089,,,,ES,2012/10/1,Bridge-Logos,eng,false,3,357128,96,143,35,6,1996/11/1,"Breaking the Power: Of Unmet Needs, Unhealed Hurts, Unresolved Issues in Your Life",book,15,12,6,0,2,4.09,280,Paperback,Revised,1,0,Liberty Savard,,,,,,48,1,3,"christian,non-fiction"
15865501,0957338805,American Rebel: A Novel Based on Actual Events,9780957338807,,,,ES,2012/7/4,Alto Pico,eng,false,2,15865501,7,15,3,2,2012/6/23,,book,3,0,0,0,0,5.00,386,Paperback,,3,2,Joss Gibson,,,,,,3,0,1,
15866001,0982015933,Rad Dad: Zine Compilation: Issues #1-10,9780982015933,,,,ES,2012/6/1,1984 Printing,,false,1,15866001,29,55,12,0,2012/6/1,,,7,5,0,0,0,4.58,280,Paperback,,12,0,,,,Tomas Moniz,,,17,0,,non-fiction
15866501,0983714207,The Fire Behind My Eyes,9780983714200,,,,ES,2011/12/22,Rodent Enterprises Publishing,,false,1,15866501,0,0,0,0,2011/12/22,,,0,0,0,0,0,0.00,68,Paperback,,0,0,Dawnell Harrison,,,,,,,0,,
15867001,0984962611,"Nina Has Two Houses: A Book to Help Young Children and Their Parents, Who Are Going Through a Divorce, Adjust to the New Situation.",9780984962617,,,,ES,2012/6/5,Danielle Jacobs,,false,3,15867001,4,8,2,0,2012/6/5,,,1,0,1,0,0,4.00,48,Paperback,,1,0,Danielle Jacobs,Hannah Neale,,,,,2,0,,
15867501,0985493801,The Nature of God,9780985493806,,,,ES,,,,false,1,15867501,1,5,1,0,2012/5/1,,,1,0,0,0,0,5.00,,,,1,0,"Don Hastings,Marc Gipson",,,,,,,0,,
15868001,1105350509,Bible Brain Bogglers,9781105350504,,,,ES,2012/3/9,Lulu.com,,false,1,15868001,2,10,2,0,2012/3/9,,,2,0,0,0,0,5.00,108,Paperback,,2,0,Kevan J. Kennington,,,,,,,0,,
15868501,1107606551,"Exercises in Probability: A Guided Tour from Measure Theory to Random Processes, Via Conditioning. Loic Chaumont, Marc Yor",9781107606555,,,,ES,2012/9/30,Cambridge University Press,,false,1,15868501,0,0,0,0,2012/9/30,,,0,0,0,0,0,0.00,300,Paperback,,0,0,"L. Chaumont,Marc Yor",,,,,,,0,,
15869001,1118301773,The 2013 Pfeiffer Annual: Training,9781118301777,,,,ES,2012/11/19,Pfeiffer,,false,4,15869001,0,0,0,0,2012/11/9,,book,0,0,0,0,0,0.00,288,Hardcover,,0,0,,,,Elaine Biech,,,,0,,
15869501,2757833979,Dictionnaire superflu à l'usage de l'élite et des biens nantis,9782757833971,,,,ES,2013/4/4,Points,fre,false,4,1768375,256,704,166,4,1985/2/1,Dictionnaire superflu à l'usage de l'élite et des bien nantis,book,71,68,23,4,0,4.24,138,Mass Market Paperback,,2,0,Pierre Desproges,,,,,,37,0,,"contemporary,france,humor,non-fiction,science-fiction"
15870001,,De Toscaanse tuin,9789041413789,,,,ES,2007/1/1,,eng,false,39,1410320,11786,20688,5975,596,2006/1/1,The Savage Garden,book,851,2097,2173,672,182,3.46,,Paperback,,4,2,Mark Mills,,,,,,3010,47,72,"adult,adult-fiction,contemporary,crime,cultural,drama,fiction,gothic,historical,historical-fiction,history,literary-fiction,murder-mystery,mystery,mystery-thriller,mythology,romance,school,suspense,thriller,war"
15870501,1422226700,Superstars of Baseball (29 Titles) English,9781422226704,,,,ES,2012/9/1,Mason Crest Publishers,,false,1,15870501,0,0,0,0,2012/9/1,,,0,0,0,0,0,0.00,,Hardcover,,0,0,Tania Rodríguez Salazar,,,,,,,0,,
15871001,1432787047,How to Make Money,9781432787042,,,,ES,2012/5/1,Outskirts Press,,false,1,15871001,0,0,0,0,2012/5/14,,,0,0,0,0,0,0.00,108,Paperback,,0,0,Herman J. Reategui,,,,,,,0,,
15871501,143335005X,Medieval Times (World History): England in the Middle Ages,9781433350054,,,,ES,2012/7/30,Teacher Created Materials,,false,4,15871501,1,0,0,0,2012/7/1,,,0,0,0,0,0,0.00,32,Paperback,,0,0,Joanne Mattern,,,,,,1,0,,
15872001,1440544115,"101 Things Everyone Needs to Know about the Global Economy: The Guide to Understanding International Finance, World Markets, and How They Can Affect Your Financial Future",9781440544118,,,,ES,2013/1/18,Adams Media,,false,4,17073625,102,111,28,6,2012/12/18,,,10,8,9,1,0,3.96,256,Paperback,,2,1,Michael Taillard,,,,,,54,0,11,economics
15872501,1442219521,The Smarter Bomb: Women and Children as Suicide Bombers,9781442219526,,,,ES,2012/10/12,Rowman & Littlefield Publishers,,false,6,15872501,72,48,13,3,2012/10/12,,,5,3,3,0,2,3.69,196,Hardcover,,12,3,Anat Berko,,,,,,51,1,1,"academic,politics,unfinished"
15873001,1447143329,Dynamic Structure of Nrem Sleep,9781447143321,,,,ES,2012/10/14,Springer,,false,3,15873001,0,0,0,0,2012/10/2,,,0,0,0,0,0,0.00,125,Hardcover,,0,0,"Péter Halász,Robert Bodizs",,,,,,,0,,
15873501,1449751490,"It's Only by the Exhibition of His Grace...: As Children of the Master Architect, Our Limitations Do Not Limit Us",9781449751494,,,,ES,2012/5/17,WestBow Press,,false,3,15873500,1,5,1,0,2012/1/1,,book,1,0,0,0,0,5.00,114,Hardcover,,0,0,Adrienne Aristil,,,,,,,0,,biography
15874001,1452203970,Violence in Student Writing: A School Administrator's Guide,9781452203973,,,,ES,2012/11/2,Corwin Publishers,,false,1,15874001,0,0,0,0,2012/10/30,,,0,0,0,0,0,0.00,118,Paperback,,0,0,Gretchen A. Oltman,,,,,,,0,,
15874501,1453705791,Herman Melville: Moby-Dick,9781453705797,,,,ES,2010/7/12,Createspace Independent Publishing Platform,,false,796,153747,819793,1532164,439428,13201,1851/1/1,,book,116621,114245,113350,56817,38395,3.49,532,Paperback,,0,0,Herman Melville,,,,,,306630,1651,30032,"adult,adult-fiction,adventure,american,animals,classic-literature,classics,college,drama,epic,fantasy,fiction,high-school,historical,historical-fiction,history,literary-fiction,literature,novels,philosophy,school,unfinished"
15875001,1456608657,Hollywood Beauty Secrets: Remedies to the Rescue,9781456608651,,,,ES,2012/5/14,Ebookit.com,,false,3,19222099,12,34,11,0,2012/4/29,,,2,2,4,1,2,3.09,232,Paperback,,5,0,Louisa Graves,,,,,,,0,,
15875501,1457641356,Language of Composition 2e & i-cite & i-claim,9781457641350,,,,ES,2012/7/17,Bedford/St. Martin's,,false,1,15875501,0,0,0,0,2012/7/17,,,0,0,0,0,0,0.00,,Hardcover,,0,0,"Lawrence Scanlon,Renee Shea,Robin Dissin Aufses",,,,,,,0,,
15876001,146127575X,Molecular and Cellular Aspects of Periimplantation Processes,9781461275756,,,,ES,2011/9/28,Springer,,false,3,15876001,0,0,0,0,1995/12/22,,,0,0,0,0,0,0.00,661,Paperback,,0,0,,,,S. K. Dey,,,,0,,
15876501,146128760X,Food Web Management: A Case Study of Lake Mendota,9781461287605,,,,ES,2011/9/26,Springer,,false,3,15876501,0,0,0,0,1992/7/16,,,0,0,0,0,0,0.00,556,Paperback,,0,0,,,,James F. Kitchell,,,,0,,
15877001,1461395402,Organic Chemicals in Natural Waters: Applied Monitoring and Impact Assessment,9781461395409,,,,ES,2011/12/30,Springer,,false,1,15877001,0,0,0,0,1984/10/22,,,0,0,0,0,0,0.00,292,Paperback,,0,0,"J.W. Moore,S. Ramamoorthy",,,,,,,0,,
15877501,1461453003,Interventions for Autism Spectrum Disorders: Translating Science Into Practice,9781461453000,,,,ES,2013/2/2,Springer,,false,4,19759839,6,10,2,0,2012/11/1,,,2,0,0,0,0,5.00,354,Hardcover,,0,0,,,,"Jack A. Naglieri,Sam Goldstein",,,3,0,,
15878001,1462671470,Management in Troubled Times,9781462671472,,,,ES,2012/6/12,America Star Books,,false,1,15878001,0,0,0,0,2012/6/12,,,0,0,0,0,0,0.00,314,Paperback,,0,0,Adrian Davieson,,,,,,,0,,
15878501,1462682669,Anger Management God's Way: A Unique System That Works Like a Miracle: Pastor Tony's Discipleship Series,9781462682669,,,,ES,2012/6/28,America Star Books,,false,1,15878501,1,0,0,0,2012/6/28,,,0,0,0,0,0,0.00,234,Paperback,,0,0,Tony Mavrakos,,,,,,1,0,,
15879001,1463329032,Muur,9781463329037,,,,ES,2012/5/24,Palibrio,,false,1,15879001,0,0,0,0,2012/5/24,,,0,0,0,0,0,0.00,48,Paperback,,0,0,Martín Jacob Landaverde Posadas,,,,,,,0,,
15879501,1464125511,Calculus Multivariable,9781464125515,,,,ES,2013/1/11,W. H. Freeman,,false,1,15879501,0,0,0,0,,,,0,0,0,0,0,0.00,504,Hardcover,,0,0,"Laura Taalman,Peter Kohn",,,,,,,0,,
15880001,146651017X,"Fuels, Energy, and the Environment",9781466510173,,,,ES,2012/11/7,CRC Press,,false,1,15880001,0,0,0,0,2012/11/21,,,0,0,0,0,0,0.00,341,Hardcover,,0,0,Ghazi A. Karim,,,,,,,0,,
15880501,1466936118,"See & Control Demons & Pains: From My Eyes, Senses and Theories Book 2",9781466936119,,,,ES,2012/5/23,Trafford Publishing,,false,5,18087287,0,0,0,0,2012/5/23,,,0,0,0,0,0,0.00,240,Paperback,,0,0,Rizwan Qureshi,,,,,,,0,,
15881001,1467943339,They Call Me Otis,9781467943338,,,,ES,2012/4/17,Createspace Independent Publishing Platform,,false,2,15881001,3,13,3,0,2011/12/12,,,2,0,1,0,0,4.33,52,Paperback,,1,0,Sallee E. Frazier,,,,,,,0,,
15881501,1468504894,Lizi's Wig,9781468504897,,,,ES,2012/5/15,Authorhouse,,false,3,15881501,6,25,5,1,2012/5/15,,,5,0,0,0,0,5.00,100,Paperback,,5,1,Iza Chkadua,,,,,,,0,,
15882001,146858345X,Global Perspectives in Management Marketing,9781468583458,,,,ES,2012/6/18,Authorhouse,,false,3,17648316,1,4,1,0,2012/6/18,,,0,1,0,0,0,4.00,421,Paperback,,0,0,"Militaru Cezar,Mu Etescu Adina",,,,,,,0,,
15882501,1469158434,Under One Sky,9781469158433,,,,ES,2012/5/24,Xlibris Corporation,,false,2,15882501,0,0,0,0,2012/5/24,,,0,0,0,0,0,0.00,224,Paperback,,0,0,Rayvoll Ormond,,,,,,,0,,
15883001,1469196840,A Journey of Faith,9781469196848,,,,ES,2012/5/21,Xlibris Corporation,,false,2,15883001,0,0,0,0,2012/5/21,,,0,0,0,0,0,0.00,130,Paperback,,0,0,Magdala Marie Osp Gilbert,,,,,,,0,,
15883501,1469233908,"Spider Mountain (Cam Richter, #2)",9781469233901,,,,ES,2012/12/4,Brilliance Audio,eng,false,22,21290,843,2184,558,54,2006/12/26,Spider Mountain,book,161,232,126,34,5,3.91,,Audio CD,,4,0,P.T. Deutermann,,,,,Dick Hill,126,7,7,"action,adult,adult-fiction,crime,detective,fiction,mystery,mystery-thriller,realistic-fiction,suspense,thriller"
15884001,1470014408,Death of a Harlequin,9781470014407,,,,ES,2012/6/15,Createspace Independent Publishing Platform,,false,1,15884001,7,11,3,0,2012/6/15,,,0,2,1,0,0,3.67,246,Paperback,,3,0,Mary-Jane Deeb,,,,,,4,0,,
15884501,1470187663,Amazing Matilda: A Monarch's Tale,9781470187668,,,,ES,2012/7/2,Createspace Independent Publishing Platform,,false,4,18917009,132,351,75,46,2012/7/2,,book,57,13,4,1,0,4.68,34,Paperback,,0,0,Bette A. Stevens,,,,,,19,2,5,"childrens,inspirational,science"
15885001,147163941X,Passeport Pour La Przpa: Les Suites Numzriques,9781471639418,,,,ES,2016/6/22,Lulu.com,,false,1,15885001,0,0,0,0,2012/4/8,,,0,0,0,0,0,0.00,178,Paperback,,0,0,"Jacques Lévy,Ren Levy",,,,,,,0,,
15885501,1475117922,Design and Maintenance of the Home Landscape,9781475117929,,,,ES,2012/5/5,Createspace Independent Publishing Platform,,false,1,15885501,0,0,0,0,2012/5/5,,,0,0,0,0,0,0.00,230,Paperback,,0,0,Kathy McPhail Beaman,,,,,,,0,,
15886001,1475213026,The Jesus Brand,9781475213027,,,,ES,2012/5/4,Createspace Independent Publishing Platform,,false,1,15886001,1,5,1,0,2012/5/4,,,1,0,0,0,0,5.00,116,Paperback,,1,0,Sandra Marie Wilson,,,,,,,0,,
15886501,1475282192,"Please Don't Die, But If You Do, What Do I Do Next?: A Practical and Cost Saving Guide for the Estate Executor",9781475282191,,,,ES,2012/6/19,Createspace Independent Publishing Platform,,false,1,15886501,20,54,14,2,2012/6/19,,,3,6,5,0,0,3.86,188,Paperback,,14,2,"Keith S. Grube Esq,Kurt J. Grube",,,,,,4,0,1,"business,death,non-fiction"
15887001,1475918712,Dancing with the Universe: Our Journey Toward Wisdom,9781475918717,,,,ES,2012/6/27,iUniverse,,false,3,15887001,1,4,1,0,2012/6/1,,,0,1,0,0,0,4.00,216,Paperback,,1,0,Jeanne Weikert,,,,,,,0,,
15887501,1475934831,Survival of the Fittest: The Closest Enemy,9781475934830,,,,ES,2012/7/5,iUniverse,,false,5,15851238,23,15,3,0,2012/7/1,,book,3,0,0,0,0,5.00,302,Paperback,,0,0,Michael   Taylor,,,,,,17,0,,
15888001,1477109110,Crossing the Continental Divide: Three American Diaries 1853-1854,9781477109113,,,,ES,2012/7/2,Xlibris Corporation,,false,2,15888000,1,4,1,0,2012/7/2,,,0,1,0,0,0,4.00,350,Hardcover,,0,0,Ronald John Vierling,,,,,,,0,,
15888501,1477122621,Evening Sunrise,9781477122624,,,,ES,2012/7/17,Xlibris Corporation,,false,3,15888500,1,4,1,0,2012/7/17,,,0,1,0,0,0,4.00,260,Hardcover,,0,0,Anthony Mander,,,,,,,0,,
15889001,1477140077,"Love, Compassion and Faith",9781477140079,,,,ES,2012/7/23,Xlibris Corporation,,false,2,15889001,0,0,0,0,2012/7/23,,,0,0,0,0,0,0.00,102,Paperback,,0,0,Taha El-Sergany,,,,,,,0,,
15889501,147721349X,"Keynesian Economics, the Cancer in America",9781477213490,,,,ES,2012/6/7,Authorhouse,,false,5,15889501,0,0,0,0,2012/6/7,,,0,0,0,0,0,0.00,130,Paperback,,0,0,John Shannon,,,,,,,0,,
15890001,1477402950,"Timeweaver (Circle of Dreams, #2)",9781477402955,,,,ES,2012/5/6,Createspace Independent Publishing Platform,,false,4,13116920,111,268,71,3,2011/11/2,Timeweaver (Circle of Dreams),book,24,18,19,9,1,3.77,172,Paperback,,0,0,Linda McNabb,,,,,,21,1,2,fantasy
15890501,1477475427,The Oracles and the Sanctuary of Powers,9781477475423,,,,ES,2012/5/15,Createspace Independent Publishing Platform,,false,2,15890501,0,0,0,0,2012/5/15,,,0,0,0,0,0,0.00,274,Paperback,,0,0,Gerald Graham Jr.,,,,,,,0,,
15891001,1477534520,Superiority Complex,9781477534526,,,,ES,2012/5/24,Createspace Independent Publishing Platform,,false,2,15891001,2,5,1,1,2012/4/28,,,1,0,0,0,0,5.00,318,Paperback,,1,1,Samuel Eden,,,,,,1,0,,
15891501,1477599657,The Farmer Takes a Child: Charity Fish,9781477599655,,,,ES,2012/6/6,Createspace Independent Publishing Platform,,false,1,15891501,6,13,3,1,2012/6/6,,,2,0,1,0,0,4.33,164,Paperback,,3,1,Kaye Marie Giuliani,,,,,,3,0,,
15892001,147767487X,The Successful Bloggers Guide,9781477674871,,,,ES,2012/6/25,Createspace Independent Publishing Platform,,false,1,15892001,1,0,0,0,2012/6/25,,,0,0,0,0,0,0.00,86,Paperback,,0,0,Robert Maggard,,,,,,1,0,,
15892501,1478166444,The Dance of the Spiral Virgins,9781478166443,,,,ES,2012/7/1,Createspace,,false,3,18135865,397,58,14,4,2012/7/24,,book,6,4,4,0,0,4.14,332,Paperback,,2,1,Patrick Sean Lee,,,,,,374,6,,fantasy
15893001,1478277661,"Jokes, Cartoons, and Funny Stories I Can Read to You!",9781478277668,,,,ES,2012/7/19,Createspace Independent Publishing Platform,,false,1,15893001,1,3,1,0,2012/7/19,,,0,0,1,0,0,3.00,52,Paperback,,1,0,Philip Copitch,,,,,,,0,,
15893501,1572588187,Peace in Prison,9781572588189,,,,ES,2012/5/7,"Teach Services, Inc.",,false,4,15893500,2,10,2,0,2012/5/7,,,2,0,0,0,0,5.00,124,Hardcover,,0,0,Joy Dutton,,,,,,,0,,
15894001,1595085041,AAA Spiral Amsterdam,9781595085047,,,,ES,2012/9/16,AAA,,false,6,1859913,15,41,10,0,2006/1/1,Amsterdam (AA Spiral Guide),,4,4,1,1,0,4.10,210,Spiral-bound,,0,0,"Fred Mawer,Simon Calder",,,,,,,0,,travel
15894501,1602559252,El río,9781602559257,,,,ES,2012/9/17,Grupo Nelson,,false,13,14291982,1069,2110,556,136,2011/10/20,,book,176,167,155,39,19,3.79,336,Paperback,,6,1,Michael Neale,,,,,,405,16,22,"adult,adventure,christian,christian-fiction,fiction,inspirational,religion,thriller"
15895001,1607278413,Down by the Bay: A Story Based on a Silly Song,9781607278412,,,,ES,2012/10/15,Palm Publishing,,false,1,15895001,2,4,1,1,2012/10/15,,,0,1,0,0,0,4.00,18,Board Book,,1,1,Jamie McCune,Sue Cornelison,,,,,1,0,,
15895501,1608769038,Police Management,9781608769032,,,,ES,2010/9/16,Nova Science Publishers,,false,1,15895501,2,0,0,0,2010/1/1,,,0,0,0,0,0,0.00,160,Hardcover,,0,0,Petter Gottschalk,,,,,,2,0,,
15896001,1611100267,50+ Principles for Success,9781611100266,,,,ES,2012/8/25,"Global Management Enterprises, LLC",,false,1,15896001,1,0,0,0,2012/8/25,,,0,0,0,0,0,0.00,178,Paperback,,0,0,A. Peter,,,,,,1,1,,
15896501,1612353924,Spur,9781612353920,,,,ES,2012/5/24,"Melange Books, LLC",,false,1,15896501,1,0,0,0,2012/5/24,,,0,0,0,0,0,0.00,214,Paperback,,0,0,Phil Geusz,,,,,,1,0,,
15897001,1616017899,"Addition Adventures, Grade 1",9781616017897,,,,ES,2012/8/1,Creative Teaching Press,,false,1,15897001,0,0,0,0,2012/8/1,,book,0,0,0,0,0,0.00,56,Paperback,,0,0,Teresa Domnauer,,,,,,,0,,
15897501,1617207640,"The Story of My Life, Vol 6: Spanish Passions",9781617207648,,,,ES,2012/5/14,SMK Books,,false,16,7430607,16,18,4,0,2012/4/1,,,3,0,1,0,0,4.50,460,Paperback,,0,0,Giacomo Casanova,,,,Arthur Machen,,10,0,,"autobiography,non-fiction"
15898001,1618631543,Afrophobia - The Fear of Being an African,9781618631541,,,,ES,2012/4/1,Bookstand Publishing,,false,1,15898001,0,0,0,0,2012/4/19,,,0,0,0,0,0,0.00,90,Paperback,,0,0,Aja Oro,,,,,,,0,,
15898501,1619426161,Xenobiotics,9781619426160,,,,ES,2012/10/19,Nova Science Publishers,,false,1,15898501,0,0,0,0,2012/6/1,,,0,0,0,0,0,0.00,179,Hardcover,,0,0,,,Saul F. Castaneda,,,,,0,,
15899001,1620873699,"The Old-House Doctor: The Essential Guide to Repairing, Restoring, and Rejuvenating Your Old Home",9781620873694,,,,ES,2013/3/1,Skyhorse,,false,4,15899001,18,24,7,1,2013/3/1,,,2,1,2,2,0,3.43,192,Paperback,,5,1,Christopher Evers,,,,,,6,1,2,
15899501,1622305663,The Moral Compass,9781622305667,,,,ES,2012/7/1,Xulon Press,,false,1,15899501,6,0,0,0,2012/7/18,,,0,0,0,0,0,0.00,102,Paperback,,0,0,Steve Santini,,,,,,6,1,,
15900001,1743137958,Urn Burial,9781743137956,,,,ES,2012/8/6,Bolinda Audio,,false,25,1339026,6613,14347,3738,293,1996/1/1,Urn Burial,book,887,1556,1115,163,17,3.84,7,Audio CD,,1,0,Kerry Greenwood,,,,,Stephanie Daniel,1630,52,160,"adult,adventure,cozy-mystery,crime,detective,fiction,historical,historical-fiction,history,murder-mystery,mystery,mystery-thriller,novels,romance,thriller,unfinished"
15900501,1743180586,Kings in Grass Castles,9781743180587,,,,ES,2012/8/27,Bolinda Audio,,false,18,2584240,653,1020,274,33,1959/1/1,Kings in Grass Castles,book,60,107,82,21,4,3.72,,Audio CD,,0,0,Mary Durack,,,,,,196,8,27,"biography,classics,family,history,memoir,non-fiction,picture-books,research"
15901001,1743215053,One Planet: Inspirational Travel Photography from Around the World,9781743215050,,,,ES,2012/12/14,Lonely Planet,eng,false,1,15901001,67,97,24,2,2012/11/1,,book,8,9,7,0,0,4.04,284,Hardcover,,24,2,,,,,,,32,2,1,"art,travel"
15901501,1781392234,The Unknown Life of Jesus Christ,9781781392232,,,,ES,2012/6/22,Benediction Classics,,false,100,372993,709,990,270,34,1890/1/1,The Unknown Life of Jesus Christ 1890,book,74,94,61,20,21,3.67,102,Hardcover,,1,0,Nicolas Notovitch,,,,"J.H. Connelly,L. Landsberg",,287,6,93,"biography,christian,christianity,classics,faith,fiction,film,history,memoir,philosophy,religion,research,spirituality,theology,travel,writing"
15902001,184625311X,Doxology!: Exploring and Enjoying the New Testament Benedictions,9781846253119,,,,ES,2012/4/26,Dayone C/O Grace Books,,false,1,15902001,4,4,1,1,2012/4/26,,,0,1,0,0,0,4.00,181,Paperback,,1,1,Stan K. Evers,,,,,,3,0,,theology
15902501,1849463107,The Politics of Coalition: How the Conservative - Liberal Democrat Government Works,9781849463102,,,,ES,2012/6/15,Hart Publishing,,false,1,15902501,1,0,0,0,2012/6/15,,,0,0,0,0,0,0.00,290,Hardcover,,0,0,Hazell,,,,,,,0,,
15903001,189710992X,Small Flames,9781897109922,,,,ES,2012/4/16,Signature Editions,,false,1,15903001,1,0,0,0,2012/4/16,,,0,0,0,0,0,0.00,91,Paperback,,0,0,Dina E. Cox,,,,,,1,0,,
15903501,,Seasons of Discontent: Spring & Summer,9781610612494,,,,ES,2011/6/1,The Poet's Haven,eng,false,1,15903501,7,10,2,0,2011/6/1,,book,2,0,0,0,0,5.00,36,Paperback,,2,0,Jeff Kosiba,,,,,,3,0,,
15904001,1927360706,Manreaders: A Woman's Guide to Dysfunctional Men,9781927360705,,,,ES,2012/6/18,CCB Publishing,,false,4,15904001,13,17,5,1,2006/1/10,,,1,2,1,0,1,3.40,156,Paperback,,4,1,Bonnie M. Kaye,,,,,,7,0,1,
15904501,1936003333,"Inside Linda Lovelace's Deep Throat: Degradation, Porno Chic, and the Rise of Feminism",9781936003334,,,,ES,2013/3/12,Blood Moon Productions,,false,3,15904501,58,53,19,5,2013/1/16,,,1,3,8,5,2,2.79,640,Paperback,,13,5,Darwin Porter,,,,,,28,1,3,"biography,biography-memoir,film,history,movies,non-fiction,sociology,true-crime"
15905001,1937650081,Somewhere I've Never Been,9781937650087,,,,ES,2012/6/12,Small Batch Books,,false,1,15905001,0,0,0,0,2012/6/12,,,0,0,0,0,0,0.00,118,Paperback,,0,0,Ellin Randel,,,,,,,0,,
15906501,2070372677,Troisieme Anneau,9782070372676,,,,ES,1981/3/1,Gallimard Education,,false,12,2154305,3048,6365,1528,53,1963/1/1,Το τρίτο στεφάνι,book,635,597,232,42,22,4.17,,Paperback,,0,0,Costas Taktsis,,,,,,1203,57,23,"classics,fiction,historical-fiction,lgbt,literature,novels,social,unfinished"
15908001,207046024X,Du Vent Dans Toiles,9782070460243,,,,ES,1975/11/1,Gallimard Education,,false,1,15908001,0,0,0,0,1975/11/1,,book,0,0,0,0,0,0.00,,Paperback,,0,0,Nicholas Gage,,,,,,,0,,
15908501,2070497607,Famine,9782070497607,,,,ES,1999/3/1,Gallimard Education,,false,6,1573703,64,113,36,7,1997/1/6,Famine,,7,8,9,7,5,3.14,,Paperback,,0,0,Todd Komarnicki,,,,,,20,4,-1,"fiction,mystery,supernatural"
15909001,2959982967,Die Suche Nach Einem Sozialen Buddhismus,9782959982965,,,,ES,2007/10/5,Kairos Edition,,false,1,15909001,0,0,0,0,2007/10/5,,,0,0,0,0,0,0.00,94,Paperback,,0,0,Volker Zotz,,,Kurt Krammer,,,,0,,
15909501,3110297582,Italoamericano: Italiano E Inglese in Contatto Negli USA. Analisi Diacronica Variazionale E Migrazionale,9783110297584,,,,ES,2013/12/11,Walter de Gruyter,,false,2,15909501,0,0,0,0,2013/3/20,,,0,0,0,0,0,0.00,473,Hardcover,,0,0,Elton Prifti,,,,,,,0,,
15910001,3322831485,Klaus Jurgen Maack Design Oder Die Kultur Des Angemessenen: Erschienen Anlasslich Der Auszeichnung Von Klaus Jurgen Maack Mit Dem Bundespreis Fur Forderer Des Designs,9783322831484,,,,ES,2012/4/3,Vieweg+teubner Verlag,,false,2,15910001,0,0,0,0,2012/7/31,,,0,0,0,0,0,0.00,136,Paperback,,0,0,,,,Rat F. R. Formgebung,,,,0,,
15910501,3531185039,Der Rastlose Mensch: Konzepte Und Erkenntnisse Der Mobilitatspsychologie,9783531185033,,,,ES,2013/1/8,Springer vs,,false,1,15910501,0,0,0,0,2012/10/1,,,0,0,0,0,0,0.00,278,Paperback,,0,0,Antje Flade,,,,,,,0,,
15911001,3642297803,Prozessmanagement Individuell Umgesetzt: Erfolgsbeispiele Aus 15 Privatwirtschaftlichen Und Offentlichen Organisationen,9783642297809,,,,ES,2012/7/13,Springer,,false,1,15911001,0,0,0,0,2012/8/31,,,0,0,0,0,0,0.00,283,Hardcover,,0,0,,,,Eva-Maria Kern,,,,0,,
15911501,3642324479,Process Machine Interactions: Predicition and Manipulation of Interactions Between Manufacturing Processes and Machine Tool Structures,9783642324475,,,,ES,2012/9/14,Springer,,false,3,15911501,0,0,0,0,2012/9/14,,,0,0,0,0,0,0.00,518,Hardcover,,0,0,,,,"Berend Denkena,Ferdinand Hollmann",,,,0,,
15912001,3642658288,Unfallverletzungen Bei Kindern: Prophylaxe Diagnostik Therapie Rehabilitation,9783642658280,,,,ES,2011/11/12,Springer,,false,1,15912001,0,0,0,0,2011/11/12,,,0,0,0,0,0,0.00,410,Paperback,,0,0,,,,J. Rehn,,,,0,,
15912501,3642685064,Die Undifferenzierten Astrozytome Des Grosshirns: Eine Ubersicht Der Aktuellen Therapiemoglichkeiten,9783642685064,,,,ES,2011/12/10,Springer,,false,1,15912501,0,0,0,0,2011/12/10,,,0,0,0,0,0,0.00,116,Paperback,,0,0,R.W. Seiler,,"A. Zimmermann,R.A. Greiner",,,,,0,,
15913001,3642707823,"Picosecond Electronics and Optoelectronics: Proceedings of the Topical Meeting Lake Tahoe, Nevada, March 13 15, 1985",9783642707827,,,,ES,2011/11/17,Springer,,false,4,1562784,0,0,0,0,1985/9/1,"Picosecond Electronics and Optoelectronics: Proceedings of the Topical Meeting, Lake Tahoe, Nevada, March 13-15, 1985 (Springer Series in Electronics and Photonics)",book,0,0,0,0,0,0.00,258,Paperback,,0,0,,,,"Chi-H Lee,David M. Bloom,Gerard A. Mourou",,,,0,,
15913501,3642732879,Nacl Transport in Epithelia,9783642732874,,,,ES,2011/12/10,Springer,,false,4,15913501,0,0,0,0,1988/1/1,,,0,0,0,0,0,0.00,321,Paperback,,0,0,,,Rainer Greger,,,,,0,,
15914001,3642756042,Picornaviruses,9783642756047,,,,ES,2011/12/13,Springer,,false,3,15914001,1,0,0,0,1990/7/10,,,0,0,0,0,0,0.00,192,Paperback,,0,0,,,,Vincent R. Racaniello,,,1,0,,
15914501,3642778429,Artificial and Biological Vision Systems,9783642778421,,,,ES,2011/12/16,Springer,,false,4,15914501,0,0,0,0,1992/11/1,,,0,0,0,0,0,0.00,389,Paperback,,0,0,,,,"Guy A. Orban,Hans-Hellmut Nagel",,,,0,,
15915001,3642799191,Quantitative Methods in Parallel Systems,9783642799198,,,,ES,2011/12/8,Springer,,false,1,15915001,0,0,0,0,2011/12/8,,,0,0,0,0,0,0.00,298,Paperback,,0,0,,,,"Alain Jean-Marie,François Baccelli,Isi Mitrani",,,,0,,
15915501,3642822711,Variable Stars,9783642822711,,,,ES,2011/12/5,Springer,,false,2,15915501,1,0,0,0,1985/10/25,,,0,0,0,0,0,0.00,328,Paperback,,0,0,"C. Hoffmeister,G. Richter,W. Wenzel",,,,,,,0,,
15916001,364284944X,Products of Random Matrices: In Statistical Physics,9783642849442,,,,ES,2012/1/5,Springer,,false,4,15916001,0,0,0,0,1993/7/16,,,0,0,0,0,0,0.00,169,Paperback,,0,0,"Andrea Crisanti,Angelo Vulpiani,Giovanni Paladin",,,,,,,0,,
15916501,364295703X,Conversion: Opportunities for Development and Environment,9783642957031,,,,ES,2012/2/12,Springer,,false,1,15916501,0,0,0,0,2012/7/31,,,0,0,0,0,0,0.00,461,Paperback,,0,0,,,,"Anke Brunn,Hans-Jürgen Karpe,Lutz Baehr",,,,0,,
15917001,3790828750,"Performance of Pharmaceutical Companies in India: A Critical Analysis of Industrial Structure, Firm Specific Resources, and Emerging Strategies",9783790828757,,,,ES,2012/10/19,Physica-Verlag,,false,3,15917001,1,0,0,0,2012/9/30,,,0,0,0,0,0,0.00,202,Hardcover,,0,0,Mainak Mazumdar,,,,,,1,0,,
15917501,3834935824,Personalpolitische Handlungsalternativen Mit Alteren Arbeitnehmern in Unternehmen VOR Dem Hintergrund Der Demographischen Entwicklung in Deutschland: Eine Theoretische Analyse Und Praktische Implementierung an Einem Konkreten Praxisbeispiel,9783834935823,,,,ES,2012/2/20,Gabler Verlag,,false,1,15917501,0,0,0,0,2012/3/11,,,0,0,0,0,0,0.00,415,Paperback,,0,0,Julia Lukas,,,,,,,0,,
15918001,3837060993,Vereinigte Altenburger und Stralsunder Spielkartenfabriken: Teil 2,9783837060997,,,,ES,2008/9/5,Books on Demand,,false,1,15918001,0,0,0,0,2008/9/5,,,0,0,0,0,0,0.00,80,Paperback,,0,0,Leonhard Stork,,,,,,,0,,
15918501,3848203510,"AuPair Stories Band I: Unglaubliches und Peinliches, Unverantwortliches und Unvergessliches, Unakzeptables und Unerlaubtes, aber auch viel Freudvolles,  ein sozialwissenschaftlicher Blick in Familien dieser Welt",9783848203512,,,,ES,2012/10/23,Books on Demand,,false,1,15918501,0,0,0,0,2012/5/9,,,0,0,0,0,0,0.00,340,Paperback,,0,0,Ara Arnold-Riediger,,,Monika Paul,,,,0,,
15919001,3902536373,"Der Schneemann, Der Vom Fr Hling Tr Umte",9783902536372,,,,ES,2011/7/18,Novum Publishing,,false,1,15919001,0,0,0,0,2011/7/18,,,0,0,0,0,0,0.00,36,Paperback,,0,0,Andreas Selent,,,,,,,0,,
15919501,6071118034,Últimas sesiones con Marilyn Monroe,9786071118035,,,,ES,2012/3/1,Alfaguara,,false,25,1485125,644,1048,295,26,2006/8/30,Marilyn dernières séances,book,59,99,93,34,10,3.55,310,Paperback,,7,1,Michel Schneider,,,,Ramón de España,,256,2,20,"adult,art,biography,contemporary,fiction,france,historical,historical-fiction,non-fiction,unfinished"
15920001,848323114X,Summerworks 1,9788483231142,,,,ES,2000/8/17,Cambridge University Press,,false,1,15920001,0,0,0,0,2000/8/17,,,0,0,0,0,0,0.00,80,Paperback,,0,0,Michael Gammidge,,,,,,,0,,
15920501,8853009845,Sombrero de Tres Picos+cd,9788853009845,,,,ES,2008/1/1,Cideb Editrice,,false,128,813121,1437,3391,955,68,1874/1/1,El sombrero de tres picos,book,181,296,365,94,19,3.55,96,Paperback,,0,0,Pedro Antonio de Alarcón,,,,,,260,8,16,"classics,comedy,fairy-tales,fiction,funny,high-school,humor,short-stories"
15921001,9042035579,"Modernism, Postmodernism, and the Short Story in English",9789042035577,,,,ES,2012/1/1,Brill/Rodopi,,false,1,15921001,2,4,1,0,2012/7/12,,,0,1,0,0,0,4.00,270,Paperback,,1,0,,,Jorge Sacido,,,,1,1,,
15921501,9264088660,"National Accounts of OECD Countries 2010, Volume Iia, Detailed Tables",9789264088665,,,,ES,2010/8/15,OECD,,false,1,15921501,0,0,0,0,2010/8/15,,,0,0,0,0,0,0.00,464,Paperback,,0,0,Organisation for Economic Co-operation and Development,,,,,,,0,,
15922001,940074868X,Dynamic Semantics,9789400748682,,,,ES,2012/7/4,Springer,,false,3,15922001,0,0,0,0,2012/7/3,,,0,0,0,0,0,0.00,128,Hardcover,,0,0,Paul J.E. Dekker,,,,,,,0,,
15922501,9812465332,1000 Palabras en Ingles,9789812465337,,,,ES,2005/10/15,Berlitz Publishing,,false,1,15922501,0,0,0,0,2005/10/15,,,0,0,0,0,0,0.00,64,Paperback,,0,0,,,,,,,,0,,
15923001,,Against The Tide,9781300127352,,,,ES,2012/8/26,Citadel Publishing House,eng,true,2,39935306,13,29,6,3,2012/8/26,,book,5,1,0,0,0,4.83,,ebook,,3,0,J. Foley,,,,,,7,0,,fiction
15923501,000746942X,Work on Your Handwriting,9780007469420,,,,ES,2012/9/1,HarperCollins UK,,false,1,15923501,13,0,0,0,2012/9/1,,book,0,0,0,0,0,0.00,80,Paperback,,0,0,Jenny Siklos,,,,,,10,0,,
15924001,006213034X,Viper Pilot: A Memoir of Air Combat,9780062130341,,,,ES,2013/5/14,William Morrow Paperbacks,,false,11,13623911,3389,7469,1840,166,2012/9/1,,book,691,698,346,79,26,4.06,368,Paperback,,63,4,Dan Hampton,,,,,,1085,16,171,"amazon,autobiography,biography,biography-memoir,fiction,history,leadership,memoir,modern,non-fiction,war"
15924501,0124046290,"Evolution of Fossil Ecosystems, Second Edition",9780124046290,,,,ES,2012/9/19,Academic Press,,false,9,4353574,17,17,4,0,2004/3/22,,,1,3,0,0,0,4.25,288,Paperback,,1,0,"John R. Nudds,Paul A. Selden",,,,,,,0,2,science
15925001,0141343648,Slinky Malinki Early Bird. Lynley Dodd,9780141343648,,,,ES,2012/8/1,Puffin Books,,false,4,15721283,180,444,101,16,2012/5/1,,book,55,32,13,1,0,4.40,32,Hardcover,,5,0,Lynley Dodd,,,,,,40,18,1,"animals,childrens,fiction,humor,language,picture-books"
15925501,0199739226,The Oxford Encyclopedia of Food and Drink in America,9780199739226,,,,ES,2012/11/1,"Oxford University Press, USA",,false,4,1192796,57,66,15,4,2004/9/1,The Oxford Encyclopedia of Food and Drink in America: 2-Volume Set,,8,6,0,1,0,4.40,3,Hardcover,,0,0,,,Andrew F. Smith,,,,28,2,,"cooking,fiction,food"
15926001,023076844X,Madam Secretary,9780230768444,,,,ES,2012/7/1,Pan MacMillan,,false,4,674181,16730,27917,6876,356,2001/1/1,Madam Secretary: A Memoir,book,2564,2674,1252,259,127,4.06,576,Paperback,,1,0,Madeleine K. Albright,,,,,,8863,26,395,"american,american-history,autobiography,biography,biography-memoir,feminism,history,leadership,memoir,non-fiction,politics,unfinished"
15926501,0263894576,No Ordinary Joe. Michelle Celmer,9780263894578,,,,ES,2012/8/1,Mills & Boon,,false,9,13263437,104,161,43,10,2012/1/1,,book,11,13,16,3,0,3.74,,Paperback,,0,0,Michelle Celmer,,,,,,41,7,1,"contemporary,fiction,harlequin,romance"
15927001,031622393X,"The Wishing Spell (The Land of Stories, #1)",9780316223935,,,,ES,2012/7/17,"Little, Brown Books for Young Readers",,false,67,11607446,167332,331812,78664,6570,2012/7/17,The Wishing Spell,book,41831,20292,10760,3428,2353,4.22,438,Paperback,,84,24,Chris Colfer,,,,,,76580,332,3746,"adventure,chapter-books,childrens,fairy-tales,family,fantasy,fiction,humor,juvenile,magic,middle-grade,retellings,young-adult"
15928001,0415634105,The Definition of Good (Routledge Revivals),9780415634106,,,,ES,2013/11/17,Routledge,,false,8,13711950,10,0,0,0,1987/9/1,,,0,0,0,0,0,0.00,216,Paperback,,0,0,Alfred C. Ewing,,,,,,1,0,,philosophy
15928501,0465045030,Mormonism,9780465045037,,,,ES,2012/9/1,Basic Books,,false,1,15928501,0,0,0,0,2012/9/1,,,0,0,0,0,0,0.00,,Hardcover,,0,0,Maffly Kipp La,,,,,,,0,,
15929001,0531219585,African Americans in the Thirteen Colonies,9780531219584,,,,ES,2013/1/1,Scholastic,,false,2,15929028,19,31,8,0,2003/8/1,"African Americans (Spirit of America, Our Cultural Heritage)",,3,1,4,0,0,3.88,64,Paperback,,2,0,Michael Burgan,,,,,,6,0,,non-fiction
15929501,0593071395,Hiking in the Cots Country Spec,9780593071397,,,,ES,2012/9/1,Transworld Publishers,,false,1,15929501,0,0,0,0,2012/9/1,,,0,0,0,0,0,0.00,,Paperback,,0,0,Chambers Andrew,,,,,,,0,,
15930501,0673780147,"El Veliz de Los Recuerdos, Single Copy, Mas Pinata, Stage 3",9780673780140,,,,ES,1997/11/14,Celebration Press (NJ),,false,1,15930501,0,0,0,0,1997/11/14,,,0,0,0,0,0,0.00,,Paperback,,0,0,,,Prentice Hall Pearson,,,,,0,,
15931001,0717143236,Spanish Revision for Junior Cert,9780717143238,,,,ES,2008/1/8,Gill & Company,,false,1,15931001,0,0,0,0,2008/1/8,,,0,0,0,0,0,0.00,192,Paperback,,0,0,Elizabeth Fitzpatrick,,,,,,,0,,
15931501,0738597961,Cornell University,9780738597966,,,,ES,2013/1/7,Arcadia Publishing,,false,1,15931501,17,29,6,0,2013/1/7,,,5,1,0,0,0,4.83,128,Paperback,,6,0,Richard H. Penner,,,,,,11,0,,reference
15932001,0752467379,Not a Guide to Stoke-On-Trent. Leigh G. Banks,9780752467375,,,,ES,2012/9/1,History Publishing Group,,false,1,15932001,0,0,0,0,2012/9/1,,,0,0,0,0,0,0.00,120,Paperback,,0,0,Leigh G. Banks,,,,,,,0,,
15932501,0765201283,"Fonolibros, Stage 2, Book 18, Que Desastre de Cuarto, 6 Pack",9780765201287,,,,ES,1997/10/17,Modern Curriculum Press,,false,1,15932501,0,0,0,0,1997/10/17,,,0,0,0,0,0,0.00,,Paperback,,0,0,,,Prentice Hall Pearson,,,,,0,,
15933001,0765233150,"Sing, Spell, Read, and Write Level One Storybook #16 Six Pack 2004",9780765233158,,,,ES,2003/2/11,Modern Curriculum Press,,false,1,15933001,0,0,0,0,2003/2/11,,,0,0,0,0,0,0.00,,Paperback,,0,0,,,Prentice Hall Pearson,,,,,0,,
15933501,0765240238,Comprehension Power Readers Upside Down Grade 2 Single 2004c,9780765240231,,,,ES,2003/5/30,Modern Curriculum Press,,false,1,15933501,0,0,0,0,2003/5/30,,,0,0,0,0,0,0.00,,Paperback,,0,0,,,Pearson School,,,,,0,,
15934001,0765254662,Iopeners a Trip to the Beach 6 Pack Grade K 2005c,9780765254665,,,,ES,2004/2/20,Celebration Press (NJ),,false,1,15934001,0,0,0,0,2004/2/20,,,0,0,0,0,0,0.00,,Paperback,,0,0,,,Pearson School,,,,,0,,
15934501,0765277115,Spanish Iopeners Mira El Cielo Grade 3 2006c,9780765277114,,,,ES,2005/12/15,Celebration Press (NJ),,false,1,15934501,0,0,0,0,2005/12/15,,,0,0,0,0,0,0.00,,Paperback,,0,0,,,Pearson School,,,,,0,,
15935001,0768501245,Where Did They Go?,9780768501247,,,,ES,2004/10/14,Dominie Press,,false,1,15935001,0,0,0,0,2004/10/14,,,0,0,0,0,0,0.00,,Paperback,,0,0,,,Pearson School,,,,,0,,
15935501,0768511216,El Viento Y La Lluvia,9780768511215,,,,ES,2004/10/14,Dominie Elementary,,false,1,15935501,1,3,1,0,2004/10/14,,,0,0,1,0,0,3.00,,Paperback,,1,0,,,Pearson School,,,,,0,,
15936001,0768529131,Los Gemelos Tramposos,9780768529135,,,,ES,2004/10/14,Dominie Press,,false,1,15936001,0,0,0,0,2004/10/14,,,0,0,0,0,0,0.00,,Paperback,,0,0,,,Pearson School,,,,,0,,
15936501,,"Gods, Demons, and Others",,,,,ES,,The Viking Press,eng,false,13,148658,892,1299,314,22,1964/1/1,"Gods, Demons, and Others",book,121,129,52,10,2,4.14,141,Hardcover,,14,0,R.K. Narayan,R.K. Laxman,,,,,464,9,22,"classics,cultural,demons,fantasy,fiction,history,literature,mythology,non-fiction,novels,religion,retellings,short-stories"
15937001,9023002873,Geïllustreerde Encyclopedie van de Science Fiction,9789023002871,,,,ES,1979/1/1,Becht,nl,false,5,1505813,175,271,69,1,1977/1/1,The Visual Encyclopedia of Science Fiction,book,23,22,20,4,0,3.93,352,Paperback,,3,0,Brian Ash,,,,,,63,1,5,"anthologies,art,fantasy,fiction,film,history,horror,non-fiction,reference,science,science-fiction,science-fiction-fantasy"
15937501,0806647531,"Witness, Year Blue, Semester 1, Ages 2-3, Teacher Guide",9780806647531,,,,ES,,Augsburg Fortress Publishing,,false,1,15937501,0,0,0,0,,,book,0,0,0,0,0,0.00,,Paperback,,0,0,,,,,,,,0,,
15938001,0813619378,"Ready Readers, Stage 1, Book 4, the Party, 6 Pack",9780813619378,,,,ES,1998/1/9,Modern Curriculum Press,,false,1,15938001,0,0,0,0,1998/1/9,,,0,0,0,0,0,0.00,,Paperback,,0,0,,,Pearson School,,,,,0,,
15938501,0826110436,Chemistry and Physics for Nurse Anesthesia: A Student-Centered Approach,9780826110435,,,,ES,2013/3/15,Springer Publishing Company,,false,9,6617156,9,9,5,0,2009/6/1,Chemistry and Physics for Nurse Anesthesia: A Student Centered Approach,,1,0,0,0,4,1.80,493,Paperback,,2,0,"David Shubert,John Leyba",,,,,,2,0,,grad-school
15939001,0857630806,Dinosaur Zoom!. Penny Dale,9780857630803,,,,ES,2012/8/1,Nosy Crow,,false,5,15799016,396,823,234,46,2012/8/1,,book,43,65,100,22,4,3.52,32,Hardcover,,2,1,Penny Dale,,,,,,33,12,2,"childrens,fiction,juvenile,picture-books"
15940001,095507973X,So You Want to Go to Oxbridge?: Tell Me about a Banana--.,9780955079733,,,,ES,2012/8/1,Oxbridge Applications,,false,1,15940001,23,54,14,1,2012/8/1,,,5,3,5,1,0,3.86,260,Paperback,,14,1,Rachel Spedding,,,,,,1,0,,non-fiction
15940501,0980828848,Taking It with You,9780980828849,,,,ES,2012/8/17,Continuum Australia Pty Ltd,,false,2,15940501,448,106,25,12,2012/8/17,,book,14,5,4,2,0,4.24,204,Paperback,,20,11,Daniel Prokop,Karma Phuntsok,,,,,400,3,2,"contemporary,fiction,religion"
15941001,1111217440,American National Government,9781111217440,,,,ES,2010/2/5,Cengage Learning Company,,false,1,15941001,0,0,0,0,,,,0,0,0,0,0,0.00,,Paperback,,0,0,,,Columbia Coll,,,,,0,,
15941501,1118457374,Html5 for Dummies Elearning Course Access Code Card (6 Month Subscription),9781118457375,,,,ES,2012/10/23,For Dummies,,false,1,15941501,0,0,0,0,2012/8/7,,book,0,0,0,0,0,0.00,2,Paperback,,0,0,NOT A BOOK,,,,,,,0,,
15942001,1133730884,"Human Intimacy: Marriage, the Family, and Its Meaning",9781133730880,,,,ES,2013/2/2,Wadsworth Publishing Company,,false,18,96107,71,96,25,2,1980/6/1,"Human Intimacy: Marriage, the Family, and Its Meaning ",book,11,6,3,3,2,3.84,,Paperback,,0,0,Frank D. Cox,,,,,,27,0,4,feminism
15942501,1285170229,Microsoft Windows 8: Illustrated Introductory,9781285170220,,,,ES,2013/4/23,Cengage Learning,,false,2,15942501,0,0,0,0,2012/10/15,,book,0,0,0,0,0,0.00,224,Paperback,,0,0,Steve                Johnson,,,,,,,0,,
15943001,1406237884,Fearsome Forces of Nature,9781406237887,,,,ES,2012/7/1,Capstone Global Library Ltd,,false,5,14312407,4,10,2,0,2013/4/1,Fearsome Forces of Nature,book,2,0,0,0,0,5.00,32,Hardcover,,0,0,Anita Ganeri,,,,,,,0,,
15943501,1408151448,Idiomantics: The Weird and Wonderful World of Popular Phrases,9781408151440,,,,ES,2012/9/13,A&c Black Business Information and Development,,false,5,15943501,55,49,14,4,2012/1/1,,book,3,4,4,3,0,3.50,258,Hardcover,,14,4,"Peter Lewis,Philip Gooden",,,,,,32,3,3,"language,non-fiction"
15944001,1409441695,"Adapting Idols: Authenticity, Identity and Performance in a Global Television Format",9781409441694,,,,ES,2012/10/28,Routledge,,false,1,15944001,0,0,0,0,2012/11/1,,,0,0,0,0,0,0.00,252,Hardcover,,0,0,Koos Zwaan,,,,,,,0,,
15944501,1422222306,Sierra Leone,9781422222300,,,,ES,2013/1/1,Mason Crest Publishers,,false,3,3329282,15,19,5,2,2007/6/1,Sierre Leone (Africa: Continent in the Balance),,0,4,1,0,0,3.80,79,Paperback,,1,0,Judy L. Hasday,,,,,,9,0,,non-fiction
15945001,1430244070,"Advanced Social Media Marketing: How to Lead, Launch, and Manage a Successful Social Media Program",9781430244073,,,,ES,2012/12/7,Apress,,false,3,15945001,45,50,13,2,2012/11/7,,,2,8,2,1,0,3.85,256,Paperback,,13,2,Tom Funk,,,,,,24,0,2,"business,economics,non-fiction,self-help,social"
15945501,1433986752,Science vs. Animal Extinction,9781433986758,,,,ES,2013/1/1,Gareth Stevens Publishing,,false,5,15945501,4,4,1,0,2012/12/28,,,0,1,0,0,0,4.00,48,Hardcover,,1,0,Nick Hunter,,,,,,2,0,,
15946001,1444168606,"OCR Ict for As. Sonia Stuart, Glen Milberry",9781444168600,,,,ES,2012/6/1,Hodder Education,,false,1,15946001,0,0,0,0,2012/6/1,,,0,0,0,0,0,0.00,312,Paperback,,0,0,Sonia Stuart,,,,,,,0,,
15946501,1447111710,Quantitative Methods for Current Environmental Issues,9781447111719,,,,ES,2011/9/15,Springer,,false,2,15946501,0,0,0,0,2002/3/5,,,0,0,0,0,0,0.00,270,Paperback,,0,0,,,,"Clive W. Anderson,Philip C. Chatwin,Vic Barnett",,,,0,,
15947001,1448871832,The Arab-Israeli Conflict,9781448871834,,,,ES,2012/12/15,Rosen Central,,false,4,16604160,6,6,2,1,2012/9/1,,book,0,1,0,1,0,3.00,48,Hardcover,,0,0,Nicola Barber,,,,,,2,0,,
15947501,1452270619,"Public Policy: Politics, Analysis and Alternatives, 4th Edition Plus eBook Access",9781452270616,,,,ES,2012/7/24,CQ Press,,false,16,4232275,386,437,125,3,2003/8/1,"Public Policy: Politics, Analysis, and Alternatives",book,22,40,46,12,5,3.50,,,,1,1,"Michael E. Kraft,Scott R. Furlong",,,,,,124,5,35,"non-fiction,politics,reference,textbooks"
15948001,1457632721,Models for Writers 11e & Rules for Writers 7e,9781457632723,,,,ES,2012/3/6,Bedford/St. Martin's,,false,1,15948001,0,0,0,0,2012/3/6,,,0,0,0,0,0,0.00,,Unknown Binding,,0,0,"Alfred Rosa,Diana Hacker,Paul Eschholz",,,,,,,0,,
15948501,146142531X,Recoding: Expansion of Decoding Rules Enriches Gene Expression,9781461425311,,,,ES,2012/3/7,Springer,,false,5,21860380,0,0,0,0,2009/12/1,,book,0,0,0,0,0,0.00,466,Paperback,,0,0,,,,"John F. Atkins,Raymond F. Gesteland",,,,0,,
15949001,1469204452,Murder by Moonlight,9781469204451,,,,ES,2012/12/18,Brilliance Audio,,false,9,15954433,646,829,225,24,2012/12/1,Murder By Moonlight,book,52,87,59,17,10,3.68,,Audio CD,,0,0,Vincent Zandri,,,,,,311,7,51,"crime,fiction,horror,mystery,mystery-thriller"
15949501,1469249324,"Jesus, the One and Only",9781469249322,,,,ES,2013/3/1,Brilliance Audio,,false,36,214519,6865,12370,2755,116,2002/1/1,"Jesus, the One and Only",book,1776,651,256,46,26,4.49,,Audio CD,,0,0,Beth Moore,,,,,Laural Merlington,3145,26,397,"christian,christianity,faith,inspirational,non-fiction,religion,spirituality,theology"
15950001,1469266954,"Conspiracies (Repairman Jack, #3)",9781469266954,,,,ES,2013/1/22,Brilliance Audio,,false,18,62552,5643,16235,3963,172,1998/6/1,Conspiracies (Repairman Jack),book,1364,1741,747,99,12,4.10,,Audio CD,,0,0,F. Paul Wilson,,,,,,829,10,67,"action,adventure,contemporary,crime,detective,fantasy,fiction,horror,mystery,mystery-thriller,paranormal,science,science-fiction,science-fiction-fantasy,speculative-fiction,supernatural,suspense,thriller,urban-fantasy"
15950501,1471900061,The Memory Trap,9781471900068,,,,ES,2013/1/31,Murder Room,,false,7,3422227,89,175,48,3,1989/1/1,The Memory Trap,book,6,23,15,4,0,3.65,256,Paperback,,0,0,Anthony Price,,,,,,17,2,,"amazon,fiction,mystery,mystery-thriller,thriller"
15951001,1477700897,Native Americans of the Great Plains,9781477700891,,,,ES,2013/1/15,PowerKids Press,,false,5,15950966,3,4,1,1,2013/1/1,,,0,1,0,0,0,4.00,32,Paperback,,0,0,Meredith Costain,,,,,,2,0,,
15951501,1554723388,Entrance of the Queen of Sheba: Part(s),9781554723386,,,,ES,2009/1/1,Alfred Music,,false,12,16197095,0,0,0,0,1995/3/1,,,0,0,0,0,0,0.00,,Paperback,,0,0,,,,,,,,0,,
15952001,1554732492,"Spring: A New Beginning, Conductor Score & Parts",9781554732494,,,,ES,2008/9/1,Alfred Music,,false,1,15952001,0,0,0,0,2008/9/1,,,0,0,0,0,0,0.00,232,Paperback,,0,0,,,,,,,,0,,
15952501,1562703129,Hora de Compartir,9781562703127,,,,ES,2004/10/14,Dominie Press,,false,1,15952501,0,0,0,0,2004/10/14,,,0,0,0,0,0,0.00,,Paperback,,0,0,,,Pearson School,,,,,0,,
15953001,1567047394,Level 1 Home Kit Upgrade Second Edition Sing Spell Read and Write,9781567047394,,,,ES,2000/8/25,Modern Curriculum Press,,false,1,15953001,0,0,0,0,2000/8/25,,,0,0,0,0,0,0.00,,Paperback,,0,0,,,Pearson School,,,,,0,,
15953501,0547599811,Wonder Show,9780547599816,,,,ES,2012/3/20,Houghton Mifflin Harcourt,eng,true,5,12180226,5388,5971,1643,293,2012/1/1,Wonder Show,book,310,628,540,124,41,3.63,288,ebook,,9,6,Hannah Barnaby,,,,,,3399,41,39,"adventure,childrens,death,family,fantasy,fiction,historical,historical-fiction,history,literary-fiction,magical-realism,middle-grade,mystery,realistic-fiction,relationships,romance,teen,young-adult"
15954001,1606160826,A Fresh Anointing,9781606160824,,,,ES,2000/1/1,Faith Library Publications,,false,3,2767510,235,258,58,4,1989/6/1,A Fresh Anointing,,37,13,6,1,1,4.45,,Audio CD,,3,0,,,,,,,114,1,16,"faith,non-fiction"
15954501,1612186572,The Music Murders,9781612186573,,,,ES,2012/11/13,Thomas & Mercer,,false,2,18799811,41,47,20,1,2012/11/13,,book,1,2,6,5,6,2.35,160,Paperback,,9,1,Ilsa Mayr,,,,,,15,2,,"crime,mystery"
15955001,1620550830,Talking to the Spirits: Personal Gnosis in Pagan Religion,9781620550830,,,,ES,2013/2/23,Destiny Books,,false,4,15955001,133,183,45,10,2013/2/15,,,14,20,11,0,0,4.07,320,Paperback,,35,9,"Kenaz Filan,Raven Kaldera",,,,,,70,2,7,"adult,anthropology,mythology,non-fiction,paranormal,philosophy,religion,spirituality"
15955501,1780720912,The House on Paradise Street. Sofka Zinovieff,9781780720913,,,,ES,2012/8/1,Short Books,,false,11,13266636,752,1372,355,54,2012/1/1,,book,90,145,104,14,2,3.86,336,Paperback,,15,0,Sofka Zinovieff,,,,,,334,13,11,"amazon,european-literature,fiction,historical,historical-fiction,international,mystery,travel,unfinished"
15956001,1843178680,When the Earth Was Flat: All the Bits of Science We Got Wrong,9781843178682,,,,ES,2012/9/1,Michael O'Mara Books,eng,false,3,15956001,375,617,173,28,2012/1/1,,book,23,67,71,9,3,3.57,192,Hardcover,,133,21,Graeme Donald,,,,,,146,13,16,"comedy,essays,history,humor,non-fiction,science"
15956501,1846403774,West Country by Rail,9781846403774,,,,ES,2012/8/1,J Salmon Ltd,,false,1,15956501,0,0,0,0,2012/8/1,,,0,0,0,0,0,0.00,28,Spiral-bound,,0,0,J. Salmon,,,,,,,0,,
15957001,1848509502,Spirit Whisperer: Chronicles of a Medium. John Holland,9781848509504,,,,ES,2012/9/1,Hay House UK Ltd,,false,5,6969646,259,555,137,14,2010/1/1,,book,57,42,29,6,3,4.05,258,Paperback,,1,0,John Holland,,,,,,79,1,15,"autobiography,memoir,philosophy,psychology,spirituality"
15957501,1849543402,The Man Who Would Be Jack,9781849543408,,,,ES,2012/8/1,Robson Books,,false,3,15957501,75,123,33,10,2012/8/1,,,3,21,6,3,0,3.73,,Hardcover,,28,7,David Bullock,,,,,,11,1,,"crime,non-fiction,true-crime"
15958001,1857597850,"Senate House Library, University of London. Christopher Pressler",9781857597851,,,,ES,2012/9/1,Scala Books,,false,1,15958001,1,0,0,0,2012/9/1,,,0,0,0,0,0,0.00,80,Paperback,,0,0,Christopher Pressler,,,,,,,0,,
15958501,1903574994,Eolaiocht Bheo - 2nd Class Pupil's Book,9781903574997,,,,ES,2005/4/1,Gill Education,,false,1,15958501,0,0,0,0,2005/4/1,,,0,0,0,0,0,0.00,48,Paperback,,0,0,"Clíona Murphy,Helena Jeffrey",,,,,,,0,,
15959501,1908982063,The Story of the Famous Farter: Scented Storybook with Exhilarating Story and Gorgeous Illustrations,9781908982063,,,,ES,2012/8/1,Smellessence,,false,1,15959501,2,5,1,0,2012/8/1,,,1,0,0,0,0,5.00,28,Paperback,,1,0,David Boyle,,,,,,1,0,,
15960001,1936409003,2012 Interventional Radiology Coder,9781936409006,,,,ES,2012/1/1,Medical Learning,,false,1,15960001,0,0,0,0,2012/1/1,,,0,0,0,0,0,0.00,168,Spiral-bound,,0,0,MedLearn,,,,,,,0,,
15960501,3111775755,Die Bu B Cher Halitgars Von Cambrai Und Des Hrabanus Maurus: Ihre Berlieferung Und Ihre Quellen,9783111775753,,,,ES,,,,false,2,16363221,0,0,0,0,1980/1/1,,,0,0,0,0,0,0.00,,,,0,0,Raymund Kottje,,,,,,,0,,
15961001,3409196811,Selbst-Management: Wie Sie Zum Unternehmer Ihres Lebens Werden,9783409196819,,,,ES,1993/1/1,Gabler Verlag,,false,1,15961001,0,0,0,0,1993/1/1,,,0,0,0,0,0,0.00,90,Paperback,,0,0,Rolf Wabner,,,,,,,0,,
15962001,3531073796,Geisteswissenchaften: Vortrage . G 379,9783531073798,,,,ES,2001/1/1,Vs Verlag Fur Sozialwissenschaften,,false,1,15962001,0,0,0,0,2001/1/1,,,0,0,0,0,0,0.00,50,Paperback,,0,0,Klaus Bergdolt,,,,,,,0,,
15962501,3631514530,Didactic Organization of Teaching and Learning Processes: A Textbook for Schools and Adult Education,9783631514535,,,,ES,2003/12/3,"Peter Lang Gmbh, Internationaler Verlag Der Wissenschaften",,false,1,15962501,3,3,1,0,2003/12/3,,,0,0,1,0,0,3.00,200,Paperback,,1,0,"Klaus H. Götz,Peter Hafner",,,,,,2,0,,education
15963001,3642640206,Distributed Constraint Satisfaction: Foundations of Cooperation in Multi-Agent Systems,9783642640209,,,,ES,2011/10/2,Springer,,false,3,15963001,2,4,1,0,2000/11/27,,,0,1,0,0,0,4.00,143,Paperback,,1,0,Makoto Yokoo,,,,,,1,0,,
15963501,3642647626,Improving Drug Safety a Joint Responsibility,9783642647628,,,,ES,2011/9/26,Springer,,false,4,15963501,1,0,0,0,1991/1/1,,,0,0,0,0,0,0.00,338,Paperback,,0,0,,,,"Bruno Horisberger,Kenneth W. Tolo,Rolf E. Dinkel",,,,0,,
15964001,3824441780,Bindung Und Trennung: Fruhkindliche Bewaltigungsstrategien Bei Kurzen Trennungen Von Der Mutter,9783824441785,,,,ES,1995/3/1,Deutscher Universitatsverlag,,false,1,15964001,0,0,0,0,1995/3/1,,,0,0,0,0,0,0.00,238,Paperback,,0,0,Va H. Derv Ri,,,,,,,0,,
15964501,3906760308,Unity and Diversity in the New Europe,9783906760308,,,,ES,2000/9/27,"Peter Lang Gmbh, Internationaler Verlag Der Wissenschaften",,false,2,15964501,0,0,0,0,2000/9/27,,,0,0,0,0,0,0.00,384,Paperback,,0,0,,,,"Barry Axford,Daniela Berghahn,Nick Hewlett",,,,0,,
15965001,5511848263,Veatrice Rice,9785511848266,,,,ES,2013/1/25,Book on Demand Ltd.,,false,1,15965001,0,0,0,0,2012/3/9,,,0,0,0,0,0,0.00,138,Paperback,,0,0,,,,"Jesse Russell,Ronald Cohn",,,,0,,
15965501,5512316265,Something Quite Peculiar,9785512316269,,,,ES,2013/1/23,Book on Demand Ltd.,,false,1,15965501,0,0,0,0,2012/1/12,,,0,0,0,0,0,0.00,68,Paperback,,0,0,,,,"Jesse Russell,Ronald Cohn",,,,0,,
15966001,5512355058,Wied's Marmoset,9785512355053,,,,ES,2012/2/17,Book on Demand Ltd.,,false,1,15966001,0,0,0,0,2012/2/17,,,0,0,0,0,0,0.00,82,Paperback,,0,0,,,,"Jesse Russell,Ronald Cohn",,,,0,,
15966501,5512381377,Toni Hagen,9785512381373,,,,ES,2013/1/15,Book on Demand Ltd.,,false,1,15966501,0,0,0,0,2012/2/2,,,0,0,0,0,0,0.00,52,Paperback,,0,0,,,,"Jesse Russell,Ronald Cohn",,,,0,,
15967001,5512409476,University of Jordan,9785512409473,,,,ES,2013/1/31,Book on Demand Ltd.,,false,1,15967001,0,0,0,0,2012/1/2,,,0,0,0,0,0,0.00,92,Paperback,,0,0,,,,"Jesse Russell,Ronald Cohn",,,,0,,
15967501,5512429868,Sinclair Cambridge,9785512429860,,,,ES,2013/1/16,Book on Demand Ltd.,,false,1,15967501,0,0,0,0,2012/6/20,,,0,0,0,0,0,0.00,158,Paperback,,0,0,,,,"Jesse Russell,Ronald Cohn",,,,0,,
15968001,5512466364,Vidar Leif Haanes,9785512466360,,,,ES,2013/1/8,Book on Demand Ltd.,,false,1,15968001,0,0,0,0,2012/4/26,,,0,0,0,0,0,0.00,106,Paperback,,0,0,,,,"Jesse Russell,Ronald Cohn",,,,0,,
15968501,5512517171,Snapstream Server,9785512517178,,,,ES,2013/1/20,Book on Demand Ltd.,,false,1,15968501,0,0,0,0,2012/7/27,,,0,0,0,0,0,0.00,88,Paperback,,0,0,,,,"Jesse Russell,Ronald Cohn",,,,0,,
15969001,5512542680,Sonia Bompastor,9785512542682,,,,ES,2013/1/6,Book on Demand Ltd.,,false,1,15969001,0,0,0,0,2012/1/31,,,0,0,0,0,0,0.00,66,Paperback,,0,0,,,,"Jesse Russell,Ronald Cohn",,,,0,,
15969501,5512569546,Uganda Clawed Frog,9785512569542,,,,ES,2013/1/15,Book on Demand Ltd.,,false,1,15969501,0,0,0,0,2012/4/14,,,0,0,0,0,0,0.00,88,Paperback,,0,0,,,,"Jesse Russell,Ronald Cohn",,,,0,,
15970001,5512595172,In the Heights,9785512595176,,,,ES,2013/1/4,Book on Demand Ltd.,,false,1,15970001,0,0,0,0,2012/2/6,,,0,0,0,0,0,0.00,92,Paperback,,0,0,,,,"Jesse Russell,Ronald Cohn",,,,0,,
15970501,5512618903,Jumpman,9785512618905,,,,ES,2013/1/1,Book on Demand Ltd.,,false,1,15970501,0,0,0,0,2012/7/22,,,0,0,0,0,0,0.00,88,Paperback,,0,0,,,,"Jesse Russell,Ronald Cohn",,,,0,,
15971001,5512642715,Cut (Advertisement),9785512642719,,,,ES,2013/1/28,Book on Demand Ltd.,,false,1,15971001,0,0,0,0,2012/4/4,,,0,0,0,0,0,0.00,98,Paperback,,0,0,,,,"Jesse Russell,Ronald Cohn",,,,0,,
15971501,5512667629,Carlton House Terrace,9785512667620,,,,ES,2012/1/11,Book on Demand Ltd.,,false,1,15971501,0,0,0,0,2012/1/11,,,0,0,0,0,0,0.00,112,Paperback,,0,0,,,,"Jesse Russell,Ronald Cohn",,,,0,,
15972001,5512692070,Crocotta,9785512692073,,,,ES,2013/1/8,Book on Demand Ltd.,,false,1,15972001,0,0,0,0,2012/3/29,,,0,0,0,0,0,0.00,92,Paperback,,0,0,,,,"Jesse Russell,Ronald Cohn",,,,0,,
15972501,5512722573,Abe Lincoln in Illinois (Film),9785512722572,,,,ES,2013/1/16,Book on Demand Ltd.,,false,1,15972501,0,0,0,0,2012/1/19,,,0,0,0,0,0,0.00,92,Paperback,,0,0,,,,"Jesse Russell,Ronald Cohn",,,,0,,
15973001,5512747924,Channel Awesome,9785512747926,,,,ES,2013/1/7,Book on Demand Ltd.,,false,1,15973001,0,0,0,0,2012/7/1,,,0,0,0,0,0,0.00,126,Paperback,,0,0,,,,"Jesse Russell,Ronald Cohn",,,,0,,
15973501,5512774506,James Freney,9785512774502,,,,ES,2013/1/1,Book on Demand Ltd.,,false,1,15973501,0,0,0,0,2012/3/2,,,0,0,0,0,0,0.00,82,Paperback,,0,0,,,,"Jesse Russell,Ronald Cohn",,,,0,,
15974001,5512797077,Keystone State Park (Pennsylvania),9785512797075,,,,ES,2013/1/12,Book on Demand Ltd.,,false,1,15974001,0,0,0,0,2012/7/26,,,0,0,0,0,0,0.00,26,Paperback,,0,0,,,,"Jesse Russell,Ronald Cohn",,,,0,,
15974501,5512819232,Karma Yoga,9785512819234,,,,ES,2013/1/5,Book on Demand Ltd.,,false,1,15974501,1,0,0,0,2012/2/22,,,0,0,0,0,0,0.00,48,Paperback,,0,0,,,,"Jesse Russell,Ronald Cohn",,,1,0,,
15975001,6029458051,Suker: Antologi 8 Fiksi,9786029458053,,,,ES,2012/1/1,Universal Nikko,,false,1,15975001,14,25,7,3,2012/1/1,,book,2,1,3,1,0,3.57,154,Paperback,,7,3,,,Donatus A. Nugroho,,,,5,0,,
15975501,6077953040,El Oficio de Soanarse Otras: Gracia Pasquel,9786077953043,,,,ES,,,,false,1,15975501,0,0,0,0,,,,0,0,0,0,0,0.00,,,,0,0,Gracia Pasquel,,,,,,,0,,
15976501,8415274920,de La Crisis Econaomica En Espaana y Sus Remedios,9788415274926,,,,ES,,,,false,1,15976501,0,0,0,0,,,,0,0,0,0,0,0.00,,,,0,0,José María Serrano Sanz,,,,,,,0,,
15977001,8492754133,Derecho Internacional de Los Derechos Humanos,9788492754137,,,,ES,2011/1/1,Dilex,,false,1,15977001,0,0,0,0,2011/1/1,,,0,0,0,0,0,0.00,892,Hardcover,,0,0,,,Carlos Fernández de Casadevante,,,,,0,,
15977501,8535246789,Fotografia Digital de Paisagens,9788535246780,,,,ES,2011/7/28,Focal Press,,false,5,9111438,2,0,0,0,2009/8/31,,,0,0,0,0,0,0.00,216,Paperback,,0,0,Barbara Gerlach,,,,,,1,0,,
15978501,9264171460,Energy Policies of Iea Countries: Ireland 2012,9789264171466,,,,ES,2012/10/1,Organization for Economic Co-Operation & Development,,false,1,15978501,1,0,0,0,2012/10/1,,,0,0,0,0,0,0.00,160,Paperback,,0,0,,,,Organisation for Economic Co-operation and Development,,,1,0,,
15979001,9506948895,Esa mirada y otros cuentos,9789506948894,,,,ES,2011/1/1,Grupo Editor Latinoamericano,,false,1,15979001,0,0,0,0,2011/1/1,,book,0,0,0,0,0,0.00,164,Paperback,,0,0,Félix Bombarolo,,,,,,,0,,
15979501,9871803052,El Argentino de Oro: Una Vida de Gabriel Iturri,9789871803057,,,,ES,,,,false,1,15979501,3,3,1,0,,,book,0,0,1,0,0,3.00,,,,1,0,Carlos Paaez De La Torre,,,,,,2,0,,
15980001,0615778062,"Night Blade (Colbana Files, #2)",9780615778068,,,,ES,2013/3/4,"Shiloh Walker, Inc",eng,false,6,15980001,5046,11744,2820,244,2012/3/4,Night Blade,book,1199,1066,420,90,45,4.16,264,Paperback,,2400,203,J.C. Daniels,,,,,,1610,47,59,"abuse,action,adult,fantasy,fiction,magic,mystery,paranormal,romance,shapeshifters,supernatural,suspense,thriller,urban-fantasy,vampires,werewolves,witches"
15980501,,По следам Лейва Счастливого,,,,,ES,1969/1/1,Гидрометеоиздат,rus,false,3,985670,117,130,35,5,1969/1/1,"The Viking Discovery of America: The Excavation of a Norse Settlement in L'Anse Aux Meadows, Newfoundland",book,6,15,12,2,0,3.71,272,,,1,0,"Helge Ingstad,Хельге Ингстад",,,,,,67,2,1,"american-history,historical,history,non-fiction"
15981001,1459238915,What a Cowboy Wants,9781459238916,,,,ES,2012/9/1,Harlequin,,true,6,15981001,38,40,12,0,2012/1/1,,book,2,2,6,2,0,3.33,,ebook,,9,0,Lauri Robinson,,,,,,15,3,3,"fiction,harlequin"
15981501,0307824861,"Hoof Beat (Saddle Club, #9)",9780307824868,,,,ES,2012/9/26,Delacorte Books for Young Readers,,true,17,1207062,793,1617,441,10,1990/1/1,"Hoof Beat (Saddle Club, #9)",book,106,123,175,33,4,3.67,144,ebook,,1,0,Bonnie Bryant,,,,,,142,21,,"animals,childrens,fiction,juvenile,literature,middle-grade,young-adult"
15982001,,Not With a Whimper,,,,,ES,,,,true,1,15982001,21,3,1,0,2011/9/20,,book,0,0,1,0,0,3.00,,Kindle Edition,,1,0,Sheryl Nantus,,,,,,20,1,,
15982501,,Star Wars: Námluvy princezny Leiy,9788025205037,,,,ES,2007/1/1,Egmont,cze,false,32,161540,17853,44670,12431,434,1994/4/1,Star Wars: The Courtship of Princess Leia ,book,2869,3869,3904,1348,441,3.59,271,Mass Market Paperback,,5,0,Dave Wolverton,,,,,,2474,52,109,"action,adult,adult-fiction,adventure,aliens,fantasy,fiction,novels,romance,science,science-fiction,science-fiction-fantasy,speculative-fiction,young-adult"
15983001,,The Man Behind the Scars,,B00835TNWA,,,ES,2012/8/1,Harlequin,en-US,true,19,13546861,867,1370,388,47,2012/1/1,,book,78,123,130,41,16,3.53,192,Kindle Edition,,42,0,Caitlin Crews,,,,,,327,3,26,"contemporary,family,fiction,harlequin,romance"
15983501,9059560833,Geniaal : uitvindingen die onze wereld veranderden,9789059560833,,,,ES,2004/1/1,Fontaine Uitgevers,,false,3,1039925,78,111,29,3,2004/1/1,Book of Inventions (National Geographic),,8,11,7,3,0,3.83,288,Hardcover,,1,0,Ian Harrison,,,,,,39,2,1,"history,non-fiction,reference,science"
15984001,,"Blood And Circuses (Phryne Fisher, #6)",,B006WOEVIA,,,ES,2012/1/11,Poisoned Pen Press,eng,true,7,1339023,7645,16959,4462,394,1994/1/1,Blood and Circuses,book,1098,1719,1336,276,33,3.80,225,Kindle Edition,,519,28,Kerry Greenwood,,,,,,305,78,85,"adult,adventure,chick-lit,cozy-mystery,crime,detective,fiction,historical,historical-fiction,history,murder-mystery,mystery,mystery-thriller,novels"
15984501,0316230677,"I Say, You Say Animal Sounds!",9780316230674,,,,ES,2012/12/3,LB Kids,,true,2,13526159,131,244,62,8,2012/9/11,,,17,27,15,3,0,3.94,18,ebook,,0,0,Tad Carpenter,,,,,,30,14,,"animals,childrens,picture-books"
15985001,8484079694,Jovenes Testigos de Cristo: Ejemplos de vida y fe en nuestro tiempo,9788484079699,,,,ES,2012/7/3,Edibesa,,false,1,15985001,1,0,0,0,2012/7/3,,,0,0,0,0,0,0.00,356,Paperback,,0,0,Jose Maria Montiu de Nuix,,,,,,1,0,,
15985501,,The Life of Sir William Harcourt. Volume II (1886-1904),,,,,ES,1923/1/1,Constable,eng,false,5,15985501,4,0,0,0,1923/1/1,,book,0,0,0,0,0,0.00,670,Hardcover,First Edition,0,0,Alfred George Gardiner,,,,,,2,0,,victorian
15986001,0310286409,Shells 020---Rob Bell Discussion Guide (5-Pack),9780310286400,,,,ES,,,,false,1,15986001,3,5,1,0,,,,1,0,0,0,0,5.00,,,,1,0,Anonymous,,,,,,2,0,,
15986501,0521619599,English Pronunciation in Use Advanced,9780521619592,,,,ES,2008/10/1,,,false,6,1126062,264,157,43,1,2007/1/25,,book,14,12,9,4,4,3.65,,Paperback,Pack with Audio Cassettes,0,0,Martin Hewings,,,,,,182,3,11,"contemporary,education,language,non-fiction,reference,textbooks"
15987501,0800624459,Social History of the Matthean Community: Cross-Disciplinary Approaches,9780800624453,,,,ES,1991/8/1,Augsburg Fortress Publishing,,false,1,15987501,3,0,0,0,1991/12/12,,,0,0,0,0,0,0.00,286,Hardcover,,0,0,,,,David L. Balch,,,3,1,,
15988001,0806615923,"Our Cosmic Journey: Christian Anthropology in the Light of Current Trends in the Sciences, Philosophy and Theology",9780806615929,,,,ES,1977/1/1,Augsburg Fortress Publishing,,false,1,15988001,3,0,0,0,1977/1/1,,book,0,0,0,0,0,0.00,379,Paperback,,0,0,Hans Schwarz,,,,,,1,0,,theology
15988501,0806629827,"Come, Lord Jesus",9780806629827,,,,ES,2003/5/1,Augsburg Fortress Publishing,,false,2,15988501,4,0,0,0,1996/1/8,,,0,0,0,0,0,0.00,64,Paperback,,0,0,Susan Briehl,,,,,,2,0,,christmas
15989001,,The Imam: Terror Unleashed,,B00959YGMA,,,ES,2012/9/2,Brighton Publishing,en-GB,true,1,15989001,10,28,6,4,2012/9/2,,book,5,0,1,0,0,4.67,,Kindle Edition,1st Edition,6,4,K.A. Pierce,,,,,,3,0,,
15989501,1435233808,Kissing the Rain,,,,,ES,,,,false,19,392018,2915,4767,1429,113,2004/3/1,Kissing The Rain,book,266,406,414,228,115,3.34,,,,0,0,Kevin Brooks,,,,,,1021,15,39,"adult,british-literature,childrens,contemporary,crime,fiction,juvenile,mental-health,mystery,realistic-fiction,teen,young-adult"
15990001,,Memorias de una prostitta,9788493992729,,,,ES,2012/4/19,Sepha,spa,false,1,15990001,8,12,3,0,2011/9/15,Memorias de una prostituta,book,1,1,1,0,0,4.00,250,Hardcover,2º edición,3,0,Anne Smithh,,,,,,5,0,,
15990501,883848838X,Paura tra i cowboy. Scooby-Doo!,9788838488382,,,,ES,2008/1/1,Piemme,ita,false,3,3410694,195,251,71,9,2001/11/1,Scooby-Doo! and the Rowdy Rodeo,book,19,12,28,12,0,3.54,81,Paperback,,1,0,James Gelsey,,,,,,80,10,1,"animals,chapter-books,childrens,fantasy,fiction,horror,humor,mystery,novels,sports,teaching"
15991001,,Die Magischen Werke,,,,,ES,2008/7/10,marixverlag,ger,false,3,6331006,13,18,4,0,1533/1/1,De occulta philosophia libri tres,book,2,2,0,0,0,4.50,765,Hardcover,,2,0,Cornelius Agrippa,,,Marco Frenschkowski,,,7,0,1,philosophy
15991501,,Era zawirowań: krok w nowy wiek,9788374954518,,,,ES,2008/1/1,Warszawskie Wydawnictwo Literackie MUZA SA,pol,false,37,1215358,11319,22663,6274,595,2007/1/1,The Age of Turbulence: Adventures in a New World,book,1194,2304,2081,539,156,3.61,583,Hardcover,,1,0,Alan Greenspan,,,,"Adrian Krajewski,Joanna Radkiewicz,Piotr Skolimowski,Tomasz Krzyżanowski",,3594,16,477,"american,american-history,autobiography,biography,biography-memoir,business,economics,history,leadership,memoir,non-fiction,philosophy,politics"
15992001,,Apostle Rising,1230000015243,,,,ES,,,eng,true,3,10505378,189,227,52,26,2011/3/10,,book,37,5,4,4,2,4.37,,ebook,,0,0,Richard Godwin,,,,,,120,4,8,"crime,fiction,horror,mystery,mystery-thriller,novels,suspense,thriller"
15992501,4063727459,Hotel,9784063727456,,,,ES,2008/10/23,Kodansha,jpn,false,7,6666487,476,1184,310,39,2006/1/1,Hotel,book,97,106,71,26,10,3.82,178,,,87,10,Boichi,,,,,,115,7,2,"comics,drama,fantasy,fiction,graphic-novels,history,horror,manga,mystery,post-apocalyptic,romance,science-fiction,young-adult"
15993001,,Jar v raji,9788089233441,,,,ES,2010/1/1,Petrus,slo,false,1,15993001,0,0,0,0,2010/1/1,Jar v raji ,book,0,0,0,0,0,0.00,64,Hardcover,,0,0,Emil Babín,,,,,,,0,,
15993501,,"Palace of Stone (Princess Academy, #2)",,B007N6JDN4,,,ES,2012/8/21,Bloomsbury USA,eng,true,22,12926132,38088,75366,19014,2288,2012/8/21,Palace of Stone,book,5818,7728,4568,760,140,3.96,337,Kindle Edition,,723,31,Shannon Hale,,,,,,15128,159,395,"adventure,chapter-books,chick-lit,childrens,fairy-tales,family,fantasy,fiction,high-fantasy,historical,historical-fiction,juvenile,magic,middle-grade,politics,relationships,romance,teen,young-adult"
15994001,9812686118,Advanced Mandarin Chinese,9789812686114,,,,ES,2009/12/15,Berlitz Publishing,,false,1,15994001,1,5,1,0,2009/12/15,,,1,0,0,0,0,5.00,,Audio CD,,1,0,Berlitz Publishing Company,,,,,,,0,,
15994501,,Systematic Pluralism: A Study in Metaphysics,,,,,ES,1961/1/1,Cornell University Press,eng,false,1,15994501,2,0,0,0,1961/1/1,,book,0,0,0,0,0,0.00,195,Hardcover,,0,0,Henry Alonzo Myers,,,,,,1,0,1,
15995001,,Where to Find Geek Girls: Level Up Your Life,,B007PM13A2,,,ES,2012/3/28, Palmyran Rebels,en-GB,true,1,15995001,8,3,1,0,2012/3/28,,book,0,0,1,0,0,3.00,58,Kindle Edition,,1,0,Chris-Rachael Oseland,,,,,,6,0,,
15995501,0578112175,"The Stereotypical Freaks (Forever Friends, #1)",9780578112176,,,,ES,2012/11/4,Animal Media Group,eng,false,4,15995501,1671,896,223,152,2012/11/4,"The Stereotypical Freaks (Forever Friends, #1)",book,79,90,38,11,5,4.02,154,Paperback,,212,144,Howard  Shapiro,,,,,,1400,21,1,"comics,contemporary,fiction,graphic-novels,high-school,manga,music,realistic-fiction,school,young-adult"
15996001,0987780158,Terra Nueva (The Terra Trilogy Book 3),9780987780157,,,,ES,2012/9/15,Twisted Root Publishing,,false,3,21678244,3,14,3,1,2012/9/1,,book,2,1,0,0,0,4.67,250,Paperback,,1,1,Karen L. Abrahamson,,,,,,,0,,
15996501,,Nägemata ilmad,9789985998205,,,,ES,2009/1/1,NyNorden,est,false,1,15996501,6,12,3,0,2009/1/1,,book,1,1,1,0,0,4.00,60,Paperback,,3,0,Kätlin Kaldmaa,Kärt Kukkur,,,,,1,0,,
15997001,8501095753,Zumbis X Unicórnios,9788501095756,,,,ES,2012/1/1,Galera Record,por,false,29,7171748,32002,46309,12431,1871,2010/9/1,Zombies vs. Unicorns,book,3215,4429,3355,1021,411,3.73,388,Paperback,,111,5,Holly Black,,,,Rodrigo Abreu,,16790,106,464,"action,adult,adventure,anthologies,collections,comedy,contemporary,dystopia,fantasy,fiction,funny,horror,humor,lgbt,magic,mythology,paranormal,post-apocalyptic,romance,science-fiction,short-stories,supernatural,teen,unfinished,urban-fantasy,young-adult,zombies"
15997501,0007322569,The Silmarillion,9780007322565,,,,ES,2010/1/16,HarperCollins,eng,true,373,7332,338971,725974,185787,6763,1977/1/1,The Silmarillion,book,69530,55219,40786,14838,5414,3.91,480,ebook,Centenary,39,6,J.R.R. Tolkien,,,Christopher Tolkien,,,106083,524,15953,"adult,adult-fiction,adventure,british-literature,classics,english-literature,epic,epic-fantasy,fantasy,fiction,high-fantasy,history,literature,magic,mythology,novels,science-fiction,science-fiction-fantasy,short-stories,speculative-fiction,unfinished"
15998001,,Monument,9782820500618,,,,ES,2010/11/24,Bragelonne,fre,true,12,617505,705,1123,307,29,2002/1/1,Monument,book,71,120,74,24,18,3.66,602,ebook,,1,0,Ian  Graham,,,,,,281,12,7,"adventure,dark,epic-fantasy,fantasy,fiction,magic,paranormal,science-fiction,speculative-fiction"
15998501,,Kai karalius žlugdo Prancūziją,9789986062820,,,,ES,2007/1/1,Žaltvykslė,lit,false,45,99495,4933,9011,2597,179,1977/1/1,Quand un roi perd la France,book,615,669,771,405,137,3.47,301,,,2,0,Maurice Druon,,,,,,1627,11,142,"classics,cultural,fantasy,fiction,france,historical,historical-fiction,history,literature,medieval,politics"
15999001,,Life at the Bottom,0514600270607,,,,ES,1971/5/1,Bantam Books,eng,false,1,15999001,3,3,1,0,1971/5/1,,book,0,0,1,0,0,3.00,352,Paperback,,1,0,,,,Gregory Armstrong,,,1,0,,
15999501,1938477081,The Yoga Sutras of Patanjali,9781938477089,,,,ES,2012/9/14,Integral Yoga Publications,,false,13,56305,15823,28729,6517,189,1950/1/1,The Yoga Sutras of Patanjali,book,3780,1836,727,130,44,4.41,272,Paperback,,1,1,Swami Satchidananda,,,,,,7266,20,1172,"adult,classics,health,history,non-fiction,personal-development,philosophy,poetry,psychology,reference,religion,school,self-help,spirituality,unfinished"
16000001,0226922316,Childhood,9780226922317,,,,ES,2013/3/15,University of Chicago Press,,false,31,405452,2883,5146,1401,58,1983/1/1,Enfance,book,358,486,366,123,68,3.67,264,Paperback,,11,1,Nathalie Sarraute,,,,,,1071,10,37,"autobiography,biography,classics,college,fiction,france,literature,memoir,non-fiction,novels,school"
16000501,812.52O586,مسرحية التيه,,,,,ES,1959/1/1, مكتبة الانجلو المصرية,ara,false,14,362000,1155,2570,705,30,1934/1/1,"Ah, Wilderness!",book,146,255,229,58,17,3.65,142,Audiobook,,0,0,,,,,,,327,17,5,"american,classics,comedy,drama,fiction,high-school,historical-fiction,plays,school,theatre"
16001001,8865590785,Ovunque io sia,9788865590782,,,,ES,2012/3/1,BEAT,ita,false,7,13722975,180,282,69,14,2008/1/1,Ovunque io sia,book,24,27,18,0,0,4.09,608,Paperback,,19,4,Romana Petri,,,,,,86,2,5,
16002001,0983006261,The Terrorist Next Door,9780983006268,,,,ES,2012/8/31,"Sheldon M. Siegel, Inc.",en-US,false,8,16158200,1795,3463,881,67,2012/8/22,The Terrorist Next Door,book,310,303,187,59,22,3.93,384,Paperback,,26,10,Sheldon Siegel,,,,,,420,12,251,"contemporary,crime,fiction,mystery,politics,social-issues,suspense,thriller"
16002501,,White Wings Around the World,,,,,ES,1953/9/1,Ryerson Press,eng,false,1,16002501,3,3,1,1,1953/1/1,White Wings Around the World,book,0,0,1,0,0,3.00,187,Hardcover,First,1,1,Donald M. Green,,,,,,2,0,,"memoir,travel"
16003001,,Норвежский лес,,,,,ES,2009/1/1,Эксмо,rus,false,260,11297,475417,1094902,271735,15996,1987/1/1,ノルウェイの森 [Noruwei no Mori],book,96104,107959,50917,13040,3715,4.03,368,Hardcover,,6,0,Haruki Murakami,,,,,,147727,733,11211,"adult,adult-fiction,classics,contemporary,cultural,drama,fiction,literary-fiction,literature,love,magical-realism,mental-health,mental-illness,modern,novels,relationships,romance,unfinished,young-adult"
16003501,8926313859,"ZEN 마경무인학원 2 (Zen Martial Arts Academy, #2)",9788926313855,,,,ES,2010/8/25,서울문화사,kor,false,1,16003501,39,36,11,0,2010/8/25,ZEN 마경무인학원 2,book,2,2,5,1,1,3.27,202,Paperback,,11,0,"Joon-Hyung Kim,김준형,타이보기",Taibogi,,,,,19,1,1,"fantasy,manga"
16004001,0982469799,I Am Holding Your Hand,9780982469798,,,,ES,2013/1/1,PANK,,false,2,16004001,349,170,37,9,2013/1/1,,book,25,9,3,0,0,4.59,192,Paperback,,35,9,Myfanwy Collins,,,,,,295,3,1,"fiction,short-stories"
16004501,8086095002,Osobnosti plus,,,,,ES,1997/1/1,Medium,cze,false,28,319286,18318,35332,8425,425,1983/1/1,Personality Plus: How to Understand Others by Understanding Yourself,book,4146,2394,1381,379,125,4.19,230,Paperback,,9,0,Florence Littauer,,,,,,5260,3,191,"business,christian,christianity,education,inspirational,leadership,marriage,non-fiction,parenting,personal-development,psychology,reference,relationships,science,self-help"
16005001,,Scary Stories 3: More Tales to Chill Your Bones,9780545385077,,,,ES,2011/9/1,"Scholastic, Inc.",eng,false,26,397150,17317,44903,10666,445,1991/1/1,Scary Stories 3: More Tales to Chill Your Bones,book,5370,2858,1896,391,151,4.21,109,Paperback,Scholastic School Market,23,2,Alvin Schwartz,Brett Helquist,,,,,4492,73,127,"anthologies,art,childrens,classics,dark,fantasy,fiction,ghosts,horror,juvenile,middle-grade,mystery,paranormal,short-stories,supernatural,suspense,thriller,young-adult"
16005501,,Loves' story,9789650720476,,,,ES,2012/1/1,keter books,heb,false,2,16005501,34,72,21,2,2012/1/1, סיפור אהבות,book,1,9,10,0,1,3.43,357,Paperback,,11,2,Kinneret Rosenbloom,,,,,,5,0,1,
16006001,8879070436,Il sussurro della donna balena,9788879070430,,,,ES,2008/1/1,Cavallo di Ferro,ita,false,6,1613740,289,622,187,22,2007/1/1,El susurro de la mujer ballena,book,25,55,74,22,11,3.33,240,Paperback,,2,1,Alonso Cueto,,,,Luca Quadrio,,52,5,3,"contemporary,drama,fiction,realistic-fiction"
16006501,,Sügise süda,9789949444175,,,,ES,2008/1/1,Eesti Ekspressi Kirjastus,est,false,1,16006501,2,8,2,0,2008/1/1,,book,1,0,1,0,0,4.00,49,Hardcover,,2,0,Heljo Mänd,,,,,,,0,,
16007001,,Going Donuts For Paczki: Easy and Delicious Family Recipes,,B0070NJ196,,,ES,2012/1/21,"Amazon Digital Services, Inc.",en-GB,true,2,16007001,76,78,21,1,2012/1/21,,book,3,10,7,1,0,3.71,37,Kindle Edition,,21,1,Kathy E. Gary,,,,,,33,2,2,"amazon,cookbooks,cooking"
16007501,,Pasta,,,,,ES,,,,false,1,16007501,1,0,0,0,,,book,0,0,0,0,0,0.00,,,,0,0,Marks & Spencer,,,,,,,0,,cookbooks
16008001,8863041806,Doktor Sleepless Vol. 2: Il tuo amico immaginario,9788863041804,,,,ES,2012/9/1,Panini Comics,ita,false,1,16008001,17,38,9,0,2012/9/1,,book,4,3,2,0,0,4.22,112,Paperback,100% Panini Comics,9,0,"Ivan Rodriguez,Warren Ellis",,,,,,5,0,,fantasy
16008501,995325060X,شرح المعلقات العشر,,,,,ES,1994/1/1,دار الفكر العربي,ara,false,1,16008501,15,20,7,1,1994/1/1,شرح المعلقات العشر,book,2,1,0,2,2,2.86,144,,الطبعة الأولى,7,1,يحيى شامي,,,,,,10,0,,poetry
16009001,8484287025,Dime. Treinta cuentos,9788484287025,,,,ES,2012/1/1,Alba Editorial,spa,false,8,384304,556,913,227,23,2002/1/1,Tell Me: 30 Stories,book,83,82,49,10,3,4.02,320,Paperback,,3,0,Mary Robison,,,,Javier Montes,,270,7,9,"fiction,literary-fiction,short-stories,unfinished,writing"
16009501,,Осиная Фабрика,,,,,ES,2008/1/1,Домино,rus,false,40,567678,112246,231786,60431,3722,1984/1/1,The Wasp Factory,book,17925,22794,13463,4347,1902,3.84,256,Hardcover,,42,1,"Iain Banks,Иэн Бэнкс",,,,,,12816,358,404,"adult,adult-fiction,british-literature,classics,contemporary,crime,dark,drama,fantasy,fiction,gothic,horror,literary-fiction,literature,mental-illness,modern,modern-classics,mystery,mystery-thriller,novels,science-fiction,suspense,thriller"
16010501,,"Joan Foster, Senior",,,,,ES,1950/1/1,"Dodd, Mead & Company",eng,false,1,16010501,7,9,2,0,1950/1/1,"Joan Foster, Senior",book,1,1,0,0,0,4.50,211,Hardcover,,2,0,Alice Ross Colver,,,,,,4,0,,
16011001,9026320949,Het verdriet van Italie: het oorlogsjaar 1944-1945,9789026324512,,,,ES,2008/1/1,Ambo,nl,true,7,2263409,517,730,173,16,2008/1/1,"Italy's Sorrow: A Year of War, 1944--1945",book,72,73,22,6,0,4.22,621,ebook,,2,0,James Holland,,,,Corrie van den Berg,,215,4,22,"amazon,american-history,history,non-fiction,war"
16011501,904852105X,"Lard, Lice and Longevity",9789048521050,,,,ES,2014/5/14,Amsterdam University Press,,true,1,16011501,1,4,1,1,,,,0,1,0,0,0,4.00,264,ebook,,1,1,R. Futselaar,,,,,,,0,,
16012001,,Tranen van de woestijn,9789045801308,,,,ES,2009/4/22,Atlas-Contact,nl,true,37,3170677,11932,14688,3523,305,2008/9/9,Tears of the Desert: A Memoir of Survival in Darfur,book,1656,1159,468,128,112,4.17,,ebook,,2,0,Halima Bashir,,,,Corry van Bree,,8128,20,58,"adult,autobiography,biography,biography-memoir,contemporary,cultural,history,international,memoir,non-fiction,politics,religion,school,survival,war"
16012501,,De professional op het witte paard,9789052618203,,,,ES,,Academic Service,,true,1,16012501,0,0,0,0,,,,0,0,0,0,0,0.00,,ebook,,0,0,Marco Plasier,,,,,,,0,,
16013001,,Buiten wonen in de stad,9789048521579,,,,ES,,Amsterdam University Press,,true,2,16013001,0,0,0,0,,,,0,0,0,0,0,0.00,,ebook,,0,0,Tineke Lupi,,,,,,,0,,
16013501,,Afri,9789025431310,,,,ES,,Atlas-Contact,,true,2,10814401,37,86,21,1,2009/8/1,Afri: Leven in een migrantenwijk,book,5,14,1,1,0,4.10,,ebook,,0,0,Jutta Chorus,,,,,,10,0,,
16014001,,Rosiri,9789023448280,,,,ES,,"Bezige Bij b.v., Uitgeverij De",,true,2,11890593,12,29,10,0,2007/8/1,,book,2,1,3,2,2,2.90,,ebook,,0,0,Iris Koppe,,,,,,3,0,,fiction
16014501,,Laatste schooldag,9789023456476,,,,ES,,"Bezige Bij b.v., Uitgeverij De",,true,5,744032,124,213,78,3,1994/1/1,Laatste schooldag: Verhalen,book,2,6,44,21,5,2.73,,ebook,,0,0,Jan Siebelink,,,,,,14,2,1,"fiction,literature"
16015001,,Bella Italia,9789044963403,,,,ES,2011/6/7,A.W. Bruna Uitgevers,nl,true,10,11801353,1095,1772,570,60,2011/6/7,Bella Italia,book,55,142,225,106,42,3.11,,ebook,,2,1,Suzanne Vermeer,,,,,,226,19,13,"adult,fiction,mystery,mystery-thriller,suspense,thriller"
16015501,,Misdaden,9789029583107,,,,ES,,Arbeiderspers,nl,true,64,6783729,5609,14593,3597,294,2009/1/1,Verbrechen,book,1208,1573,655,135,26,4.06,,ebook,,5,0,Ferdinand von Schirach,,,,,,265,39,31,"adult-fiction,collections,contemporary,crime,fiction,literature,mystery,mystery-thriller,non-fiction,short-stories,thriller,true-crime"
16016001,,De Joodse messias,9789048803408,,,,ES,2009/9/1,Lebowski,dum,true,21,1891534,1496,3088,891,57,2004/1/1,De joodse messias,book,150,321,256,122,42,3.47,,ebook,,1,1,Arnon Grunberg,,,,,,383,6,13,"fiction,humor,literature,novels,religion,unfinished"
16016501,,Gewapende man,9789025435080,,,,ES,,Atlas-Contact,,true,2,8677956,26,62,16,1,2010/1/1,,,4,8,2,2,0,3.88,,ebook,,0,0,Gerwin van der Werf,,,,,,5,0,,
16017001,9087536283,Contract and commercial management / deel The operational guide,9789087536282,,,,ES,2011/11/11,"Haren Publishing, Van",,true,3,16025570,22,29,7,1,2011/11/11,,,3,3,0,1,0,4.14,657,ebook,,0,0,Tim Cummins,,,,,,6,0,5,
16017501,,Overwin je faalangst,9789025970406,,,,ES,,"Have, Ten",,true,4,15714294,14,16,5,1,2004/1/1,,book,0,1,4,0,0,3.20,,ebook,,0,0,Ard Nieuwenbroek,,,,,,5,0,,personal-development
16018001,,Elektronica voor Dummies,9789043020053,,,,ES,,Pearson Education  Benelux B.V.,,true,29,639240,968,1053,284,17,2005/2/1,Electronics For Dummies,book,73,99,79,22,11,3.71,,ebook,,0,0,Gordon McComb,,,,,,434,7,145,"education,non-fiction,reference,science,technology"
16018501,,Breekbaar,9789058316295,,,,ES,2011/10/14,Maarten Muntinga,nl,true,24,9986977,26424,43524,12007,1202,2010/1/1,Fragile,book,2015,4733,4199,860,200,3.62,,ebook,,6,2,Lisa Unger,,,,Mary Bresser,,12040,107,345,"abuse,adult,adult-fiction,chick-lit,contemporary,crime,drama,family,fiction,love,mystery,mystery-thriller,novels,relationships,suspense,thriller"
16019001,,Kinderen met dyslexie,9789461273215,,,,ES,,Boom,,true,2,16013986,3,4,1,0,,,,0,1,0,0,0,4.00,,ebook,,0,0,Tom Braams,,,,,,,0,,
16019501,,City Mindfulness,9789045311821,,,,ES,,Inspiread,,true,1,16019501,6,9,3,0,,,,0,0,3,0,0,3.00,,ebook,,3,0,Jonathan Kaplan,,,,,,2,0,,non-fiction
16020001,,Het breinboek voor managers,9789047002581,,,,ES,,Business Contact,,true,1,16020001,3,0,0,0,,,,0,0,0,0,0,0.00,,ebook,,0,0,Paul Postma,,,,,,2,0,,business
16020501,,Modernization tradition and identity,9789048508143,,,,ES,,Amsterdam University Press,,true,1,16020501,0,0,0,0,,,,0,0,0,0,0,0.00,,ebook,,0,0,E. Nurlaelawati,,,,,,,0,,
16021001,,Vreemd land,9789460231612,,,,ES,,J.M. Meulenhoff,,true,75,85301,124818,301575,73156,7447,2008/1/1,Unaccustomed Earth,book,27645,30150,12498,2393,470,4.12,,ebook,,0,0,Jhumpa Lahiri,,,,,,40535,158,1847,"adult,adult-fiction,american,contemporary,cultural,family,fiction,international,literary-fiction,literature,novels,realistic-fiction,relationships,short-stories,unfinished"
16021501,,Een wintervertelling uit Buenos Aires,9789044521504,,,,ES,,"Geus B.V., Uitgeverij De",ger,true,1,16021501,4,4,1,0,,,book,0,1,0,0,0,4.00,,ebook,,1,0,Sylvia Iparraguirre,,,,,,3,0,,
16022001,,De laatste roker,9789023472193,,,,ES,,"Bezige Bij b.v., Uitgeverij De",,true,7,1301892,363,749,208,11,1991/1/1,De laatste roker,book,28,86,80,11,3,3.60,,ebook,,0,0,Willem Frederik Hermans,,,,,,78,2,4,"fiction,literature,short-stories"
16022501,,Schakers,9789023467502,,,,ES,,"Bezige Bij b.v., Uitgeverij De",,true,6,13564304,57,77,22,2,2012/1/1,,book,1,9,12,0,0,3.50,,ebook,,0,0,Jan Timman,,,,,,15,0,8,autobiography
16023001,9461700415,"De perfecte moord (De laatste linie, #6)",9789461700414,,,,ES,2011/6/15,Harlequin IBS Thriller,nl,true,30,6411125,2783,5039,1210,94,2009/1/1,The Perfect Murder ,book,505,454,207,33,11,4.16,,ebook,,3,0,Brenda Novak,,,,Sonja van Toorn,,1010,14,104,"adult,adult-fiction,contemporary,crime,fiction,mystery,mystery-thriller,romance,suspense,thriller"
16023501,,Misleidende minnaar,9789461707123,,,,ES,2012/1/31,Harlequin Bouquet,nl,true,19,6298111,128,196,57,3,2004/1/1,The Billionaire Bodyguard,book,10,16,21,9,1,3.44,,ebook,,1,0,Sharon Kendrick,,,,Maaike de Lange,,45,2,2,"harlequin,romance"
16024001,,Schaduw over Afrika,9789023918554,,,,ES,2011/12/9,Mozaiek,nl,true,4,3165585,23,42,12,2,2007/5/19,Lang Skaduwees in Afrika,book,1,5,5,1,0,3.50,,ebook,,0,0,Connie Luyt,,,,,,4,1,,
16024501,,Mei Abraham fustkje,9789089544131,,,,ES,,TDE,,true,1,16024501,0,0,0,0,,,,0,0,0,0,0,0.00,,ebook,,0,0,Anne Wadman,,,,,,,0,,
16025001,,Straatvechter,9789025752187,,,,ES,2012/6/1,Gottmer,nl,true,23,12298289,1481,2592,632,32,2012/1/1,Street Fighter,book,235,254,121,16,6,4.10,,ebook,,2,0,Simon Scarrow,,,,,,617,11,20,"adventure,fantasy,fiction,historical-fiction,history,young-adult"
16025501,,Romance in Toscane,9789462040144,,,,ES,,Cupido,,true,4,9438372,72,134,39,5,2007/5/1,,book,5,14,14,5,1,3.44,,ebook,,0,0,Anita Verkerk,,,,,,24,3,,"adult,chick-lit,romance"
16026001,904433820X,Slaap zacht,9789044338201,,,,ES,2012/6/1,"House of Books B.V., The",nl,true,31,379095,9296,20626,5052,200,2004/1/1,The Morning After,book,1911,1882,1066,152,41,4.08,367,ebook,,2,1,Lisa Jackson,,,,,,2553,17,319,"adult,adult-fiction,contemporary,crime,fiction,horror,murder-mystery,mystery,mystery-thriller,romance,suspense,thriller"
16026501,,Onder het ijs,9789044337075,,,,ES,,"House of Books B.V., The",,true,37,10098409,4402,7223,2084,425,2011/1/1,White Heat,book,249,795,779,200,61,3.47,,ebook,,1,0,Melanie McGrath,,,,,,1705,42,94,"adult-fiction,adventure,crime,detective,fiction,international,literature,murder-mystery,mystery,mystery-thriller,novels,realistic-fiction,suspense,thriller"
16027001,,Met gesloten beurs,9789400805545,,,,ES,,Free Musketeers,,true,1,16027001,0,0,0,0,,,,0,0,0,0,0,0.00,,ebook,,0,0,Johanna Jacobs,,,,,,,0,,
16027501,,Intiem e-bundel nummers 1999 - 2005,9789461992758,,,,ES,2012/9/25,Harlequin Intiem,nl,true,1,16027501,15,3,1,0,2012/9/25,  /  / Lessons in Seduction /  /  /,book,0,0,1,0,0,3.00,,ebook,,1,0,"Christine Rimmer,Jill Shalvis,Katherine Garbera,Leanne Banks,Lori Foster,Michelle Celmer,Natalie Anderson,Sandra Hyatt,Sandra Steffen,Susan Stephens",,,,"Anne-Marie Martens,Annemieke Spijkstra,Canisia Campo,Elco Bos,Emily Peters,Ingrid van Bladel,Jeanne Dauvillier,Karel Kamerheer,Lydia Meeder,Maria Terlaak",,11,0,1,
16028001,,Blade of the Mother,,B005IGV956,,,ES,,,en-US,true,1,16028001,3,5,1,0,2011/8/21,,book,1,0,0,0,0,5.00,,,,1,0,Jennifer Wright,,,,,,2,0,,
16028501,,Plameni inkvizitori IV,,,,,ES,2012/1/1,EPH Media d. o. o. ,scr,false,3,16028502,156,411,88,3,1928/1/1,,book,68,12,7,1,0,4.67,299,Paperback,,9,0,Marija Jurić Zagorka,,,,,,44,4,,"adult,fiction,historical-fiction,history,romance"
16029001,,"Scary Cool (The Spellspinners, #2)",9781301764624,,,,ES,2012/9/15,Smashwords,eng,true,3,16029001,99,219,55,6,2012/9/15,,book,19,21,11,3,1,3.98,,ebook,,42,6,Diane Farr,,,,,,34,5,,"fantasy,horror,young-adult"
16029501,8074471632,"Nadpozemská (Nadpozemská, #1)",9788074471636,,,,ES,2012/9/1,CooBoo,slo,false,44,7488244,312642,462581,114652,7671,2011/1/4,Unearthly,book,47082,37587,20504,5832,3647,4.03,372,Hardcover,,31,7,Cynthia Hand,,,,,,84712,970,1116,"angels,contemporary,demons,fantasy,fiction,high-school,magic,mystery,mythology,paranormal,romance,supernatural,teen,urban-fantasy,young-adult"
16030001,8862310595,Saint Morrissey. Psicobiografia dell'ultima popstar,9788862310598,,,,ES,2009/5/1,Arcana (Arcana Musica),ita,false,9,31349225,1111,2204,633,49,2004/4/1,Saint Morrissey: A Portrait of This Charming Man by an Alarming Fan,book,118,186,228,85,16,3.48,227,Paperback,,2,0,Mark    Simpson,,,,,,329,12,23,"biography,historical,lgbt,music,non-fiction"
16030501,1849088764,Small-Scale Armour Modelling,9781849088763,,,,ES,2011/9/20,Osprey Publishing,,true,8,11688946,13,30,8,0,2011/1/1,,,2,3,2,1,0,3.75,192,ebook,,0,0,Alex Clark,,,,,,3,1,,"history,non-fiction,reference,war"
16031001,,Ο τρίτος αστυφύλακας,9789602214152,,,,ES,2008/6/1,Αλεξάνδρεια,gre,false,73,27208,32368,57188,14229,1504,1967/1/1,The Third Policeman,book,5660,4779,2565,852,373,4.02,300,Paperback,,7,3,Flann O'Brien,,,,Άρης Μπερλής,,15206,132,530,"adult,british-literature,classics,comedy,contemporary,crime,fantasy,fiction,funny,humor,literary-fiction,literature,magical-realism,modern-classics,mystery,novels,philosophy,science-fiction,speculative-fiction,unfinished"
16031501,9789792742,The Client (Buku Suci Trojan),,,,,ES,2009/1/1,PT. Elex Media Komputindo,ind,false,1,16031501,1,0,0,0,2009/1/1,,book,0,0,0,0,0,0.00,235,Library Binding,,0,0,Tri Amperiyanto,,,,,,,0,,
16032001,,Når atferd blir vanskelig utredning og tiltak ved vanskelig atferd,9788244607124,,,,ES,2002/1/1,Kommuneforl,nor,false,1,16032001,1,3,1,1,2002/1/1,,book,0,0,1,0,0,3.00,151,Paperback,1,1,1,Tron Kjelberg,,,,,,,0,,
16032501,0739300180,The King of the Ferret Leggers,9780739300183,,,,ES,2001/5/22,Random House Audio,,false,8,71700,43,91,25,3,2001/5/22,The King of the Ferret Leggers and Other True Stories,book,3,14,5,2,1,3.64,,Audio,,1,1,Donald R. Katz,,,,,,13,0,1,essays
16033001,3866158246,Svenja hat's erwischt,9783866158245,,,,ES,2012/9/25,Süddeutsche Zeitung Bibliothek,ger,false,5,2155363,46,96,30,1,2005/1/1,Svenja hat's erwischt,book,4,7,11,7,1,3.20,174,Hardcover,SZ Junge Bibliotheek Jugendliteraturpreis #12,2,0,Christian Bieniek,,,,,,1,1,,"fiction,middle-grade"
16033501,1452660085,"Moon Over Soho (Peter Grant, #2)",9781452660080,,,,ES,2012/9/28,Tantor Media,eng,false,10,10381195,51468,149166,36386,2667,2011/4/21,Moon Over Soho,book,11707,17530,6336,690,123,4.10,,Audio CD,,5,2,Ben Aaronovitch,,,,,Kobna Holdbrook-Smith,7573,478,936,"adult,adult-fiction,adventure,comedy,contemporary,crime,detective,fantasy,fiction,funny,horror,humor,magic,magical-realism,music,mystery,mystery-thriller,novels,paranormal,romance,science-fiction,speculative-fiction,supernatural,thriller,urban-fantasy,vampires"
16034001,975606319x,Bir Sinema Yazarının Günlüğünden Aykırı Notlar,,,,,ES,2006/8/1,+1 kitap,tur,false,1,16034001,10,20,5,0,2006/8/1,,book,2,1,2,0,0,4.00,192,Paperback,,5,0,Agâh Özgüç,,,,,,3,0,,memoir
16034501,,L'effet Popcorn tome 1,9782923746746,,,,ES,2012/1/1,,fre,false,1,16034501,3,6,2,0,2012/1/1,,book,0,1,0,1,0,3.00,,,,2,0,Marie-Josée Arel,,,,,,1,0,,
16035001,8025301605,"Čarodějův synovec (Letopisy Narnie, #1)",9788025301609,,,,ES,2005/1/1,Fragment,cze,false,13,65605,501703,1408898,349511,10655,1955/5/2,The Magician’s Nephew,book,131267,121077,77497,16094,3576,4.03,208,Hardcover,,255,18,C.S. Lewis,"Cliff Nielsen,Pauline Baynes",,,Veronika Volhejnová,,82100,1260,4458,"adventure,animals,british-literature,childrens,christian,christian-fiction,christianity,classic-literature,classics,epic-fantasy,fantasy,fiction,high-fantasy,juvenile,literature,magic,middle-grade,novels,religion,science-fiction-fantasy,teen,young-adult"
16035501,1575550407,Oregon Writres Alliance 1996 Anthology,,,,,ES,1996/1/1,Cedar Bay Press LLC,eng,false,1,16035501,2,4,1,0,1996/1/1,,book,0,1,0,0,0,4.00,91,Spiral-bound,,1,0,"Anna Koffee,Bob Richards,Charlyn Salb,Cheryl Caligiuri,Dave Davies,Dave Davis,Derek Sanzhiel,I. Reed Toomuch,Lydia Hall,Robin Layne,Sheila Marler,Zuriel",,,,,,1,0,,
16036001,8605005777,Plavi kaputić,,,,,ES,1982/1/1,Mladost,scr,false,2,16036001,34,86,21,0,1974/1/1,,book,12,1,6,2,0,4.10,101,Hardcover,,20,0,Mladen Kušec,,,,,,4,0,,
16036501,9770813214,العرب و محرقة اليهود,,,,,ES,2007/1/1,دار أخبار اليوم,,false,9,131323,367,403,110,27,2006/1/1,Among the Righteous: Lost Stories from the Holocaust's Long Reach into Arab Lands,book,28,36,32,9,5,3.66,196,Paperback,كتاب اليوم,2,1,Robert Satloff,,,,,,224,11,3,"history,non-fiction,politics,religion,war"
16037001,146269537X,Satan's Surgeon,9781462695379,,,,ES,2012/9/7,PublishAmerica,eng,false,1,16037001,1,0,0,0,2012/9/7,,book,0,0,0,0,0,0.00,90,Paperback,,0,0,John Jarocki,,,,,,1,0,,
16037501,,The Sayings of Confucius,,,,,ES,1955/11/1,A Mentor Book,eng,false,1,16037501,94,110,33,2,1955/11/1,,book,2,15,9,6,1,3.33,125,Paperback,,33,2,,,,James A. Ware,,,42,3,2,"classics,non-fiction,philosophy,religion"
16038001,,"Tangga (Seri Rumah Ide, #10)",,,,,ES,2006/1/1,Gramedia Pustaka Utama,ind,false,1,16038001,5,4,1,1,2006/1/1,,book,0,1,0,0,0,4.00,64,Paperback,,1,1,Imelda Akmal,,,,,,3,0,,
16038501,,Honest Cravings,,,,,ES,2012/11/26,Total-e-Bound,eng,true,3,16038501,10,9,4,1,2012/11/26,,book,0,0,2,1,1,2.25,,ebook,,4,1,Erin Lark,,,,,,5,0,,"bdsm,erotica,fiction"
16039001,,Second Impressions,,,,,ES,2011/5/3,Free Books by Austen Variations,eng,false,2,16039001,97,172,47,14,,,book,7,22,14,3,1,3.66,12,,New Edition,42,11,Jack Caldwell,,,,,,41,5,2,regency
16040001,,La maschera del Samurai,9788827220498,,,,ES,2009/9/1,Edizioni Mediterranee,ita,false,2,4588113,11,33,9,0,2006/1/1,Le masque du Samouraï,book,1,4,4,0,0,3.67,160,Paperback,,1,0,Aude Fieschi,,,,Milvia Faccia,,-1,0,1,history
16040501,,Stranac,,,,,ES,1976/1/1,Zora - GZH,scr,false,788,49552,949234,2305446,580545,18566,1942/6/1,L’Étranger,book,206222,210197,117868,33686,12572,3.97,89,Hardcover,,5,0,Albert Camus,,,,Dane Smičiklas,,273791,2224,8020,"adult,adult-fiction,classic-literature,classics,contemporary,crime,drama,fiction,france,high-school,literary-fiction,literature,modern-classics,novella,novels,philosophy,psychology,school"
16041001,,Flying Wildcats,,,,,ES,1943/1/1,The Hampton Publishing Company,eng,false,1,16041001,1,0,0,0,1943/1/1,,book,0,0,0,0,0,0.00,347,Hardcover,,0,0,Leo Margulies,,,,,,,0,,
16042001,,La signora Bovary,,,,,ES,1978/4/12,Rizzoli,ita,false,2126,2175,410448,790687,215930,8932,1856/1/1,Madame Bovary,book,54275,72618,59301,21201,8535,3.66,445,Paperback,BUR,3,1,Gustave Flaubert,,,,Giuseppe Achilli,,142539,1184,10544,"adult,adult-fiction,classic-literature,classics,college,drama,feminism,fiction,france,high-school,historical,historical-fiction,literary-fiction,literature,love,novels,romance,school,unfinished,victorian"
16042501,,Die Wahrheit Uber Die Wunderwaffe,9783928963237,,,,ES,2010/1/1,Mosquito Verlag,ger,false,1,16042501,3,0,0,0,2010/1/1,Prawda o Wunderwaffe,book,0,0,0,0,0,0.00,248,Paperback,,0,0,Igor Witkowski,,,,,,3,0,,
16043001,3843362378,System Analysis and Design: The Perfect Guide For Future,9783843362375,,,,ES,2010/11/2,LAP LAMBERT Academic Publishing,,false,1,16043001,5,9,2,0,2010/11/2,,book,1,1,0,0,0,4.50,196,Paperback,,2,0,"Arun Thangaswamy,Vivek Thangaswamy",,,,,,3,0,,
16043501,1453285776,"Chicken Soup for the Golfer's Soul The 2nd Round: More Stories of Insight, Inspiration and Laughter on the Links",9781453285770,,,,ES,2012/9/18,Chicken Soup for the Soul,,true,11,128268,55,62,16,1,2002/1/1,"Chicken Soup for the Golfer's Soul, The 2nd  Round: 101 More Stories of Insight, Inspiration and Laughter on the Links",book,8,1,5,1,1,3.88,400,ebook,,0,0,"Chrissy Donnelly,Jack Canfield,Jeff Aubery,Mark P. Donnelly,Mark Victor Hansen",,,,,,26,1,1,sports
16044001,,Dama de pică și alte povestiri,9786066440325,,,,ES,2012/1/1,Adevărul Holding,rum,false,62,97381,13625,28956,7007,141,1834/1/1,Пиковая дама,book,2967,2421,1274,270,75,4.13,318,Hardcover,,8,0,Alexander Pushkin,,,,,,5357,22,201,"adult-fiction,classics,college,fantasy,fiction,high-school,historical-fiction,literary-fiction,literature,novels,poetry,short-stories"
16044501,,Hockeyteam De Sterren - Het team-uitje,,,,,ES,2011/1/1,Kluitman,nl,false,1,16044501,3,7,2,0,2011/1/1,,book,0,1,1,0,0,3.50,127,Hardcover,,2,0,Marlies Slegers,,,,,,1,0,,
16045001,1250000858,"Brooklyn Girls (Brooklyn Girls, #1)",9781250000859,,,,ES,2013/7/2,St. Martin's Griffin,eng,false,14,16045001,5728,6677,1890,254,2013/7/2,Brooklyn Girls,book,379,638,570,217,86,3.53,294,Paperback,,1572,202,Gemma Burgess,,,,,,3347,55,8,"adult,adult-fiction,chick-lit,contemporary,fiction,funny,humor,new-adult,realistic-fiction,relationships,romance"
16045501,,The Battle of Chibi (Red Cliffs),,B008WW3Q18,,,ES,2012/8/12,CreateSpace,eng,true,6,31457882,476,171,42,31,2010/8/4,,book,10,25,7,0,0,4.07,333,Kindle Edition,,15,9,Hock G. Tjoa,,,,,,421,4,4,"adventure,classics,historical-fiction,war"
16046001,4063726223,神の雫 12,9784063726220,,,,ES,2007/8/23,講談社,jpn,false,5,8184272,70,144,38,0,2007/8/23,神の雫 12,book,7,17,13,1,0,3.79,220,,,1,0,"Tadashi Agi,オキモト・シュウ,亜樹 直",,,,,,18,0,,manga
16047001,,Magnum Force Man / Powerhouse,,B005EWG9AO,,,ES,2011/9/1,Mills & Boon,en-US,true,3,12277309,16,8,2,0,2011/9/1,Magnum Force Man / Powerhouse,book,1,0,1,0,0,4.00,,Kindle Edition,Mills &amp; Boon Intrigue 2-in-1 #75,0,0,"Amanda Stevens,Rebecca York",,,,,,12,0,1,
16047501,,النصب التذكارية,,,,,ES,2007/1/1,دار الساقي للطباعة والنشر ,ara,false,6,1351920,138,120,32,4,1991/1/1,The Monument: Art and Vulgarity in Saddam Hussein's Iraq,,7,14,7,4,0,3.75,188,,,6,2,"Kanan Makiya,كنعان مكية",,,,,,90,1,4,"art,politics,society"
16048001,3505130435,"Die Neue am Olymp (Goddess Girls, #1)",9783505130434,,,,ES,2012/3/1,Schneiderbuch,ger,false,17,6788767,12638,25826,6308,531,2010/1/1,Athena The Brain,book,2974,1616,1214,346,158,4.09,153,Hardcover,,2,1,Joan Holub,,,,,,2132,17,167,"adventure,chapter-books,childrens,family,fantasy,fiction,funny,historical,historical-fiction,humor,juvenile,magic,middle-grade,mythology,retellings,romance,school,young-adult"
16048501,0963899104,Queen Anne: Community on the Hill,9780963899101,,,,ES,1993/1/1,Queen Anne Historical Society,eng,false,1,16048501,3,0,0,0,1993/1/1,,book,0,0,0,0,0,0.00,,,,0,0,"Reinartz, Kay Frances",,,,,,3,0,,history
16049001,,الأغبياء لا يخونون,,,,,ES,2014/1/1,دار طوى للثقافة والنشر والإعلام,ara,false,1,16049001,2007,1137,314,42,2012/1/1,,book,119,65,61,30,39,3.62,141,Paperback,الطبعة الثانية,314,42,مشبب ثابت,,,,,,1573,4,54,poetry
16049501,,All the Things I Can Do!,,,,,ES,2010/1/1,CreateSpace Independent Publishing Platform;,eng,false,1,16049501,4,8,2,2,2010/1/1,All the Things I Can Do!,book,1,0,1,0,0,4.00,32,Paperback,Large Print,2,2,Mollycules,,,,,,2,0,,
16050001,,The Mind of a Madman: Norway's Struggle to Understand Anders Breivik,,B0096CGDTK,,,ES,2012/9/4,Amazon Media EU S.à r.l.,en-GB,true,1,16050001,215,472,137,16,2012/9/4,,book,18,48,54,11,6,3.45,108,Kindle Edition,,137,16,Richard Orange,,,,,,51,4,10,"biography,crime,non-fiction,politics,psychology,social-issues,true-crime"
16050501,,Mayne Island Skeletons,9780981241425,,,,ES,2011/10/2,treewithroots,eng,true,1,16050501,16,19,4,1,2011/5/21,Mayne Island Skeletons,book,3,1,0,0,0,4.75,203,ebook,,4,1,Amber Harvey,,,,,,11,0,,young-adult
16051001,,10 0007227248,,,,,ES,,,,false,1,16051001,0,0,0,0,,,book,0,0,0,0,0,0.00,,,,0,0,jennifer  kaufman & karen mack,,,,,,,0,,
16051501,,Burnt Forrests,,B0055KVJHS,,,ES,,,en-US,true,1,16051501,1,5,1,0,2011/6/11,,book,1,0,0,0,0,5.00,,,,1,0,Jullian Poe,,,,,,,0,,
16052001,3821862300,Schwedische Hochzeitsnacht,9783821862309,,,,ES,2010/1/1,Eichborn,ger,false,12,1754309,212,330,93,9,1949/1/1,Bröllopsbesvär,book,17,38,21,13,4,3.55,285,Hardcover,"Die Andere Bibliothek, #304",2,1,Stig Dagerman,,,,"Herbert G. Hegedo,Wolfgang Butt",,93,5,3,fiction
16052501,2280034700,Un défi pour le Dr Slater / Conflits entre chirurgiens,9782280034708,,,,ES,2001/10/15,Harlequin,fre,false,1,16052501,1,0,0,0,2001/10/15,A leap in the dark / The consultant's conflict,book,0,0,0,0,0,0.00,308,Mass Market Paperback,Collection Série Blanche #570,0,0,"Jean Evans,Lucy Clark",,,,,,,0,,
16053001,,Theatron,9789723714689,,,,ES,,Assírio & Alvim,por,false,1,16053001,1,0,0,0,,,book,0,0,0,0,0,0.00,,,,0,0,Pedro Valdez Cardoso,,,,,,,0,,
16053501,3730205102,Leopold und Winni im Schnee,,,,,ES,1989/1/1,Verlag Junge Welt Berlin,,false,1,16053501,1,5,1,0,1989/1/1,,book,1,0,0,0,0,5.00,47,Hardcover,,1,0,Inge Feustel,,,,,,,0,,
16054001,,Gesenius' Hebrew and Chaldee Lexicon,,,,,ES,1952/1/1,Wm. B. Eerdman's Publishing Company,,false,1,16054001,6,5,1,0,1952/1/1,,book,1,0,0,0,0,5.00,919,Hardcover,1st,1,0,Gesenius,,,,Samuel Prideaux Tregelles,,3,0,,"magic,reference"
16054501,1908041013,Why Willows Weep: Contemporary Tales from the Woods,9781908041012,,,,ES,2011/1/1,IndieBooks,eng,false,2,16054501,463,249,69,6,2011/1/1,,book,20,19,18,7,5,3.61,124,Hardcover,,65,6,,Leanne Shapton,,Tracy Chevalier,,,387,4,2,"anthologies,fiction,nature,short-stories"
16055001,9185269301,Aomanjuskogen Vol. 2,9789185269303,,,,ES,2012/9/1,Ordbilder Media,swe,false,1,16055001,71,188,51,6,2011/1/1,Hoshigahara Aomanjyu no mori Vol.2,book,10,21,15,4,1,3.69,205,Paperback,,51,6,Hisae Iwaoka,,,,Magnus Johansson,,10,5,,"comics,fantasy,fiction,manga,paranormal,short-stories,young-adult"
16055501,,Priversta tylėti,978541502103,,,,ES,2009/1/1,Vaga,lit,false,4,6538867,98,180,51,1,2004/1/1,Mundtot,book,8,19,16,8,0,3.53,264,Hardcover,,29,0,Doris Glück,,,,Elena Eimaitytė,,31,1,1,"adult,contemporary,love,memoir,non-fiction"
16056001,,"The Black Pirate (Pirate's Booty, #4)",9781607354659,,,,ES,2012/2/1,"Resplendence Publishing, LLC",eng,true,2,16055950,18,18,5,0,2012/2/1,,book,1,1,3,0,0,3.60,96,ebook,,0,0,Temple Hogan,,,,,,11,1,1,
16056501,,Man Undercover,,B0037NB600,,,ES,2010/5/1,Harlequin,en-US,true,6,7908947,87,130,38,6,2010/1/1,Man Undercover,book,8,8,15,6,1,3.42,,Kindle Edition,"Harlequin Intrigue #1208, Thriller #8",2,0,Alana Matthews,,,,,,33,6,,"contemporary,crime,fiction,harlequin,relationships,romance,suspense,thriller"
16057001,0760343640,Rush: The Illustrated History,9780760343647,,,,ES,2013/5/30,Voyageur Press,,false,6,16057001,577,513,120,15,2013/1/1,,,61,35,20,4,0,4.28,192,Hardcover,,97,13,Martin Popoff,,,,,,422,2,14,"american-history,autobiography,biography,history,memoir,music,non-fiction"
16057501,1908968354,A Dark Stranger,9781908968357,,,,ES,2013/12/31,Pushkin Collection,,false,12,6381897,570,523,139,20,1945/1/1,Un beau ténébreux,book,38,47,41,9,4,3.76,256,Paperback,,18,4,Julien Gracq,,,,,,374,6,12,"adult-fiction,classics,drama,fantasy,fiction,france,historical,historical-fiction,lgbt,literary-fiction,literature,novels"
16058001,,Staré grécke báje a povesti,,,,,ES,1984/1/1,Mladé letá,slo,false,20,6717821,1761,4989,1232,27,1958/1/1,Staré řecké báje a pověsti,book,462,455,245,54,16,4.05,246,Hardcover,,34,0,Eduard Petiška,,,,,,202,32,21,"childrens,classics,fantasy,fiction,history,mythology,school,short-stories"
16058501,,Suomensuojelija : ohjekirja kielen pelastamiseen,9789510354469,,,,ES,2009/1/1,WSOY,fin,false,1,16058501,16,31,9,2,2009/1/1,,book,1,2,6,0,0,3.44,118,Paperback,,9,2,Lari Kotilainen,,,,,,4,3,,"adult,literature,non-fiction"
16059001,3939080586,Lästermaul und Wohlstandskind: Neue Berliner Geschichten,9783939080589,,,,ES,2011/12/7, Avant-Verlag,ger,false,1,16059001,4,9,3,0,2011/12/7,,book,1,0,1,0,1,3.00,119,Hardcover,,3,0,Tim Dinter,,,,,,1,0,,"comics,graphic-novels"
16059501,1620400677,Big Ray: A Novel,9781620400678,,,,ES,2013/6/18,Bloomsbury USA,,false,8,13538879,1013,1660,451,100,2012/9/1,,book,111,146,138,51,5,3.68,192,Paperback,,9,2,Michael Kimball,,,,,,490,16,7,"adult-fiction,contemporary,drama,fiction,literature,novels,school,suspense"
16060001,0985264055,Fed From the Blade: Tales and Poems From the Mountains,9780985264055,,,,ES,2012/10/1,Woodland Press,eng,false,1,16060001,15,45,11,1,2012/10/1,,book,5,2,4,0,0,4.09,126,Paperback,,11,1,,,Ginger Hamilton,"Cat Pleska,Michael Knost",,,3,0,,short-stories
16060501,9603065013,"Πειράτικα (Πειράτικα, #1)",9789603065012,,,,ES,2005/1/1,Anubis,gre,false,12,616049,5461,10531,2899,142,2004/2/12,Piratica: Being a Daring Tale of a Singular Girl's Adventure Upon the High Seas,book,729,915,833,305,117,3.63,358,Paperback,,9,1,Tanith Lee,,,,Ιωάννα Ζαπάντη,,1988,22,19,"action,adventure,childrens,classics,fantasy,fiction,historical,historical-fiction,history,humor,juvenile,middle-grade,mystery,novels,romance,steampunk,teen,thriller,young-adult"
16061001,,El otoño recorre las islas (obra poética 1961/1970),,,,,ES,,Editorial ERA,spa,false,3,16061001,88,235,49,2,1973/1/1,,book,39,10,0,0,0,4.80,,Paperback,,23,1,José Carlos Becerra,,,,,,6,0,4,poetry
16061501,0314275231,Professional Responsibility: A Student's Guide,9780314275233,,,,ES,2011/7/1,Gale Cengage,,false,13,18090467,13,14,4,0,1984/1/1,,,1,0,3,0,0,3.50,1299,Paperback,,1,0,"John S. Dzienkowski,Ronald D. Rotunda",,,,,,3,1,-1,
16062001,0567405249,Art and Meaning: Rhetoric in Biblical Literature,9780567405241,,,,ES,1982/6/1,Sheffield Academic Press,,true,4,7042346,4,3,1,0,1982/6/1,,,0,0,1,0,0,3.00,266,ebook,,0,0,"Alan J. Hauser,David J.A. Clines,David M. Gunn",,,,,,3,0,,"art,reference,theology"
16062501,0826435769,In Search of Muhammad,9780826435767,,,,ES,1998/1/1,Continuum,,true,4,1473561,25,12,3,0,1998/1/1,In Search of Muhammad,,1,1,1,0,0,4.00,288,ebook,,0,0,Clinton Bennett,,,,,,14,0,4,history
16063001,1441101969,The Ethics of Cultural Studies,9781441101969,,,,ES,2005/4/15,Continuum,,true,4,2843412,15,12,3,1,2005/4/15,Ethics Of Cultural Studies,,1,1,1,0,0,4.00,192,ebook,,0,0,Joanna Zylinska,,,,,,8,0,1,philosophy
16063501,144117916X,Celebration,9781441179166,,,,ES,1996/6/6,Continuum,,true,7,793043,18,8,2,0,1996/4/1,Celebration,book,1,0,1,0,0,4.00,,ebook,,0,0,Margaret Spufford,,,,,,10,1,,"christianity,non-fiction,religion,theology"
16064001,1770703551,Doom Lake Holiday,9781770703551,,,,ES,2009/1/19,Dundurn,,true,2,16949312,0,0,0,0,2009/1/19,,,0,0,0,0,0,0.00,240,ebook,,0,0,"Doug Henighan,Tom Henighan",,,,,,,0,,
16064501,1101599553,Murder of the Cat's Meow: A Scumble River Mystery,9781101599556,,,,ES,2012/9/1,New American Library,,true,5,13542651,1641,3211,831,72,2012/9/4,,book,229,313,246,33,10,3.86,272,ebook,,2,0,Denise Swanson,,,,,,541,12,18,"cozy-mystery,fiction,humor,mystery,romance"
16065001,,Døden kommer til Pemberley,9788203217838,,,,ES,2012/1/1,Aschehoug,nor,false,86,12875355,161534,266660,82353,9092,2011/11/3,Death Comes to Pemberley ,book,12299,21467,28033,14644,5910,3.24,288,Hardcover,,4,0,P.D. James,,,,Ragnhild Eikli,,69759,410,1672,"adult,adult-fiction,british-literature,chick-lit,classics,contemporary,crime,detective,fiction,historical,historical-fiction,history,literature,murder-mystery,mystery,mystery-thriller,novels,regency,retellings,romance,suspense,thriller,unfinished"
16065501,0062124447,Apologies to My Censor: The High and Low Adventures of a Foreigner in China,9780062124449,,,,ES,2013/7/2,Harper Perennial,,true,3,16248132,640,714,222,44,2013/7/2,,,19,65,94,33,11,3.22,304,ebook,,1,1,Mitch Moxley,,,,,,370,13,3,"adventure,biography,chick-lit,contemporary,cultural,history,memoir,non-fiction,travel"
16066001,4041665035,"落日悲歌 (アルスラーン戦記, #3) [The Heroic Legend of Arslan, book 3]",9784041665039,,,,ES,1987/9/1,角川書店,jpn,false,4,16066001,35,53,13,1,1987/9/1,落日悲歌,book,4,6,3,0,0,4.08,253,Paperback,,12,1,Yoshiki Tanaka,天野 喜孝,,,,,20,0,1,"fantasy,historical-fiction"
16066501,,Weird Tales & Other B Grade Tales,,,,,ES,,,,false,1,16066501,1,0,0,0,,,book,0,0,0,0,0,0.00,,,,0,0,Carl Hose,,,,,,1,0,,
16067001,,"Among the Barons (Shadow Children, #4)",,,,,ES,2004/1/1,Simon & Schuster Books for Young Readers,eng,false,14,298730,30329,79405,19437,691,2003/6/1,Among the Barons,book,7391,7137,4183,627,99,4.09,182,Paperback,,52,3,Margaret Peterson Haddix,,,,,,5939,54,271,"action,adventure,chapter-books,childrens,dystopia,family,fantasy,fiction,juvenile,middle-grade,mystery,novels,post-apocalyptic,realistic-fiction,school,science-fiction,survival,suspense,teen,thriller,young-adult"
16067501,,الصعود إلى الجبل الأخضر,9789948494263,,,,ES,2012/10/1,مجلة دبي الثقافية - دار الصدى,,false,2,16067501,56,30,14,8,2012/10/1,,book,1,1,3,3,6,2.14,118,Paperback,,11,8,سيف الرحبي,,,,,,11,0,3,
16068001,,manon lescault,,,,,ES,,,fre,true,323,577246,14027,29418,8372,395,1731/1/1,Histoire du chevalier des Grieux et de Manon Lescaut,book,1726,2501,2796,1047,302,3.51,,ebook,,21,2,Antoine François Prévost,,,,,,3987,40,196,"class,classic-literature,classics,college,drama,european-literature,fiction,france,historical,historical-fiction,literature,love,music,novels,poetry,romance,school"
16068501,,حضارة العبيد: النظام البديل للزواج,,,,,ES,,,ara,false,1,16068501,54,10,6,3,,حضارة العبيد: النظام البديل للزواج,book,0,0,1,2,3,1.67,135,,,6,3,عبد الرؤوف بن عون,,,,,,40,1,1,
16069001,,Moon Knight n. 6,,,,,ES,2012/10/1,Panini Comics,ita,false,2,16069001,11,10,4,0,2012/10/1,,book,0,1,1,1,1,2.50,48,Paperback,Marvel Select n. 06,4,0,"Alex Maleev,Brian Michael Bendis",,,,,,5,0,1,"comics,marvel"
16070001,,"Nanny's Dirty Diary - (Babysitter Erotica, Seduction and Sex Stories - Breeding Sex/Impregnation Sex)",,B009M7G2W2,,,ES,2012/10/4,Gabrielle Demonico,eng,true,2,16070001,15,15,4,0,2012/10/4,,book,1,2,0,1,0,3.75,,Kindle Edition,,4,0,Gabrielle Demonico,,,,,,10,0,,
16070501,,"Orgasms in the Observatory (Rock My Socks Off Trilogy, #2)",,B008DK2XD6,,,ES,2012/6/20,Xcite Books,en-GB,true,1,16070501,12,23,7,1,2012/6/20,,book,2,1,2,1,1,3.29,,Kindle Edition,,7,1,Jeremy Edwards,,,,,,5,0,,erotica
16071001,,The Man Who Was Thursday,,,,,ES,1935/1/1,"Dodd, Mead",eng,false,359,184419,56364,101810,26487,2672,1908/1/1,The Man Who Was Thursday - Nightmare,book,7602,10010,6477,1931,467,3.84,192,,,1,0,G.K. Chesterton,,,,,,23348,110,1847,"adult,adult-fiction,adventure,british-literature,christian,christian-fiction,christianity,classic-literature,classics,comedy,crime,detective,english-literature,faith,fantasy,fiction,historical-fiction,horror,humor,literary-fiction,literature,mystery,mystery-thriller,novels,philosophy,politics,religion,science-fiction,speculative-fiction,suspense,theology,thriller"
16071501,8804348585,Scicco,9788804348580,,,,ES,1991/5/1,Mondadori,ita,false,1,16071501,1,0,0,0,1991/1/1,Scicco,book,0,0,0,0,0,0.00,127,Hardcover,,0,0,Attilio Veraldi,,,,,,1,0,,
16072001,1782006664,Rumanian Aces of World War 2,9781782006664,,,,ES,2012/11/20,Osprey Publishing,,true,7,2699029,16,16,4,0,2003/6/20,Rumanian Aces of World War 2,,1,2,1,0,0,4.00,96,ebook,,0,0,Dénes Bernád,,,,,,8,1,,
16072501,,Miss Blanche,9789047604693,,,,ES,2004/1/1,,nl,false,2,16072501,16,31,10,3,2004/1/1,,book,0,3,5,2,0,3.10,,Audiobook,,9,3,Nelleke Noordervliet,,,,,,1,1,,"fiction,literature"
16073501,1848877382,Risk Intelligence: How to Live with Uncertainty,9781848877382,,,,ES,2012/1/1,Atlantic Books,en-GB,false,14,12606415,875,692,186,19,2012/1/1,,book,45,74,44,16,7,3.72,213,Paperback,,10,1,Dylan Evans,,,,,,413,15,30,"business,economics,leadership,non-fiction,personal-development,psychology,science,sociology"
16074001,,"The Burning Rivers (Longevity Law Enforcement, #2)",,B0087G3S12,,,ES,2012/5/29,,en-GB,true,1,16074001,22,42,10,7,2012/5/29,,book,3,6,1,0,0,4.20,,Kindle Edition,,10,7,S.J. Hunter,,,,,,11,1,,"mystery,science-fiction"
16074501,1442482087,Notes from a Hairy-Not-Scary Werewolf,9781442482081,,,,ES,2013/8/6,Aladdin,,true,9,16074501,191,310,80,18,2014/6/25,,book,32,20,17,8,3,3.88,288,ebook,,38,11,Tim Collins,,,,,,65,7,9,"adventure,animals,fairy-tales,fantasy,fiction,horror,humor,international,juvenile,middle-grade,paranormal,school,vampires,war,werewolves"
16075001,0689839286,Paul Bunyan Picture Book,9780689839283,,,,ES,,Simon & Schuster Books for Young Readers,,false,1,16075001,3,0,0,0,,,,0,0,0,0,0,0.00,,Hardcover,,0,0,Robert D. San Souci,,,,,,2,0,,
16075501,,Bjørnson i Roma: Europeer på klassisk grunn,,,,,ES,2008/1/1,,nor,false,1,16075501,4,3,1,0,2008/1/1,,book,0,0,1,0,0,3.00,383,Hardcover,,1,0,Helge Dahl,,,,,,1,0,1,
16076001,1443419923,Emergency Contact: Short Story,9781443419925,,,,ES,2012/10/23,HarperCollins Publishers,,true,2,16076001,1,0,0,0,2012/10/23,,,0,0,0,0,0,0.00,50,ebook,,0,0,Michael Christie,,,,,,1,0,,
16076501,,"La Pierre des Mages (Polux, #3)",9782896677146,,,,ES,2012/1/1,Éditions ADA,fre,false,1,16076501,28,82,20,1,,,book,9,7,2,1,1,4.10,,Mass Market Paperback,,20,1,Aude Vidal-Lessard,,,,,,5,1,1,young-adult
16077001,,"The Airship, The Timejump, and The Mummy!",,,,,ES,,Self,eng,true,1,16077001,1,5,1,0,,,book,1,0,0,0,0,5.00,5,ebook,,1,0,Yezall Strongheart,,,,,,1,0,,
16077501,,أكبر كوارث القرن العشرين,,,,,ES,1993/6/1,جروس برس,ara,false,1,16077501,55,56,19,4,1993/6/1,,book,1,4,8,5,1,2.95,188,,,19,4,أوديت نحاس,,,,,,26,1,3,history
16078001,,"Kiss of Destiny (Dragonfire, #9.3)",9781927477250,,,,ES,2013/8/13,Deborah A. Cooke,eng,true,2,16077999,837,630,151,10,2013/8/11,,book,60,62,25,3,1,4.17,,ebook,,4,0,Deborah Cooke,,,,,,634,12,3,"adult,contemporary,fantasy,magic,paranormal,romance,urban-fantasy"
16078501,,"Samurai Game (Ghostwalkers, #10)",,B007TNY04S,,,ES,2012/7/3,Hachette Book Group,en-GB,true,14,12823428,12386,28274,6642,373,2012/7/1,Samurai Game,book,3331,2049,973,215,74,4.26,,Kindle Edition,,59,2,Christine Feehan,,,,,,803,28,102,"abuse,action,adult,adult-fiction,adventure,contemporary,erotica,fantasy,fiction,mystery,paranormal,romance,science-fiction,supernatural,suspense,thriller,urban-fantasy,war"
16079001,,Wonder Tales from Wagner,,,,,ES,1898/1/1,Harper and Brothers Publishers,eng,false,5,16079001,4,4,1,0,1898/1/1,,book,0,1,0,0,0,4.00,189,Hardcover,,1,0,Anna Alice Chapin,,,,,,2,0,,
16079501,,Rebirth: The Awakening Of A Witch,,B0087V3NLC,,,ES,2012/5/31,"Multiple Streams Marketing, LLC  ",en-GB,true,1,16079501,91,73,20,1,2012/5/31,,book,6,7,3,2,2,3.65,165,Kindle Edition,,20,1,Jessica S. Quinn,,,,,,59,4,1,"fantasy,fiction,magic"
16080001,765413811,Шансон для братвы,,,,,ES,2001/1/1,Олма-пресс,rus,false,1,16080001,9,24,6,1,2001/1/1,,book,2,3,0,1,0,4.00,384,Hardcover,,6,1,Дмитрий Черкасов,,,,,,2,0,,"crime,fiction"
16080501,,Thorns,,B0078VYJZ6,,,ES,2012/2/20,E-Reads,en-US,true,38,872291,1125,1759,507,45,1967/8/1,,book,80,160,199,54,14,3.47,222,ebook,E-Book,1,0,Robert Silverberg,,,,,,451,10,10,"fantasy,fiction,literature,science-fiction,speculative-fiction"
16081001,0310333229,"The Survivor (Crime Scene: Houston, #2)",9780310333227,,,,ES,2013/3/5,Zondervan,en-US,false,9,16081001,1485,2927,687,83,2013/3/5,,book,327,245,86,25,4,4.26,376,Paperback,,578,79,DiAnn Mills,,,,,,168,19,22,"adult,christian,christian-fiction,contemporary,crime,fiction,inspirational,mystery,mystery-thriller,romance,suspense"
16081501,0170097439,The Secret Cave,9780170097437,,,,ES,2001/1/1,Nelson Cengage Learning,eng,false,1,16081501,22,11,4,1,2001/1/1,,book,1,0,1,1,1,2.75,16,Paperback,,4,1,Annette Smith,Meredith Thomas,,,,,12,0,2,
16082001,8322101177,Nara i Kioto,,,,,ES,1983/1/1,Wydawnictwa Artystyczne i Filmowe,pol,false,1,16082001,6,18,4,0,1983/1/1,,book,2,2,0,0,0,4.50,227,Paperback,,4,0,Jolanta Tubielewicz,,,,,,2,0,,
16082501,9511247069,"Valittu (Yön talo, #3)",9789511247067,,,,ES,2011/1/1,Otava,fin,false,87,1326258,291216,831393,212250,4213,2008/3/4,Chosen: A House of Night Novel,book,82209,59689,47618,16004,6730,3.92,301,Hardcover,,43,2,"Kristin Cast,P.C. Cast",,,,Inka Parpola,,39257,465,1093,"contemporary,drama,fantasy,fiction,high-school,horror,love,magic,mystery,mythology,novels,paranormal,romance,supernatural,teen,urban-fantasy,vampires,young-adult"
16083001,,"Gone the Next (Roy Ballard Mysteries, #1)",,B009GPICOQ,,,ES,2012/9/24,CreateSpace Independent Publishing Platform,eng,true,6,16083001,13999,24978,6103,491,2012/9/24,Gone the Next,book,2180,2622,1059,171,71,4.09,244,Kindle Edition,,5953,457,Ben Rehder,,,,,,3681,39,2290,"adult,amazon,contemporary,crime,detective,fiction,murder-mystery,mystery,mystery-thriller,suspense,thriller"
16083501,0230406610,Bicycle Kingdom and Other Stories (Tiantian Zhongwen Graded Chinese Readers),9780230406612,,,,ES,2010/1/1,Macmillan,zho,false,1,16083501,4,6,2,0,2010/1/1,,book,0,0,2,0,0,3.00,88,Paperback,,2,0,,,,,Xiong Jie,,2,1,,
16084001,,Bay Konsolos,9789752105973,,,,ES,,Altın Kitaplar Dizisi,tur,false,1,16084001,9,12,3,0,,,book,0,3,0,0,0,4.00,271,Paperback,,3,0,Mahmut Şenol,,,,,,4,0,,
16084501,,Prinzessin der Nacht,,B009MMLWM2,,,ES,2012/10/5,edition tingeltangel,ger,true,3,5075406,12,16,5,2,2004/1/1,Prinzessin der Nacht.,book,0,2,2,1,0,3.20,314,Kindle Edition,,0,0,Thomas Endl,,,,,,3,0,,
16085001,0340610263,Visions,9780340610268,,,,ES,1994/1/1,Hodder & Stoughton,eng,false,3,7973748,18,9,3,0,1994/1/1,,,0,0,3,0,0,3.00,313,Hardcover,,0,0,Jessica March,,,,,,8,0,4,
16085501,0763659304,"The Music of Zombies (Tales from the Five Kingdoms, #5)",9780763659301,,,,ES,2013/7/9,Candlewick Press,eng,false,4,16085501,318,494,119,14,2012/1/1,,book,50,40,26,3,0,4.15,304,Hardcover,,103,14,Vivian French,,,,,,166,10,7,"action,fairy-tales,fantasy,fiction,humor,juvenile,middle-grade,paranormal,relationships,romance,young-adult"
16086001,,Ayiti,,B009MTR0KS,,,ES,2012/10/6,,en-GB,true,2,16085997,132,225,47,5,2012/8/26,,book,39,7,0,1,0,4.79,612,Kindle Edition,,12,1,Vacirca Vaughn,,,,,,69,6,5,"amazon,christian,christian-fiction,fiction,historical-fiction,literary-fiction,romance"
16087001,1613124732,Home Made Summer,9781613124734,,,,ES,2013/4/1,"Stewart, Tabori & Chang",,true,6,15842676,795,1201,312,43,2012/5/14,Home made zomer,book,91,113,83,20,5,3.85,252,ebook,,0,0,Yvette van Boven,,,,,,405,11,6,"adult,cookbooks,cooking,food,non-fiction,reference,travel"
16087501,0230751954,Journey to the Centre of My Brain,9780230751958,,,,ES,2012/1/1,Pan Macmillan,,false,3,16087501,13,32,8,1,2012/1/1,,,4,1,2,1,0,4.00,96,Paperback,,7,1,James Carter,,,,,,4,0,,poetry
16088001,,An Easy Introduction to the Slide Rule,,,,,ES,1967/1/1,"Fawcett Publications, Inc.",eng,false,2,381461,52,72,17,5,1965/1/1,An Easy Introduction to the Slide Rule,,7,8,1,1,0,4.24,160,Paperback,,1,1,Isaac Asimov,William Barrs,,,,,31,1,1,"non-fiction,science"
16088501,,Един наивник на средна възраст,,,,,ES,1973/1/1,"Издателство ""Български писател""",bul,false,2,16088501,41,101,27,3,1973/1/1,,book,9,6,9,2,1,3.74,196,Paperback,,26,2,"Bogomil Rainov,Богомил Райнов",,,,,,9,1,,
16089001,,Bobbi doet boodschappen,9789020684018,,,,ES,2002/9/24,Kluitman,nl,false,1,16089001,5,10,3,1,2002/9/24,Bobbi doet boodschappen,book,0,1,2,0,0,3.33,28,Hardcover,,3,1,Ingeborg Bijlsma,Monica Maas,,,,,,1,1,
16089501,8700067121,Stellas frihed,,,,,ES,1987/1/1,Gyldendals Bogklubber,dan,false,2,16089501,4,6,2,0,1985/1/1,Stellas frihet,book,0,0,2,0,0,3.00,211,Hardcover,Book Club,1,0,Staffan Seeberg,,,,,,,0,,
16090001,1466233176,UnVamped,9781466233171,,,,ES,2011/11/30,CreateSpace,eng,false,1,16090001,25,32,7,0,2011/11/30,,book,4,3,0,0,0,4.57,54,Paperback,,7,0,Jayme Roxann Wright,,,,,,18,0,,
16090501,,Confessions of a Cougar,9780983779094,,,,ES,2012/11/13,Smashwords Edition,,true,3,16090501,11,14,4,1,2012/9/5,,book,1,1,1,1,0,3.50,,ebook,,4,1,Morgan St. James,,,,,,4,0,,
16091001,,Telemachus Rising,,,,,ES,2012/10/6,,eng,false,2,16091001,5,9,2,1,2012/10/6,,book,1,1,0,0,0,4.50,,,,2,1,Pierce Youatt,,,,,,3,0,,
16091501,,"Needing Him (The Droid Who Loved Me Trilogy, #3)",,B008Y9DGOQ,,,ES,2012/8/15,,en-GB,true,2,16091504,26,29,8,0,2012/8/15,,book,3,1,3,0,1,3.62,18,Kindle Edition,,1,0,Delilah Fawkes,,,,,,17,0,,"romance,science-fiction"
16092001,,كوني داعية أيتها المسلمة,,,,,ES,,,,false,1,16092001,62,57,12,0,,,book,9,3,0,0,0,4.75,,,,12,0,ناصر الشافعي,,,,,,50,0,1,
16092501,,"Alicia y Jill, pequeñas amazonas",,,,,ES,1967/1/1,Editorial Molino,spa,false,1,16092501,3,8,2,0,1966/1/1,Alice e Jill piccole amazzoni ,book,0,2,0,0,0,4.00,155,Hardcover,,2,0,Rossana Guarnieri,,,,,,1,0,,
16093001,9780985801,"Tukie Tales: A New Beginning for a Better Tomorrow (LOST, #1)",,,,,ES,2012/6/21,TUKIE TALES,eng,false,2,14421234,2,4,1,1,2012/3/23,,book,0,1,0,0,0,4.00,36,Paperback,,0,0,Debbie Burns,,,,,,1,0,,
16093501,1464105499,Economics,9781464105494,,,,ES,2012/5/15,Worth Publishers,,true,36,27149,668,695,176,9,2005/1/1,Economics,book,62,63,36,10,5,3.95,1200,ebook,,0,0,"Paul Krugman,Robin Wells",,,,,,384,10,33,"business,college,contemporary,economics,history,non-fiction,philosophy,politics,research,school,science,technology,textbooks"
16094001,,"Masters Of Taboo (Cannibalism, Digesting The Human Condition) The Definitive International Cannibal Collective",,,,,ES,2012/10/30,Unearthed Books ,eng,false,5,16092966,227,93,22,9,2012/10/16,,book,12,6,2,1,1,4.23,268,Mass Market Paperback,,1,0,"Mitchell J. Hyman,Stephen Biro",,,,,,192,0,2,"anthologies,anthropology,fiction,horror,short-stories,zombies"
16094501,,"Beginning of The End (Sons of the King, #7)",9781622081820,,,,ES,2012/10/20,Trestle Press,eng,true,1,16094501,26,30,6,1,2012/10/20,Sons Of The King - Volume 7 - Beginning of The End ,book,6,0,0,0,0,5.00,,ebook,,6,1,"Mark  Miller,Olivia Miller",,,,,,20,0,,
16095001,,"Popular Music, 1920-1979: A Revised Cumulation, Volume 3: Song Listings U-Z, Indexes, List of Publishers",,,,,ES,1985/1/1,Gale Research Company,eng,false,1,16095001,2,0,0,0,1985/1/1,,book,0,0,0,0,0,0.00,2827,Hardcover,,0,0,,,,Nat Shapiro,,,1,0,,
16095501,,The Allegory of Dusk,,B009SUIB5Y,,,ES,2012/10/17,Punk & Sissy Publications,eng,true,2,16095501,10,15,3,3,2012/10/17,,book,3,0,0,0,0,5.00,,Kindle Edition,,3,3,Amber Jerome~Norrgard,,,,,,6,0,,
16096001,8496141047,Clive Barker's Hellraiser tomo 4,9788496141049,,,,ES,,Alecta/Recerca,spa,false,4,14498312,806,1155,299,9,2015/2/9,,book,91,104,78,24,2,3.86,48,Paperback,,4,0,Clive Barker,,,,,,396,10,17,"comics,demons,fantasy,fiction,film,graphic-novels,graphic-novels-comics,horror,movies,supernatural,urban-fantasy"
16096501,,"De Dominee, de roman",9789020400380,,,,ES,2004/1/1,Uitgeverij L.J. Veen,nl,false,1,16096501,10,14,5,0,2004/1/1,,book,0,1,3,0,1,2.80,188,Paperback,,5,0,"Gerard Verhage,Paul Exloo",,,,,,2,0,1,
16097001,9021528851,Wervelwind,9789021528854,,,,ES,1996/1/1,Kosmos-Z&K Uitgevers,,false,42,219479,3243,6411,1865,76,1994/1/1,Whirlwind,book,349,467,744,261,44,3.44,223,Paperback,,3,1,Charles L. Grant,,,,,,727,8,21,"adventure,crime,fantasy,fiction,horror,mystery,mystery-thriller,novels,paranormal,science-fiction,speculative-fiction,supernatural,suspense,thriller,urban-fantasy"
16097501,,Jungle Picture,,,,,ES,1960/1/1,Cassell,eng,false,1,16097501,89,58,13,1,1960/1/1,Jungle Picture,book,8,4,0,1,0,4.46,183,Hardcover,,13,1,Norah Burke,,,,,,64,0,3,fiction
16098001,8461422201,(Per)Versiones: Cuentos Populares,9788461422203,,,,ES,2010/1/1,Sedice,spa,false,3,14289611,30,54,16,0,2010/1/1,(Per) Versiones: Cuentos Populares,book,4,5,2,3,2,3.38,240,Paperback,,0,0,"Aintzane Egiluz Romero,Alejandro Guardiola,Alex V. Vegas,Ana Morán,Antonio J. Llatas López,David Prieto,Diana Muñiz,Eugeni Guillem Darné,Héctor Gómez Herrero,Ignacio Cid Hermoso,Jorge Asteguieta Reguero,Josep Martin Brown,José María Perez Hernández,Juan Carlos Pereletegui,Juan José Tena,Julio Igualador,Laura López Alfranca,Laura Quijano Vincenzi,Leonardo Ropero,Manuel Osuna,Mario Manzano Vázquez,Moisés Cabello Alemán,Ricardo Montesinos,Sergio Macías García,Susana Eevee,Virginia Pérez de la Puente",,,,,,8,0,,
16098501,,Hollow Beings,,B008AF035Y,,,ES,2012/6/10,Amazon Digital,eng,true,1,16098501,6,15,3,0,2012/6/10,,book,3,0,0,0,0,5.00,21,Kindle Edition,,3,0,Sheila Marie,,,,,,3,0,,
16099001,1939051045,World of Vacancy,9781939051042,,,,ES,2012/10/15,Lucky Bat Books,eng,true,3,16099001,27,47,11,1,2012/10/15,,book,7,2,1,0,1,4.27,249,Kindle Edition,1,9,1,Charles P. Schmidt,,,,,,14,0,,fiction
16099501,,"Пролегомени до українського дискурсу: етнокультурний, політичний та лінгво-семіотичний аспекти",9789666403349,,,,ES,2012/6/22,Прикарпатський національний університет імені Василя Стефаника,ukr,false,1,16099501,2,4,1,1,2012/7/30,,book,0,1,0,0,0,4.00,259,Paperback,1st,1,1,Yaroslav Melnyk,,,Криворучко Наталя,,,1,0,,
16100001,,Check-list of the Birds of Kenya...,,,,,ES,1986/5/1,Engkish Press,eng,false,1,16100001,1,0,0,0,1986/5/1,Check-list of the Birds of Kenya,book,0,0,0,0,0,0.00,31,Paperback,Second Edition,0,0,"Ornitilogical Sub-commitee, EANHS",,,,,,,0,,"non-fiction,reference"
16100501,144055725X,Bring It On,9781440557255,,,,ES,2012/11/26,Crimson Romance,eng,false,5,16100501,794,81,21,14,2012/11/26,,book,4,12,3,2,0,3.86,290,Paperback,,15,9,Shelley K. Wall,,,,,,760,5,3,"romance,suspense"
16101001,0822353547,Visual Time: The Image in History,9780822353546,,,,ES,2013/6/17,Duke University Press Books,,false,4,16101001,70,83,20,3,2013/1/1,,,8,7,5,0,0,4.15,224,Hardcover,,15,3,Keith Moxey,,,,,,41,3,3,"art,history,humor"
16101501,,The Postie and the Priest,9781743240014,,,,ES,,Fairfield Press,eng,false,2,16101501,4,0,0,0,,,book,0,0,0,0,0,0.00,372,Paperback,,0,0,Ron Burrows,,,,,,2,1,,
16102001,1476729115,"The 17 Day Diet Cycle 1 Kickstart Recipes (from The 17 Day Diet Books): 17 Breakfast, Lunch, Dinner, Dessert, and Snack Recipes for Cycle 1 of The 17 Day Diet",9781476729114,,,,ES,2013/1/8,Free Press,,true,2,16102001,6,0,0,0,2013/1/8,,,0,0,0,0,0,0.00,32,ebook,,0,0,Mike Moreno,,,,,,6,0,,
16103001,,За новия интелектуалец,9789548585071,,,,ES,2008/10/29,"МАК & ""Изток-Запад""",bul,false,33,663,6666,10278,2796,124,1961/1/1,For the New Intellectual: The Philosophy of Ayn Rand,book,862,815,661,267,191,3.68,224,Paperback,,5,0,Ayn Rand,,,,,,2930,18,185,"autobiography,biography,classics,collections,criticism,economics,essays,fiction,history,literature,modern,non-fiction,philosophy,politics,self-help,sociology,unfinished,writing"
16103501,1781841381,"No Going Home (Home, #1)",9781781841389,,,,ES,2012/11/26,Total-E-Bound,eng,true,7,3091382,3998,9462,2404,159,2006/1/1,No Going Home,book,727,980,541,128,28,3.94,182,ebook,,28,6,T.A. Chase,,,,,,1246,65,18,"abuse,adult,animals,contemporary,erotica,fiction,gay,lgbt,romance,sports"
16104001,,دائرةاللهب,,,,,ES,,,,false,1,16104001,3,4,2,0,,,book,0,0,0,2,0,2.00,136,,,2,0,طةوادى,,,,,,1,0,,
16104501,,O Banco como Goldman Sachs dirige o Mundo,,,,,ES,2012/5/1,A Esfera dos Livros,por,false,9,9392531,241,440,124,11,2010/1/1,,book,13,50,53,8,0,3.55,238,Paperback,,3,0,Marc Roche,,,,,,72,3,16,"business,economics,france,non-fiction,politics,school"
16105001,,Het ontwerpen van een onderzoek,9789460667534,,,,ES,,StudentsOnly,,true,1,16105001,0,0,0,0,,,,0,0,0,0,0,0.00,,ebook,,0,0,Unknown,,,,,,,0,,
16105501,,Lobbyen / uittreksel,9789460663437,,,,ES,,StudentsOnly,,true,1,16105501,0,0,0,0,,,,0,0,0,0,0,0.00,,ebook,,0,0,Unknown,,,,,,,0,,
16106001,,XXX Lara,9789025860370,,,,ES,2012/1/1,Leopold,nl,true,2,16024646,7,8,3,0,2012/1/1,,book,0,0,2,1,0,2.67,,ebook,,0,0,Erna Sassen,,,,,,3,0,,
16106501,,Малышка и Карлссон (Этот мир - наш!),,,,,ES,2006/1/1,"АСТ, Астрель-СПб",rus,false,1,16106501,22,66,19,1,2006/1/1,,book,6,2,7,3,1,3.47,,,,19,1,"Александр Мазин,Анна Гурова",,,,,,1,0,,"fantasy,teen"
16107501,,تاريخ العمارة الداخلية الحديثة 1880-2000,,,,,ES,2011/1/1,عالم الكتب ,ara,false,1,16107501,92,34,9,0,2011/1/1,,book,4,3,0,0,2,3.78,640,Hardcover,,9,0,جلال أحمد الشايب,,,,,,72,0,4,
16108001,,Насан туршийн амьдралын төлөвлөгөө,,,,,ES,,,mon,false,1,16108001,58,27,8,2,,,book,4,0,0,3,1,3.38,212,,,8,2,Д.Батдорж,,,,,,38,0,1,personal-development
16108501,9782012031,Wicca Tome 4 : Les Retrouvailles,,,,,ES,2012/9/26,Hachette,fre,false,5,10346457,6357,15133,3448,76,2011/7/7,,book,1999,907,445,78,19,4.39,504,Paperback,Black Moon,10,1,Cate Tiernan,,,,,,1446,22,60,"fantasy,fiction,high-school,love,magic,mystery,paranormal,romance,supernatural,urban-fantasy,witches,young-adult"
16109001,9532061568,Gospa od bluda,,,,,ES,2005/1/1,"Meandar, Zagreb",scr,false,1,16109001,1,4,1,0,2005/1/1,,book,0,1,0,0,0,4.00,16,Paperback,,1,0,"Edo Popović,Igor Hofbauer",,,,,,,0,,
16110001,,Manuale di sopravvivenza per le donne che amano troppo,9788820040468,,,,ES,2006/2/1,Sperling & Kupfer,ita,false,17,340722,4173,5047,1451,100,2005/2/1,Be Honest--You're Not That Into Him Either: Raise Your Standards and Reach for the Love You Deserve,book,343,385,428,213,82,3.48,163,Paperback,,2,0,Ian Kerner,,,,,,2464,14,38,"chick-lit,humor,love,non-fiction,relationships,romance,self-help"
16110501,,The Master Fiddler,,,,,ES,1978/9/1,Harlequin Books,eng,false,24,12360291,561,866,252,38,1977/1/1,The Master Fiddler,book,48,65,100,27,12,3.44,188,Mass Market Paperback,Harlequin Presents #252,29,6,Janet Dailey,,,,,,167,12,9,"americana,christmas,contemporary,fiction,harlequin,holiday,romance"
16111001,034911396,Works on Paper: the craft of biography and autobiography,,,,,ES,2003/1/1,Abacus,eng,false,5,502005,47,64,18,4,2002/1/1,Works on Paper,,1,8,9,0,0,3.56,319,Paperback,,1,1,Michael Holroyd,,,,,,22,1,1,"autobiography,biography,writing"
16111501,,Lennet wen die laaste rondte,,,,,ES,,,afr,false,1,16111501,6,6,2,0,,,book,0,0,2,0,0,3.00,,Hardcover,,2,0,Luitenant X,,,,,,3,0,,
16112001,,Aquí yace... o no,978844153267,,,,ES,2012/11/1,Anaya,spa,false,1,16112001,17,32,8,1,2012/11/1,,book,3,2,3,0,0,4.00,320,Paperback,,8,1,Marta Sanmamed,,,,,,8,0,,
16112501,1475083564,From Here To There:5 Steps To Doing Your Life's Work Every Day,9781475083569,,,,ES,2012/10/20,CreateSpace,eng,false,2,16112501,47,18,4,3,2012/10/20,From Here To There:5 Steps To Doing Your Life's Work Every Day,book,2,2,0,0,0,4.50,80,Paperback,,4,3,Denise W. Barreto,,,,,,35,1,,
16113001,,HUELE A GAS: LOS MISTERIOS DEL GASODUCTO,,,,,ES,1977/1/1,Editorial Posada,spa,false,1,16113001,2,4,1,0,1977/1/1,,book,0,1,0,0,0,4.00,124,Paperback,,1,0,Heberto Castillo / Rius,,,,,,1,0,,
16113501,,Arte Islâmica (Visual Encyclopedia of Art),9788881177752,,,,ES,2009/1/1,Scala,por,false,1,16113501,4,0,0,0,2009/1/1,,book,0,0,0,0,0,0.00,320,Paperback,,0,0,Giovanni Curatola,,,,,,2,0,,art
16114001,,Икс,9785699597499,,,,ES,2012/1/1,Эксмо,rus,false,2,16114001,74,196,54,1,2012/1/1,,book,10,22,15,6,1,3.63,288,Hardcover,,52,1,Дмитрий Быков,,,,,,11,2,,
16114501,,Mississippi Mud A True Story from a Corner of the Deep South- 364 pgs.,,,,,ES,1994/1/1,Simon & Schuster,eng,false,10,178762,1202,1771,448,54,1994/1/1,Mississippi Mud: Southern Justice and the Dixie Mafia,book,137,193,83,30,5,3.95,364,Hardcover," 1st ED., 1st print",1,1,Edward Humes,,,,,,478,6,46,"action,crime,history,mystery,non-fiction,true-crime"
16115001,,The Jungle Book,,,,,ES,,"MacMillan Publishing Co., Inc., U.S.A.",eng,false,2014,77270,154245,364042,92539,2954,1893/1/1,The Jungle Book,book,31153,31770,23284,5013,1319,3.93,300,Hardcover,International Collectors Library Edition,1,0,Rudyard Kipling,,,,,,43903,219,4380,"adventure,animals,british-literature,childrens,classic-literature,classics,english-literature,fantasy,fiction,historical-fiction,juvenile,literature,middle-grade,movies,novels,school,short-stories,young-adult"
16115501,1613752938,"Hurt (Solitary Tales, #4)",9781613752937,,,,ES,2013/1/28,Oasis Audio,eng,false,6,13207224,972,1301,297,55,2012/9/1,Hurt,book,171,82,32,10,2,4.38,,Audio CD,,0,0,Travis Thrasher,,,,,,101,18,12,"christian,christian-fiction,family,fantasy,fiction,horror,mystery,religion,romance,supernatural,survival,suspense,thriller,unfinished,young-adult"
16116001,1468306707,Centurion: A Novel of the Roman Legion,9781468306705,,,,ES,2013/5/28,Overlook TP,,false,39,1852646,6709,19139,4548,127,2007/1/1,Centurion,book,1929,1787,702,110,20,4.21,352,Paperback,,9,0,Simon Scarrow,,,,,,1371,11,54,"action,adventure,fantasy,fiction,historical,historical-fiction,history,novels,romance,war"
16116501,,Strafbataljon 999,,,,,ES,1962/1/1,de boekerij,nl,false,12,1108623,124,242,65,2,1959/1/1,Strafbattalion 999,book,17,19,24,4,1,3.72,220,Hardcover,4e druk,1,0,Heinz G. Konsalik,,,,,,37,2,2,"fiction,historical,thriller,war"
16117001,3451062569,Ein Jahr in San Francisco: Reise in den Alltag,9783451062568,,,,ES,2012/1/1,Herder,ger,false,4,24904358,338,108,28,9,2012/1/1,,book,7,12,7,2,0,3.86,192,Paperback,,18,2,Johanna Lehmann,,,,,,292,1,,
16117501,1442489685,"The Dark Is Rising Sequence: Over Sea, Under Stone; The Dark Is Rising; Greenwitch; The Grey King; Silver on the Tree",9781442489684,,,,ES,2013/6/11,Margaret K. McElderry Books,,false,18,11306,23835,61469,14346,673,1984/1/1,"The Dark Is Rising Sequence (The Dark Is Rising, #1-5)",book,7416,4414,1888,441,187,4.28,1088,Hardcover,,5,0,Susan Cooper,,,,,,7567,35,180,"adult,adventure,childrens,classics,epic-fantasy,fantasy,fiction,high-fantasy,historical-fiction,juvenile,literature,magic,middle-grade,mystery,mythology,paranormal,science-fiction,science-fiction-fantasy,speculative-fiction,supernatural,teen,urban-fantasy,young-adult"
16118001,,Palmetto Blew,,B0098T35PQ,,,ES,2012/9/10,,,true,2,16118001,13,15,4,2,2012/9/10,,book,1,1,2,0,0,3.75,,Kindle Edition,,4,2,Mary Beth Pastorino,,,,,,6,0,1,
16118501,1471401243,"The Vincent Brothers (The Vincent Boys, #2)",9781471401244,,,,ES,2012/11/15,Hot Key Books,eng,true,43,13369678,73305,191398,46414,2377,2012/6/1,The Vincent Brothers,book,19803,15885,8093,1931,702,4.12,,ebook,1st edition (UK),332,17,Abbi Glines,,,,,,359,308,98,"adult,chick-lit,college,contemporary,drama,fiction,high-school,love,new-adult,realistic-fiction,romance,sports,teen,young-adult"
16119001,0615722822,A Week with Fiona Wonder,9780615722825,,,,ES,2013/2/1,Open Books,eng,false,3,16119001,240,73,20,12,2012/12/25,,book,7,5,4,2,2,3.65,262,Paperback,,20,12,Kelly Huddleston,,,,,,216,2,,"drama,family,fiction,middle-grade,social-issues,young-adult"
16119501,,Aventura Alucinante,9789899800335,,,,ES,,,por,true,6,15951105,237,43,11,3,2003/1/1,Aventura Alucinante,book,2,7,1,1,0,3.91,,ebook,iBooks,0,0,Glauco Adams,,,,,,212,2,1,"fantasy,science-fiction,teen,time-travel,young-adult"
16120001,9545853492,Синдромът,9789545853494,,,,ES,2002/1/1,Бард,bul,false,28,227479,1587,3340,897,61,2001/1/1,The Syndrome,book,190,344,297,57,9,3.72,446,Paperback,,6,0,"John Case,Джон Кейс",,,,,,382,10,11,"adult,adventure,contemporary,dark,fiction,mystery,mystery-thriller,relationships,romance,science,science-fiction,suspense,thriller"
16120501,,Fundamentals of Play Directing,,,,,ES,1941/1/1,"Rinehart & Company, Inc.",eng,false,7,254815,213,221,57,3,1941/1/1,Fundamentals of Play Directing,,20,16,16,4,1,3.88,428,Hardcover,,3,0,Alexander Dean,,,,,,123,2,6,"art,drama,education,grad-school,non-fiction,research,theatre"
16121001,,الهوية,,,,,ES,,,,false,93,28635,32374,65655,17848,1176,1997/10/29,L'identité,book,3544,7008,5599,1409,288,3.68,,,,4,0,"Milan Kundera,ميلان كونديرا",,,,,,9901,54,389,"adult,classics,contemporary,drama,european-literature,fiction,france,literary-fiction,literature,modern,novella,novels,philosophy,psychology,relationships,romance"
16121501,1477485155,Drabsville,9781477485156,,,,ES,2012/9/27,Createspace,eng,false,1,16121501,1,5,1,0,2012/9/27,Drabsville,book,1,0,0,0,0,5.00,34,Paperback,first,1,0,Jan Clifton Watford,,,,,,,0,,
16122001,,"Offshores, Taxes and Tax Schemes",,,,,ES,,,rus,false,1,16122001,1,1,1,0,,,book,0,0,0,0,1,1.00,,,,1,0,Ilya Melnikov,,,,,,,0,,
16122501,,Adventures At Sea,,,,,ES,1952/3/19,Folket i Bilds Förlag,swe,false,1,16122501,1,2,1,0,1952/3/19,,book,0,0,0,1,0,2.00,287,Hardcover,,1,0,Karl Forsell,,,,,,,0,,
16123001,1480064718,Collide,9781480064713,,,,ES,2012/11/1,,eng,false,3,14759003,18,16,4,1,2012/10/1,,book,1,2,1,0,0,4.00,324,Paperback,,0,0,A.C. Dillon,,,,,,9,0,2,mystery
16123501,9789970251,My Life's Journey,,,,,ES,2011/1/1,Fountain Publishers,,false,1,16123501,27,21,8,3,2011/1/1,,book,0,1,4,2,1,2.62,294,Paperback,,8,3,Janet Kataah Museveni,,,,,,18,0,1,memoir
16124001,,Rosalie Blum #3,9788865030851,,,,ES,2012/9/1,Comma 22,ita,false,3,6889691,259,777,190,16,2010/2/26,,book,62,88,35,5,0,4.09,128,Brossura,,3,0,Camille Jourdy,,,,,,36,5,,"comics,contemporary,france,graphic-novels,graphic-novels-comics"
16124501,8475904963,Un collar de piel de serpiente,9788475904962,,,,ES,1987/1/1,Editorial Astri,spa,false,1,16124501,5,3,1,1,1987/1/1,Un collar de piel de serpiente,book,0,0,1,0,0,3.00,96,Paperback,,1,1,Silver Kane,,,,,,4,0,,
16125001,,Bahasa Prevoir Budaya,9786028533111,,,,ES,2009/1/1,Pinus Book Publishing,ind,false,1,16125001,23,17,6,2,2009/1/1,,book,1,0,3,1,1,2.83,212,Paperback,,6,2,R. Kunjana Rahardi,,,,,,11,0,,
16125501,,After Hours (Cartoons From The Saturday Evening Post),,,,,ES,1961/11/1,Popular Library,eng,false,1,16125501,2,2,1,0,1960/9/1,After Hours,book,0,0,0,1,0,2.00,128,Paperback,First,1,0,,,,Marione R. Nickels,,,,0,,
16126001,,اسرائيل وهويتها الممزقة,,,,,ES,,مركز دراسات الوحدة العربية,ara,false,1,16126001,37,11,4,1,,,book,0,2,0,1,1,2.75,140,,,4,1,عبد الله عبد الدائم,,,,,,28,0,,
16126501,8202287987,Halvbroren: Roman,9788202287986,,,,ES,2008/1/1,Cappelen Damm,nor,false,61,125523,6463,10975,2683,149,2001/1/1,Halvbroren,book,1058,1026,423,136,40,4.09,,MP3 CD,,1,0,Lars Saabye Christensen,,,,,,2988,9,167,"classics,contemporary,drama,european-literature,fiction,historical,historical-fiction,international,literary-fiction,literature,novels,unfinished"
16127001,9025432468,De verering van Quirina T.,9789025432461,,,,ES,2009/1/1,Pandora Pockets,nl,false,2,6597856,34,54,17,1,2007/1/1,De verering van Quirina T.,book,1,6,6,3,1,3.18,317,Mass Market Paperback,,1,1,L.H. Wiener,,,,,,14,1,,literature
16127501,,Scandal on Half Moon Street,,B00A13UOVG,,,ES,2012/11/1,"Astraea Press, LLC",en-GB,true,2,16127501,159,259,76,12,2012/11/1,,book,18,21,20,8,9,3.41,,Kindle Edition,,75,11,Vivian Roycroft,,,,,,57,4,6,"christmas,historical,regency,romance"
16128501,,The Laughterhouse,9780143568292,,,,ES,2012/10/24,Penguin New Zealand,eng,false,20,13260312,1298,2432,605,81,2012/8/21,,book,186,276,119,17,7,4.02,403,Paperback,,11,1,Paul Cleave,,,,,,64,12,14,"crime,fiction,horror,mystery,mystery-thriller,thriller"
16129001,1452641250,"The Mighty Storm (The Storm, #1)",9781452641256,,,,ES,2012/12/31,Tantor Media,eng,false,19,15724654,106396,282112,67528,3586,2012/8/20,The Mighty Storm,book,31923,21437,9875,2831,1462,4.18,,Audio CD,,2,0,Samantha Towle,,,,,Justine Eyre,31469,237,953,"adult,adult-fiction,chick-lit,contemporary,drama,erotica,fiction,love,music,new-adult,romance"
16130001,8427020503,Los hijos de los jedi (Star Wars),9788427020504,,,,ES,1995/1/1,Martínz Roca,spa,false,24,555313,12492,26895,8216,152,1995/5/1,Star Wars: Children of the Jedi,book,1485,1919,2832,1318,662,3.27,381,Paperback,,4,0,Barbara Hambly,,,,Albert Solé,,2059,34,58,"adult,adventure,aliens,fantasy,fiction,novels,romance,science,science-fiction,science-fiction-fantasy,speculative-fiction"
16130501,1451673671,Time Flies,9781451673678,,,,ES,2013/6/11,Touchstone,eng,false,9,16130501,5066,6620,1887,335,2013/6/1,,book,330,617,673,216,51,3.51,320,Hardcover,,1733,320,Claire Cook,,,,,,2829,56,20,"adult,adult-fiction,chick-lit,childrens,contemporary,family,fiction,humor,romance,unfinished"
16131001,,Zov za daljinama,,,,,ES,1940/1/1,"self-released, Zagreb",scr,false,1,16131001,0,0,0,0,1940/1/1,Zov za daljinama,book,0,0,0,0,0,0.00,64,Paperback,,0,0,"Nada Kesterčanek,Stanko Gašparević",,,,,,,0,,
16131501,8804336196,Le avventure di Philo Vance,9788804336198,,,,ES,1990/1/1,Mondadori (Omnibus gialli),ita,false,16,6474460,146,221,59,1,,,book,18,19,14,5,3,3.75,630,Hardcover,,1,0,S.S. Van Dine,,,,Pietro Ferrari,,53,2,22,"fiction,mystery"
16132001,0873590015,The Time Of My Life,,,,,ES,1973/1/1,,eng,false,1,16132001,1,0,0,0,1973/1/1,,book,0,0,0,0,0,0.00,201,Hardcover,,0,0,Thomas Griswold Jr.,,,,,,1,0,,"autobiography,non-fiction"
16133501,0004226771,Under the Red Robe,9780004226774,,,,ES,1958/1/1,Collins,eng,false,54,6264631,120,209,58,12,1894/1/1,,book,12,19,19,8,0,3.60,256,Hardcover,reprint,2,1,Stanley J. Weyman,,,,,,53,5,1,"adventure,classics,family,fiction,france,historical,historical-fiction,novels,romance,victorian"
16134001,,Julie's Older Visitor,9781466141995,,,,ES,2012/2/22,Kali Lowe,eng,true,2,16134001,3,0,0,0,2012/2/22,,book,0,0,0,0,0,0.00,0,ebook,,0,0,Kali Lowe,,,,,,1,0,,
16134501,,Caught Running,,B009HUFCKM,,,ES,2012/9/28,Dreamspinner Press,eng,false,12,2536103,11915,30512,7702,710,2007/12/1,Caught Running,book,2472,3092,1624,398,116,3.96,8,Audiobook,,32,16,"Abigail Roux,Madeleine Urban",,,,,Jeff Gelder,3192,110,79,"adult,contemporary,erotica,fiction,funny,gay,high-school,lgbt,queer,romance,sports"
16135501,,Is Your Frog Boiling? Ten Signs That Your Life May Be Spinning Out Of Control And What You Can Do About It,,,,,ES,,,eng,true,4,2223784,15,27,8,2,2007/11/1,Is Your Frog Boiling? - Ten Signs That Your Life May Be Spinning Out Of Control And What You Can Do About It,book,2,2,1,3,0,3.38,,Kindle Edition,,0,0,Richard H. Madow,,,,,,6,0,,self-help
16136001,,"Kakoong, Pahlawan Pulau Awan Vol. 7",,,,,ES,2004/1/1,MnC,ind,false,1,16136001,25,69,14,0,2004/1/1,,book,13,1,0,0,0,4.93,,,,14,0,"Choong Ho Lee,Jae Kyung Uhm",,,,,,15,0,,
16137001,,Haven: Jennyville,9781466065055,,,,ES,2011/9/11,,eng,true,2,16137001,3,5,1,0,2011/9/11,,book,1,0,0,0,0,5.00,,ebook,,1,0,Jeff Ping,,,,,,1,0,,
16137501,9536106418,Mila Kumbatović i njezino razabiranje svijeta / Mila Kumbatović and her vision of the world,,,,,ES,2003/1/1,"Institut za povijest umjetnosti, Zagreb",mul,false,1,16137501,0,0,0,0,2003/1/1, Mila Kumbatović i njezino razabiranje svijeta / Mila Kumbatović and her vision of the world ,book,0,0,0,0,0,0.00,300,,,0,0,Ivanka Reberski,,,,Sonja Bašić,,,0,,
16138001,,"Van Sylvia, Ellen en kleine Paul",,,,,ES,,Kluitman,,false,1,16138001,9,0,0,0,,,book,0,0,0,0,0,0.00,94,Hardcover,,0,0,Elisabeth van Bergen,,,,,,8,0,,
16138501,,Langley School,,,,,ES,1850/1/1,John and Charles Mozley,eng,false,1,16138501,0,0,0,0,1850/1/1,Langley School,book,0,0,0,0,0,0.00,252,Hardcover,,0,0,Charlotte Mary Yonge,,,,,,,0,,
16139001,,The Broken Music Box,B00A47050Y,,,,ES,2012/11/8,CAS,eng,true,2,16139001,96,15,4,0,2012/11/8,,book,1,2,0,1,0,3.75,208,Kindle Edition,,4,0,Kristoffer Hernandez,,,,,,86,0,2,
16139501,,O Segundo Tempo,,,,,ES,2006/1/1,Companhia das Letras,por,false,2,5202579,79,132,39,1,2006/1/1,O Segundo Tempo,book,4,16,11,7,1,3.38,120,Paperback,1,5,0,Michel Laub,,,,,,27,1,,fiction
16140001,,Lieschens Streiche und andere Erzählungen,,,,,ES,1950/1/1,,ger,false,4,16139281,1,0,0,0,1907/1/1,,book,0,0,0,0,0,0.00,157,Hardcover,,0,0,"Agnes Sapper,Cora Lauzil",,,,,,1,0,,
16140501,2264056746,"L'odyssée de Noël (Petits crimes de Noël, #8)",9782264056740,,,,ES,2012/11/8,10/18,fre,false,16,8145257,1780,3390,1007,185,2010/1/1,,book,155,279,399,128,46,3.37,186,Hardcover,,7,1,Anne Perry,,,,,,464,12,19,"abuse,adult-fiction,christmas,class,cozy-mystery,crime,dark,drama,fiction,historical,historical-fiction,holiday,murder-mystery,mystery,novella,short-stories,suspense,victorian"
16141001,8806176161,Gli amici di Eddie Coyle,9788806176167,,,,ES,2005/1/1,Einaudi,ita,false,32,82121,11778,23942,5910,588,1970/1/1,The Friends of Eddie Coyle,book,2076,2407,1149,209,69,4.05,176,Paperback,Stile Libero Noir,16,6,George V. Higgins,,,,"Luca  Conti,Luisa Piussi",,4936,35,209,"amazon,american,americana,classics,crime,detective,fiction,film,literature,mystery,mystery-thriller,novels,suspense,thriller"
16141501,147832855X,Grand Bazar Romania,9781478328551,,,,ES,2012/9/1,CreateSpace,rum,false,8,37781176,655,1130,296,53,2008/1/1,"Never Mind the Balkans, Here's Romania",book,88,106,69,26,7,3.82,260,Paperback,,5,1,Mike Ormsby,,,,,,303,10,21,"amazon,biography,biography-memoir,essays,humor,international,memoir,non-fiction,short-stories,travel,unfinished"
16142001,9029045752,De elzenkoning,9789029045759,,,,ES,1971/1/1,Meulenhoff,nl,false,59,52926,4798,6188,1523,95,1970/1/1,Le Roi des Aulnes,book,625,517,270,74,37,4.06,414,Paperback,,4,0,Michel Tournier,,,,Jenny Tuin,,2816,90,65,"classics,contemporary,fiction,france,historical,historical-fiction,history,literary-fiction,literature,modern-classics,novels,philosophy,war"
16142501,,Le nuove avventure di Nihal 4: L'Odio,,,,,ES,2009/12/5,Panini Comics,ita,false,2,16142501,173,244,72,1,2009/12/5,Le nuove avventure di Nihal - 4 L'Odio,periodical,12,22,21,16,1,3.39,40,,,57,1,"Gianluca Gugliotta,Licia Troisi,Massimo Dall'Oglio,Roberto Recchioni",,,,,,78,0,,"comics,contemporary,fantasy,graphic-novels,reference,young-adult"
16143001,,عذراء حماة,,,,,ES,2009/1/1,دار النواعير ,ara,false,1,16143001,61,59,17,4,2009/1/1,,book,4,3,8,1,1,3.47,56,Paperback,,17,4,عبد الله الدهامشة,,,,,,36,0,3,
16143501,,المختصر في أخبار البشر الجزء الثالث,,,,,ES,,,,false,1,16143501,6,0,0,0,,,book,0,0,0,0,0,0.00,,,,0,0,أبو الفداء,,,,,,6,0,,
16144001,0752488562,Birmingham Canals,9780752488561,,,,ES,2013/3/1,The History Press,,false,4,16144001,5,4,1,1,2013/1/31,,,0,1,0,0,0,4.00,160,Paperback,,0,0,Ray Shill,,,,,,1,1,,history
16144501,1452611173,Ike and Dick: Portrait of a Strange Political Marriage,9781452611174,,,,ES,2013/2/5,Tantor Media,,false,9,14335456,1121,1711,443,90,2013/1/8,,book,104,201,115,19,4,3.86,,Audio CD,,7,2,Jeffrey Frank,,,,,Arthur Morey,591,11,21,"american-history,biography,biography-memoir,historical,history,non-fiction,politics"
16145001,0784737517,PreTeen Student Book,9780784737514,,,,ES,2013/2/1,Standard Publishing,,false,6,13225345,0,0,0,0,2012/2/1,,,0,0,0,0,0,0.00,24,Paperback,,0,0,,,,,,,,0,,
16145501,144342269X,Cecilia,9781443422697,,,,ES,2012/12/18,HarperPerennial Classics,,true,99,198496,11273,12703,3399,146,1782/1/1,"Cecilia, or Memoirs of an Heiress",book,1012,1081,859,295,152,3.74,325,ebook,,1,0,Fanny Burney,,,,,,7370,130,81,"british-literature,chick-lit,classic-literature,classics,english-literature,european-literature,fiction,historical,historical-fiction,humor,literary-fiction,literature,novels,romance"
16146001,8022205745,Biely tiger,9788022205740,,,,ES,2010/1/1,Tatran,slo,false,116,1768603,208866,524980,140832,9174,2008/1/1,The White Tiger,book,30800,57745,38630,10453,3204,3.73,226,Hardcover,,17,1,Aravind Adiga,,,,,,48176,287,2707,"adult,adult-fiction,contemporary,crime,cultural,drama,fiction,historical-fiction,humor,international,literary-fiction,literature,mystery,novels,school,travel,unfinished"
16146501,,Krstný otec,,,,,ES,1974/1/1,TATRAN,slo,false,320,22034,454849,1284686,293982,7090,1969/3/10,The Godfather,book,162366,90464,31745,6358,3049,4.37,382,Hardcover,,82,5,Mario Puzo,,,,,,132999,932,4927,"action,adult,adult-fiction,american,classics,contemporary,crime,drama,family,fiction,historical,historical-fiction,literature,modern-classics,movies,mystery,mystery-thriller,novels,suspense,thriller"
16147001,,The Natural Resonance Revolution,,,,,ES,2010/1/7,lulu.com,eng,false,1,16147001,2,3,1,0,2010/1/1,,book,0,0,1,0,0,3.00,90,Paperback,,1,0,Drew Hempel,,,,,,1,0,,
16147501,,The Aluminum Turtle,,,,,ES,1960/1/1,,eng,false,5,16147501,14,19,5,2,1960/1/1,The Aluminum Turtle,,2,1,1,1,0,3.80,,Hardcover,,3,2,Baynard H. Kendrick,,,,,,1,1,,
16148001,3897059649,Unguad,9783897059641,,,,ES,2012/5/24,Emons,ger,false,2,16148001,4,3,1,0,2012/5/24,,book,0,0,1,0,0,3.00,239,Paperback,,1,0,Ingrid Werner,,,,,,3,0,,
16148501,,Medida por Medida,9789726104704,,,,ES,2001/4/1,Campo das Letras,por,false,626,91571,33891,72390,19712,794,1603/1/1,Measure for Measure,book,4400,6732,6590,1702,288,3.67,162,Hardcover,,31,4,William Shakespeare,,,,,,8360,224,316,"adult,british-literature,class,classic-literature,classics,college,comedy,drama,english-literature,fiction,historical,historical-fiction,humor,literature,plays,poetry,romance,school,textbooks,theatre"
16149001,0330274414,Mind Games,9780330274418,,,,ES,,,,false,1,16149001,2,4,1,0,,,book,0,1,0,0,0,4.00,,,,1,0,Laine Hall,,,,,,,0,,
16149501,,المختار من النجوم الزاهرة فى ملوك مصر والقاهرة,,,,,ES,,الهيئة المصرية العامة للكتاب,ara,false,1,16149501,27,21,7,0,,,book,1,1,3,1,1,3.00,151,,,7,0,جمال الدين أبوالمحاسن بن تغرى بردى الآتابكى,,,,,,20,1,1,historical
16150001,8702117185,Bhakti,9788702117189,,,,ES,2011/11/29,Gyldendal,dan,false,3,16150001,11,12,5,1,2011/11/29,Bhakti,book,1,0,1,1,2,2.40,258,Hardcover,1.,4,0,Anne Marie Ejrnæs,,,,,,5,0,,"fiction,historical-fiction"
16151001,,Crossbones,,,,,ES,,,,false,15,11157352,834,650,193,39,2011/9/1,,book,16,70,82,19,6,3.37,,,,0,1,Nuruddin Farah,,,,,,553,9,15,"adult-fiction,family,fiction,history,international,literary-fiction,literature,war"
16151501,,"Emily Strange: Temno (Emily the Strange Novels, #3)",9788074471148,,,,ES,2012/1/1,CooBoo,cze,false,13,8421720,3901,7135,1718,122,2010/1/1,Emily the Strange: Dark Times,book,715,630,309,49,15,4.15,208,Hardcover,,13,2,"Jessica Gruner,Rob Reger",,,,,,663,31,32,"adventure,childrens,comics,contemporary,fantasy,fiction,funny,ghosts,gothic,graphic-novels,high-school,horror,humor,juvenile,magic,middle-grade,mystery,novels,paranormal,science-fiction,teen,time-travel,urban-fantasy,young-adult"
16152001,,31 Superb & Healthy Baked Chicken Recipes You Can Rely On,,B0098J349S,,,ES,2012/9/9,Amanda Robson,en-GB,true,1,16152001,173,169,50,2,2012/9/9,,book,8,16,15,9,2,3.38,70,Kindle Edition,,50,2,Amanda Robson,,,,,,91,1,10,"cookbooks,cooking,food,health,non-fiction"
16152501,,Der böse Wolf,,B0078DO7MY,,,ES,2012/2/12,choose your art,ger,true,1,16152501,4,8,2,1,2012/2/12,,book,1,0,1,0,0,4.00,12,Kindle Edition,,2,1,Blum,,,,,,1,1,,
16153001,5890912143,Опиум,,,,,ES,2002/1/1,,rus,false,12,308903,682,1324,385,46,2002/1/1,Opium,book,70,107,141,56,11,3.44,167,Hardcover,,2,2,Maxence Fermine,,,,,,196,7,3,"adventure,contemporary,fiction,france,historical,historical-fiction,literary-fiction,literature,novels,romance"
16153501,842060108X,Estudio en Escarlata,,,,,ES,1985/1/1,Alianza Editorial S.A.,spa,true,37,102868,411759,1107842,266717,8465,1887/1/1,A Study in Scarlet,book,109395,102093,45214,6838,3177,4.15,136,ebook,,16,2,Arthur Conan Doyle,,,,,,111402,1131,6477,"adult,adult-fiction,adventure,british-literature,classic-literature,classics,crime,detective,english-literature,fiction,historical,historical-fiction,literature,murder-mystery,mystery,mystery-thriller,novels,school,short-stories,suspense,thriller,victorian"
16154001,,Expiration Date #2,9781624072789,,,,ES,2012/1/1,,,true,1,16154001,1,4,1,0,2012/1/1,,book,0,1,0,0,0,4.00,42,ebook,,1,0,Robert Zappia,Lee Wiley,,,,,,0,,science-fiction
16155001,0615723411,Thralled,9780615723419,,,,ES,2012/11/28,Clarice Publishing,eng,false,2,16155001,131,13,4,3,2012/10/28,,book,1,1,1,0,1,3.25,330,Paperback,,4,3,L.R. Pardee,,,,,,-7,1,,
16155501,,voice in the circle,,,,,ES,1955/1/1,pprivate,eng,false,1,16155501,1,5,1,1,1955/1/1,voice in the circle,book,1,0,0,0,0,5.00,96,Hardcover,noel young,1,1,jeanne d'orge,,,,,,,1,,poetry
16156001,,"Ball (His Emo Servant, #5)",9781301415977,,,,ES,2012/9/25,K Matthew,eng,true,2,16156001,68,110,31,4,2012/9/23,,book,7,9,10,4,1,3.55,,ebook,,31,4,K. Matthew,,,,,,28,2,,"bdsm,contemporary,erotica,gay,menage,novella"
16156501,,Reaching Deep,,B00A8RJGLO,,,ES,2012/11/18,,eng,true,2,16156501,7,14,3,1,2012/11/18,,book,2,1,0,0,0,4.67,130,Kindle Edition,,3,1,Jon Etheredge,,,,,,1,0,1,
16157001,951207169X,"Kuoleman riitit (In Death, #5)",978951207169,,,,ES,2008/5/1,Gummerus Kustannus,fin,false,8,74036,50074,142228,33306,1170,1997/5/1,Ceremony in Death,book,15580,12011,4971,627,117,4.27,420,Hardcover,,13,1,J.D. Robb,,,,,,6333,251,685,"action,adult,adult-fiction,chick-lit,contemporary,crime,detective,fantasy,fiction,murder-mystery,mystery,mystery-thriller,romance,science-fiction,suspense,thriller,urban-fantasy"
16157501,3426506025,Doppelband: Hexenkammer + Der Puppenkönig,9783426506028,,,,ES,,,ger,false,1,16157501,1,0,0,0,,,book,0,0,0,0,0,0.00,350,Paperback,,0,0,Wolf Serno,,,,,,1,0,,
16158001,080478700X,A New Era in U.S. Health Care: Critical Next Steps Under the Affordable Care Act,9780804787000,,,,ES,2013/4/24,Stanford Briefs,,false,3,16158001,39,54,15,2,2013/3/15,,,2,6,6,1,0,3.60,128,Paperback,,13,1,Stephen Davidson,,,,,,13,0,3,non-fiction
16158501,1594631018,Compelling People: The Hidden Qualities That Make Us Influential,9781594631016,,,,ES,2013/8/15,Avery,eng,false,9,16158501,5692,4284,1136,86,2013/8/15,,book,317,395,303,89,32,3.77,304,Hardcover,,930,80,"John Neffinger,Matthew Kohut",,,,,,3814,17,189,"business,inspirational,leadership,non-fiction,personal-development,politics,psychology,relationships,science,self-help,social,society,sociology"
16159001,0062265830,The Mirror Crack'd from Side to Side,9780062265838,,,,ES,2013/3/26,HarperAudio,,false,204,16372,45190,105750,27074,1047,1962/1/1,The Mirror Crack'd from Side to Side,book,7294,11177,7488,993,122,3.91,,Audiobook,,5,0,Agatha Christie,,,,,,10101,105,411,"adult,adult-fiction,british-literature,classics,cozy-mystery,crime,detective,fiction,historical,historical-fiction,literature,murder-mystery,mystery,mystery-thriller,novels,suspense,thriller"
16159501,,دستی میان پنجره و باران,,,,,ES,,,,false,1,16159501,1,0,0,0,,,book,0,0,0,0,0,0.00,,,,0,0,محمود معتقدی,,,,,,1,0,,
16160501,1938404378,"Fraction of Stone (Fraction, #1)",9781938404375,,,,ES,2013/3/21,Sapphire Star Publishing,eng,false,6,23877713,1011,424,104,50,2013/3/4,,book,42,33,25,3,1,4.08,293,Paperback,,82,45,Kelley Lynn,,,,,,868,14,,"adventure,fantasy,fiction,mythology,novels,survival,teen,young-adult"
16161001,,سورية ثورة من فوق,9789953215150,,,,ES,2011/11/1,رياض الريس للكتب والنشر,ara,false,12,4549761,145,132,33,1,2001/6/21,Syria: Revolution from Above,book,11,13,7,2,0,4.00,320,Paperback,,7,0,Raymond A. Hinnebusch,,,,,,36,1,1,"non-fiction,politics"
16161501,,الهروب إلى الحرية,,,,,ES,2010/10/1,مؤسسة البلاغ,,false,2,16161501,55,61,17,3,2010/10/1,,book,2,8,6,0,1,3.59,288,,,17,3,حسين الشهرستاني,,,,,,26,0,,biography
16162001,,حزنا على ياسمين,,,,,ES,,كتابي ,ara,false,1,16162001,48,79,22,7,,,book,7,5,6,2,2,3.59,61,,,22,7,محيى الدين أحمد,,,,,,22,2,,poetry
16162501,,Zen Steve'a Jobsa,9788324656424,,,,ES,2012/1/1,ebookpoint.pl,pol,true,19,13078116,939,2029,589,71,2011/12/2,The Zen of Steve Jobs,book,98,183,202,95,11,3.44,80,ebook,,1,0,Caleb Melby,,,,,,239,2,13,"biography,business,comics,graphic-novels,non-fiction,philosophy,religion,science,spirituality,young-adult"
16163001,Headingthe,The Firefighter and the Lady Doc,9780987711779,,,,ES,2012/1/1,Smashwords Edition,eng,true,2,20529439,11,13,3,0,2012/1/1,,book,2,0,1,0,0,4.33,,Kindle Edition,,0,0,Margery Scott,,,,,,7,0,1,
16163501,,Second Chance : A Lesbian Romance,,B009D1NUP4,,,ES,2012/9/17,,eng,true,2,29623295,94,151,39,6,2012/9/17,,book,9,21,6,1,2,3.87,140,Kindle Edition,,31,5,Judy Folger,,,,,,38,0,9,
16164001,,"Magic's Guardian (Magic, #1)",,B009BC51R0,,,ES,2012/9/14,Barbara Mason,en-GB,true,1,16164001,27,37,8,1,2012/9/14,,book,7,0,0,1,0,4.62,290,Kindle Edition,,8,1,Barbara  Mason,,,,,,18,0,1,fantasy
16164501,,"Black 9/11: Money, Motive and Technology",,B008B927IK,,,ES,,,eng,true,4,16164501,101,171,43,1,2012/5/22,,book,16,15,8,3,1,3.98,,Kindle Edition,,43,1,Mark H. Gaffney,,,,,,26,0,18,politics
16165001,8871686306,Il mio regalo sei tu,9788871686301,,,,ES,2012/10/1,Marcos y Marcos,ita,false,1,16165001,18,37,12,2,2012/10/1,,book,0,4,6,1,1,3.08,284,Paperback,,12,2,Sarah Spinazzola,,,,,,6,0,-1,
16165501,,Hormon Cinta: Sebuah Romansa Canda,9789792286229,,,,ES,2012/1/1,PT Gramedia Pustaka Utama,ind,false,1,16165501,7,12,3,1,2012/1/1,,book,2,0,0,1,0,4.00,216,Paperback,,3,1,Ari Z. Nanto,,,,,,3,0,,
16166001,,Dylan Dog n. 63: Maelstrom!,,,,,ES,1994/10/1,Sergio Bonelli Editore,ita,false,3,10480247,128,317,77,2,1991/1/1,Dylan Dog n. 63: Maelstrom! ,book,30,33,8,5,1,4.12,96,Paperback,Ristampa,0,0,Tiziano Sclavi,Luigi Piccatto,,,,,15,0,,"comics,horror,reference"
16166501,,Finding the future,,B009X43RXG,,,ES,2012/10/25,Canta Libre,en-GB,true,2,16166501,7,4,1,0,2012/10/25,,book,0,1,0,0,0,4.00,27,Kindle Edition,,1,0,Graham Storrs,,,,,,4,0,,
16167001,9703204333,Razonamiento y argumentación jurídica; El paradigma de la racionalidad y la ciencia del derecho,,,,,ES,2003/1/1,UNIVERSIDAD NACIONAL AUTÓNOMA DE MÉXICO,spa,false,1,16167001,9,23,6,1,2003/1/1,,book,2,2,1,1,0,3.83,,Paperback,,6,1,Rolando Tamayo y Salmorón,,,,,,1,0,,
16167501,,Super Arme,,,,,ES,,novagenics.com,ger,false,2,13026786,3,3,1,0,1994/1/1,,,0,0,1,0,0,3.00,,,,1,0,Ellington Darden,,,,,,1,0,,
16168001,1479197610,Engagement with a Black Widow,9781479197613,,,,ES,2012/9/9,Createspace,eng,false,1,16168001,1,5,1,0,2012/9/9,,book,1,0,0,0,0,5.00,294,Paperback,,1,0,Edward Carl,,,,,,,0,,
16168501,,"Angel Heart, Vol. 56",,,,,ES,2009/12/10,Planet Manga,ita,false,1,16168501,10,12,3,0,2009/12/10,,book,1,1,1,0,0,4.00,120,Paperback,,3,0,Tsukasa Hojo,,,,,,6,0,,graphic-novels
16169001,,Jar,,,,,ES,2007/1/1,Editura Cartex,rum,false,3,7624011,484,1082,279,5,1934/1/1,Jar,book,100,76,75,25,3,3.88,,,,12,0,Liviu Rebreanu,,,,,,134,1,3,"classics,novels,school"
16169501,0992174260,Evicted from My Space,9780992174262,,,,ES,2012/11/15,Verity Publishers,eng,false,1,16169501,1,4,1,1,2012/11/15,,book,0,1,0,0,0,4.00,252,Paperback,,1,1,Ifeanyi Maduka Urigwe,,,,,,,0,,
16170001,,I.L. Caragiale si caligrafia placerii. Despre eul din scrisori.,9789735036300,,,,ES,2012/1/1,Humanitas,rum,false,3,16064758,14,27,8,0,2012/5/1,I.L. Caragiale și caligrafia plăcerii: despre eul din scrisori,book,1,4,1,1,1,3.38,166,Paperback,1,1,0,Dan C. Mihăilescu,,,,,,5,0,,
16170501,9749455428,เรียลลิตี้ บุ๊ค เดรัจฉาน,,,,,ES,2006/7/1,My Bangkok Publishing House,,false,1,16170501,1,3,1,1,2006/7/1,,book,0,0,1,0,0,3.00,270,Paperback,,1,1,ไอ้เดย์,,,,,,,0,,
16171001,,"Dirty Little Christmas (Marisela Morales/Dirty, #3)",,B00ACBN29I,,,ES,2012/11/23," Bookgoddess, LLC",eng,true,1,16171001,442,566,151,23,2012/11/23,,book,36,58,42,13,2,3.75,149,Kindle Edition,,151,23,Julie Leto,,,,,,223,19,5,"action,adventure,chick-lit,christmas,contemporary,erotica,fiction,holiday,mystery,novella,romance,suspense"
16172001,1471108341,The Cases That Haunt Us,9781471108341,,,,ES,2012/12/25,Simon & Schuster UK,,true,24,94340,18180,33166,8288,344,2000/1/1,The Cases That Haunt Us,book,2852,3063,1979,323,71,4.00,352,ebook,,0,0,"John Edward Douglas,Mark Olshaker",,,,,,8419,48,414,"adult,biography,crime,dark,historical,history,horror,mystery,non-fiction,psychology,science,true-crime"
16172501,,The Bad Boy's Girl (The Bad Boy's Girl #1),,,,,ES,,Wattpad,eng,true,19,33788075,17881,37474,9319,747,2015/1/29,,book,4109,2631,1617,592,370,4.02,263,ebook,,6508,403,"Blair Holden,jessgirl93",,,,,,5674,89,537,"chick-lit,contemporary,drama,fiction,funny,high-school,humor,love,new-adult,realistic-fiction,romance,teen,young-adult"
16173001,,Introduction to Machine Learning (draft),,,,,ES,,,eng,true,1,16173001,19,14,4,1,,,book,0,3,0,1,0,3.50,188,ebook,,4,1,Nils J. Nilsson,,,,,,8,1,3,
16173501,0855338571,Oz Clarke's Essential Wine Book: An Indispensable Guide to the Wines of the World,9780855338572,,,,ES,1993/1/1,Mitchell Beazley,eng,false,8,1937276,102,120,30,2,1993/1/1,The Essential Wine Book: An Indispensable Guide to the Wines of the World,book,9,14,5,2,0,4.00,294,Paperback,,0,0,Oz Clarke,,,,,,35,3,-1,"cookbooks,cooking,food,non-fiction,reference"
16174001,8486408377,Métodos de investigación lingüística,9788486408374,,,,ES,1994/1/1,Ediciones Colegio de España,spa,false,1,16174001,5,0,0,0,1994/1/1,,book,0,0,0,0,0,0.00,192,Paperback,1era edición,0,0,Humberto López Morales,,,,,,5,0,,"language,non-fiction"
16174501,9619017277,Živeti bogato,,,,,ES,1999/1/1,Orbis,slv,false,1,16174501,0,0,0,0,1999/1/1,Live rich,book,0,0,0,0,0,0.00,245,Hardcover,,0,0,"Mark Levine, Stephen M. Pollan",,,,,,,0,,
16175001,,The Big Cry Wolf (Riding Hood Tales #2),,,,,ES,2012/6/16,Liquid Silver Books,eng,false,2,16174999,7,0,0,0,2012/6/16,,book,0,0,0,0,0,0.00,111,,,0,0,Nina S. Gooden,,,,,,5,0,,
16175501,1581578393,Explorer's Guide Colorado,9781581578393,,,,ES,2011/11/7,Countryman Press,,true,4,16175427,7,0,0,0,2011/9/9,,book,0,0,0,0,0,0.00,416,ebook,,0,0,Matt Forster,,,,,,4,0,,"non-fiction,travel"
16176001,0393345246,Embracing Defeat: Japan in the Wake of World War II,9780393345247,,,,ES,2000/6/17,W. W. Norton  Company,,true,14,273197,9607,12806,3112,225,1999/1/1,Embracing Defeat: Japan in the Wake of World War II,book,1237,1184,538,118,35,4.12,688,ebook,,2,0,John W. Dower,,,,,,5658,39,324,"american-history,college,cultural,education,historical,history,non-fiction,politics,school,unfinished,war"
16176501,,Demongelics: Those That Follow (Demongelics Series-Part Two),9780984661336,,,,ES,2012/11/26,Water St Ltd,eng,false,2,16176501,7,24,5,3,2012/11/25,,book,4,1,0,0,0,4.80,292,Paperback,,5,3,DeAnrus McCallister,,,,,,2,0,1,
16177501,,Akıl ve Toplumun Özgürleşimi: Jürgen Habermas Üzerine Bir Çalışma,9789750505737,,,,ES,2008/3/1,İletişim Yayıncılık,tur,false,1,16177501,9,9,3,0,2008/1/1,Akıl ve Toplumun Özgürleşimi: Jürgen Habermas Üzerine Bir Çalışma,book,0,1,1,1,0,3.00,135,Paperback,,3,0,Ahmet Çiğdem,,,,,,4,0,,
16178001,0986940038,"Ill-Timed Prank (Those Crazy Tanner Kids, #3)",9780986940033,,,,ES,2012/12/1,Thandros Media Corp.,eng,false,4,18835550,246,59,13,9,2012/11/28,,book,10,2,0,0,1,4.54,154,Paperback,First,10,8,Mike   Jackson,,,,,,224,3,,
16179001,,Beschreibung eines Zimmers. 15 Kapitel über Johannes Bobrowski,,,,,ES,1971/1/1,Union Verlag Berlin,,false,1,16179001,4,3,1,0,1971/1/1,,book,0,0,1,0,0,3.00,168,Hardcover,,1,0,Gerhard Wolf,,,,,,2,0,1,
16179501,1551860813,2013 Polestar Planner,9781551860817,,,,ES,2012/6/1,Polestar Book Publishers,,false,3,16179501,0,0,0,0,2010/7/1,,,0,0,0,0,0,0.00,160,Paperback,,0,0,Ruth Porter,,,,,,,0,,
16180001,,De Kokende Dictator,,,,,ES,1967/1/1,Zuid-Hollandsche Uitgeversmaatschappij,nl,false,1,16180001,1,5,1,0,1965/1/1,The Cook,book,1,0,0,0,0,5.00,242,Hardcover,,1,0,Harry Kressing,,,,,,,0,,
16180501,,Kodurahu käsiraamat,,,,,ES,,Fookus Meedia OÜ,est,false,1,16180501,2,0,0,0,,,book,0,0,0,0,0,0.00,216,Paperback,,0,0,"Annika Veldre,Mari-Liis Tikerperi",,,,,,1,0,,
16181001,8282111600,"Angrep ved daggry: Narvik, 9.-10. april 1940",9788282111607,,,,ES,2012/1/1,Vega Forlag,nob,false,2,16181001,42,92,23,0,2012/1/1,"Angrep ved daggry: Narvik, 9.-10. april 1940",book,6,11,6,0,0,4.00,243,Hardcover,1st edition,23,0,Alf R. Jacobsen,,,,,,12,0,,"history,war"
16181501,,The Christmas Bottle,,B00AC6SQPS,,,ES,2012/11/22,Boroughs Publishing Group,en-GB,true,2,16181501,7,12,3,2,2012/11/22,The Christmas Bottle,book,2,0,0,1,0,4.00,30,ebook,,3,2,Kellyann Zuzulo,,,,,,4,0,,
16182001,9047430638,"Old Colony Mennonites in Argentina and Bolivia: Nation Making, Religious Conflict and Imagination of the Future",9789047430636,,,,ES,2008/1/1,Brill,,true,1,16182001,1,0,0,0,2008/1/1,,,0,0,0,0,0,0.00,236,ebook,,0,0,Lorenzo Caaas Bottos,,,,,,1,0,,
16182501,0240816730,Flash Builder Charting and Multimedia,9780240816739,,,,ES,2014/5/14,Focal Press,,true,1,16182501,0,0,0,0,2010/10/1,,,0,0,0,0,0,0.00,43,ebook,,0,0,Cesare Rocchi,,,,,,,0,,
16183001,0606265023,La Batalla del Laberinto,9780606265027,,,,ES,2009/11/1,Turtleback Books,spa,false,116,2120932,831573,2687681,611620,16241,2008/3/6,The Battle of the Labyrinth,book,336122,194914,68962,8907,2715,4.39,313,Hardcover,,27,4,Rick Riordan,,,,,,114563,1820,5979,"action,adventure,childrens,contemporary,fantasy,fiction,funny,humor,juvenile,magic,middle-grade,mystery,mythology,novels,paranormal,romance,supernatural,teen,urban-fantasy,young-adult"
16183501,,The Megan Affair: Part One,,B008A9LV42,,,ES,2012/1/1,,,true,1,16183501,17,19,4,1,2012/1/1,,book,3,1,0,0,0,4.75,25,ebook,,4,1,Eleanor  Black,,,,,,12,0,,
16184001,1107407826,Secession: International Law Perspectives,9781107407824,,,,ES,2012/7/30,Cambridge University Press,,false,2,16184001,3,9,2,0,2006/3/30,,,1,1,0,0,0,4.50,548,Paperback,,2,0,,,,Marcelo G Kohen,,,1,0,,
16184501,1275668593,"A Funeral Sermon, Occasioned by the Death of Mrs. Sarah Bowen: Consort of the Hon. Jabez Bowen, Esq. Who Died March 17, 1800, in the 58th Year of Her Age: Delivered in the Benevolent Congregational Church.",9781275668591,,,,ES,2012/2/22,"Gale, Sabin Americana",,false,1,16184501,0,0,0,0,2012/2/22,,,0,0,0,0,0,0.00,24,Paperback,,0,0,Enos Hitchcock,,,,,,,0,,
16185001,1445019809,Guns in the Gallery,9781445019802,,,,ES,2012/4/1,ISIS Audio Books,,false,10,12158041,707,1405,401,48,2011/10/1,,book,67,121,166,41,6,3.50,1,MP3 CD,,0,0,Simon Brett,,,,,,164,9,11,"cozy-mystery,crime,cultural,detective,fiction,mystery,mystery-thriller,suspense"
16185501,1466946342,My Typical Sunday,9781466946347,,,,ES,2012/7/26,Trafford Publishing,,false,2,16185501,1,5,1,0,2012/7/26,,,1,0,0,0,0,5.00,20,Paperback,,1,0,Deborah Deal Brown,,,,,,,0,,
16186001,1470829851,Divider-In-Chief: The Fraud of Hope and Change,9781470829858,,,,ES,2012/9/4,Blackstone Audiobooks,,false,6,15811079,57,103,26,4,2012/1/1,,book,9,9,7,0,1,3.96,,Audio CD,,0,0,Kate Obenshain,,,,,,26,3,2,"non-fiction,politics"
16186501,147725174X,Doves and Demons: An Irish American's Legacy,9781477251744,,,,ES,2012/7/30,Authorhouse,,false,4,17650328,0,0,0,0,2012/7/30,,,0,0,0,0,0,0.00,188,Paperback,,0,0,Andrew McKenzie,,,,,,,0,,
16187001,,Doua feluri de fericire,,,,,ES,,,,true,1,16187001,7,5,1,0,,,book,1,0,0,0,0,5.00,,ebook,,1,0,Mircea Cărtărescu,,,,,,6,0,,
16187501,1618976508,The Komodo Verses: Dragon Poems,9781618976505,,,,ES,2012/5/2,"Strategic Book Publishing & Rights Agency, LLC",,false,2,16187501,4,14,3,1,2012/5/1,,book,2,1,0,0,0,4.67,26,Paperback,,3,1,Martina Nicolls,,,,,,1,0,,
16188001,3531196227,Beruflichkeit zwischen institutionellem Wandel und biographischem Projekt,9783531196220,,,,ES,2012/7/21,Vs Verlag Fur Sozialwissenschaften,ger,false,2,16698943,0,0,0,0,2012/1/1,,book,0,0,0,0,0,0.00,329,Paperback,,0,0,,,,"Axel Bolder,Gerhard Reutter,Günter Kutscha,Rolf Dobischat",,,,0,,
16188501,3837043703,Fly-Isometrics: Fit über den Wolken oder wie man richtig fliegt,9783837043709,,,,ES,2008/6/26,Books on Demand,,false,1,16188501,0,0,0,0,2008/6/26,,,0,0,0,0,0,0.00,52,Paperback,,0,0,Karl-Heinz Schäfer,,,,,,,0,,
16189001,3848215802,Im Labyrinth der Ewigkeit,9783848215805,,,,ES,2012/7/10,Books on Demand,,false,1,16189001,2,0,0,0,2012/7/10,,,0,0,0,0,0,0.00,168,Paperback,,0,0,David Perteck,,,,,,1,0,,
16189501,0071800514,Stocks for the Long Run 5/E: The Definitive Guide to Financial Market Returns & Long-Term Investment Strategies,9780071800518,,,,ES,2014/1/7,McGraw-Hill Education,,false,28,965633,6367,9378,2335,78,1994/1/1,Stocks for the Long Run : The Definitive Guide to Financial Market Returns and Long-Term Investment Strategies,book,893,797,484,112,49,4.02,448,Hardcover,,95,9,Jeremy J. Siegel,,,,,,3543,15,224,"business,economics,history,non-fiction,self-help"
16190001,0310723523,Veggietown Voyage,9780310723523,,,,ES,2013/2/5,Zonderkidz,,false,1,16190001,6,11,3,1,2013/2/5,,,1,0,2,0,0,3.67,96,Hardcover,,3,1,"Cindy Kenney,Doug Peterson",,,,,,,1,,picture-books
16190501,0807515795,Dig Those Dinosaurs,9780807515792,,,,ES,2013/3/1,Albert Whitman & Company,,false,9,16190501,172,341,107,32,2013/1/1,,,6,30,52,16,3,3.19,24,Hardcover,,105,32,Lori Haskins Houran,,,,,,24,16,,"animals,childrens,fiction,juvenile,non-fiction,picture-books,school,science"
16191001,1444163280,Buddhism: All That Matters,9781444163285,,,,ES,2013/12/27,Teach Yourself,,false,4,16191001,180,79,23,4,2013/2/15,,,2,10,7,4,0,3.43,160,Paperback,,22,4,Pascale Engelmajer,,,,,,2,1,3,"health,religion,school"
16191501,1469215020,Torn,9781469215020,,,,ES,2012/11/20,Brilliance Audio,,false,10,12597240,1387,1183,329,91,2012/4/1,Torn,book,73,114,91,38,13,3.60,,Audio CD,,0,0,Stephanie Guerra,,,,,,966,17,13,"contemporary,fiction,funny,high-school,realistic-fiction,romance,teen,young-adult"
16192001,1477656251,Sootycinders: ...a Cinderella Tale to Color...,9781477656259,,,,ES,2012/6/20,Createspace Independent Publishing Platform,,false,3,16195526,5,14,3,2,2012/6/13,,,2,1,0,0,0,4.67,28,Paperback,,1,1,CILLYart,,,,,,2,0,,
16192501,1781121818,Wild Song,9781781121818,,,,ES,2013/1/1,Stoke Books,eng,false,5,13638213,218,195,64,38,2012/7/1,,book,8,12,24,15,5,3.05,69,Hardcover,Dyslexia Friendly,0,0,Jane Eagland,,,,,,132,17,,"fiction,historical,historical-fiction,middle-grade,mystery,novella,realistic-fiction,romance,short-stories,suspense,teen,young-adult"
16193001,,Het boek van Dorrie,,,,,ES,,,,false,7,2286148,141,230,58,6,1975/1/1,Dorrie's Book,book,18,22,16,2,0,3.97,,,,1,1,Marilyn Sachs,,,,,,52,8,1,"childrens,contemporary,fiction,middle-grade,young-adult"
16193501,0335211704,My Right to Play,9780335211708,,,,ES,2003/5/1,Open University Press,,false,4,4036415,2,0,0,0,2003/1/1,My Right to Play: A Child With Complex Needs (Debating Play),,0,0,0,0,0,0.00,122,Paperback,,0,0,Robert J. Orr,,,,,,2,0,,
16194001,,Bressol de gat,9788494051401,,,,ES,2012/1/1,Males Herbes,cat,false,170,135479,538773,1279465,306746,9409,1963/1/1,Cat's Cradle,book,130217,114615,49185,9636,3093,4.17,,Paperback,,38,4,Kurt Vonnegut,,,,,,188418,950,6539,"adult,adult-fiction,american,classic-literature,classics,comedy,contemporary,dystopia,fantasy,fiction,funny,high-school,humor,literary-fiction,literature,modern-classics,novels,philosophy,post-apocalyptic,religion,school,science,science-fiction,science-fiction-fantasy,speculative-fiction"
16194501,0983727538,Summer of Love,9780983727538,,,,ES,2012/7/18,Few Good Books Publishing,,false,2,16194501,0,0,0,0,2012/7/18,,,0,0,0,0,0,0.00,168,Paperback,,0,0,Nick Gallicchio,,,,,,,0,,
16195001,1432796828,Quest for Power: A Thriller,9781432796822,,,,ES,2012/8/1,Outskirts Press,,false,6,21254308,2,7,2,0,2012/5/1,,,1,0,0,1,0,3.50,532,Paperback,,0,0,James Herbert Harrison,,,,,,,0,,
16195501,1463334389,Prisioneros de La Vida: Tierra y Libertad,9781463334383,,,,ES,2012/8/7,Palibrio,,false,2,16195500,0,0,0,0,2012/8/7,,,0,0,0,0,0,0.00,402,Paperback,,0,0,Oscar E. Rodríguez,,,,,,,0,,
16196001,147594019X,"Earth 2.0: Prison Planet (Earth 2.0 Trilogy, #1)",9781475940190,,,,ES,2012/8/9,iUniverse,,false,5,16053942,321,69,18,4,2012/8/9,Earth 2.0: Prison Planet,book,7,4,5,1,1,3.83,342,Hardcover,,0,0,William Crow Johnson,,,,,,297,1,1,science-fiction
16196501,1477254005,Neopolitan Holiday,9781477254004,,,,ES,2012/8/13,Authorhouse,,false,4,16196500,0,0,0,0,2012/8/13,,,0,0,0,0,0,0.00,280,Paperback,,0,0,Charles E. Roy,,,,,,,0,,
16197001,1478391928,"You Can Choose Your Life: Part Two; Be Aware, Prepare and Don't Care",9781478391920,,,,ES,2012/8/12,Createspace,,false,1,16197001,0,0,0,0,2012/8/12,,,0,0,0,0,0,0.00,140,Paperback,,0,0,Leah N Cox,,,,,,,0,,
16197501,1616503823,Hard Core,9781616503826,,,,ES,2012/7/1,"Lyrical Press, Inc",,false,5,15738723,458,561,139,34,2012/7/7,Hard Core,book,51,56,20,10,2,4.04,244,Paperback,,0,0,Jennifer Lowery,,,,,,254,16,9,"contemporary,fiction,romance,suspense,war"
16198001,1622413385,Jeremiah's Heart (Shifters of Mystery 3),9781622413386,,,,ES,2012/8/2,Siren Publishing,,false,3,13481035,580,1423,368,5,2012/4/21,,book,104,139,102,18,5,3.87,124,Paperback,,1,0,Lynn Hagen,,,,,,128,5,1,"abuse,contemporary,fantasy,paranormal,romance,shapeshifters,werewolves"
16198501,1937659046,"Prosperity: Having It, Living It: How to Be, Do, and Have What You Want in Life",9781937659042,,,,ES,2012/7/18,Mie Institute,,false,1,16198501,0,0,0,0,2012/7/18,,,0,0,0,0,0,0.00,122,Paperback,,0,0,Jim Johnson,,,,,,,0,,
16199001,3850404323,Lass Die Seele Sprechen,9783850404327,,,,ES,2012/3/27,United P.C. Verlag,,false,1,16199001,0,0,0,0,2012/3/27,,,0,0,0,0,0,0.00,52,Paperback,,0,0,Herta Sungur,,,,,,,0,,
16199501,9400731116,Structural Optimization with Uncertainties,9789400731110,,,,ES,2012/5/4,Springer,,false,2,16199501,0,0,0,0,2010/4/18,,,0,0,0,0,0,0.00,233,Paperback,,0,0,"N.V. Banichuk,Pekka Neittaanmäki",,,,,,,0,,
16200001,0415811708,Japanese Religions and Globalization,9780415811705,,,,ES,2013/3/1,Routledge,,false,5,17576545,1,0,0,0,2013/3/1,,,0,0,0,0,0,0.00,200,Hardcover,,0,0,Ugo Dessi,,,,,,,0,,
16200501,1412940176,The Power of Invisible Leadership: How a Compelling Common Purpose Inspires Exceptional Leadership,9781412940177,,,,ES,2013/2/27,"Sage Publications, Inc",,false,6,19389802,10,12,5,1,2000/6/1,,,0,0,2,3,0,2.40,120,Paperback,,2,0,"Georgia J. Sorenson,Gill Robinson Hickman",,,,,,,0,,
16201001,1466928867,In the Garden of the Caliph,9781466928862,,,,ES,2012/8/14,Trafford Publishing,,false,4,16201002,4,3,1,0,2012/8/14,,,0,0,1,0,0,3.00,132,Paperback,,0,0,Hazel Krantz,,,,,,3,0,,
16201501,1477253726,R.E.N.E.W.: Removing Every Negative Emotion & Word,9781477253724,,,,ES,2012/8/17,Authorhouse,,false,3,19761946,0,0,0,0,2012/8/17,,book,0,0,0,0,0,0.00,136,Paperback,,0,0,"Marquis Cooper Sr.,Tina Duffy",,,,,,,0,,
16202001,1579822908,1 Love Doll,9781579822903,,,,ES,2012/4/15,MerryMakers,,false,1,16202001,1,4,1,0,2012/4/15,,,0,1,0,0,0,4.00,,Hardcover,,1,0,Cedella Marley,,,,,,,0,,
16202501,185873410X,Handbook of Pain Management,9781858734101,,,,ES,2011/11/4,Springer Healthcare,,false,3,16990208,0,0,0,0,2008/1/1,,,0,0,0,0,0,0.00,96,Paperback,,0,0,,,,Michael Serpell,,,,0,,
16203001,3409318054,Die Organisatorische Stellengliederung Im Betrieb,9783409318051,,,,ES,1973/1/1,Gabler Verlag,,false,2,16203001,0,0,0,0,1957/1/1,,,0,0,0,0,0,0.00,176,Paperback,,0,0,Heinrich B Acker,,,,,,,0,,
16203501,3528340800,"Elektrische Messtechnik: Elektrische Und Elektronische Verfahren, Anlagen Und Systeme",9783528340803,,,,ES,1988/1/1,Vieweg+teubner Verlag,,false,1,16203501,0,0,0,0,1988/1/1,,,0,0,0,0,0,0.00,454,Paperback,,0,0,Kurt Bergmann,,,,,,,0,,
16204001,3848213583,Chemische Zeitreisen,9783848213580,,,,ES,2012/8/14,Books on Demand,,false,2,16204001,0,0,0,0,2012/8/14,,book,0,0,0,0,0,0.00,376,Paperback,,0,0,Klaus-Dieter Röker,,,,,,,0,,
16204501,0762447974,Desktop Rodeo: Yee-haw!,9780762447978,,,,ES,2013/4/2,Running Press,,false,1,16204501,1,0,0,0,2013/3/26,,,0,0,0,0,0,0.00,32,Paperback,,0,0,,,,Running Press,,,1,0,,
16205001,1414485581,"Literature Criticism from 1400 to 1800, Volume 219",9781414485584,,,,ES,2013/4/5,Gale Cengage,,false,1,16205001,0,0,0,0,,,,0,0,0,0,0,0.00,491,Hardcover,,0,0,,,,Lawrence J. Trudeau,,,,0,,
16205501,147593890X,Water: The Universal Healer,9781475938906,,,,ES,2012/8/23,iUniverse,,false,4,16614813,0,0,0,0,2012/8/23,,,0,0,0,0,0,0.00,108,Hardcover,,0,0,Guy Proulx,,,,,,,0,,
16206001,1609497155,On the Front Lines of Pennsylvania Politics: Twenty-Five Years of Keystone Reporting,9781609497156,,,,ES,2012/9/25,History Press (SC),,false,2,16206001,30,63,16,1,2012/9/25,,,2,11,3,0,0,3.94,156,Paperback,,16,1,John Baer,,,,,,13,1,,"non-fiction,politics"
16206501,3865203787,Colleoni,9783865203786,,,,ES,2010/10/19,Ciando,,false,1,16206501,0,0,0,0,2010/10/19,,,0,0,0,0,0,0.00,344,Paperback,,0,0,Wiebke L Bbers,,,,,,,0,,
16207001,8776914089,Rejsebreve fra USA: ½ års roadtrip i det forjættede land,9788776914080,,,,ES,2009/6/8,Books on Demand,,false,1,16207001,0,0,0,0,2009/6/8,,,0,0,0,0,0,0.00,108,Paperback,,0,0,Pernille Egholm,,,,,,,0,,
16207501,,"The Last Hunter: Onslaught (Antarktos Saga, #5)",,B00AC4I2D6,,,ES,,,en-GB,true,5,16207501,917,2346,525,29,2012/11/20,The Last Hunter: Onslaught,book,302,170,50,3,0,4.47,,,,506,28,Jeremy Robinson,,,,,,249,10,19,"action,adventure,christian-fiction,fantasy,fiction,mystery,mythology,science-fiction,science-fiction-fantasy,supernatural,urban-fantasy,young-adult"
16208001,0982658915,Dreamscraps Cane of Ages Journal,9780982658918,,,,ES,2012/5/1,Linden River,,false,1,16208001,0,0,0,0,2012/5/16,,,0,0,0,0,0,0.00,188,Paperback,,0,0,Katie Thompson,,,,,,,0,,
16208501,1462688640,Chivalry,9781462688647,,,,ES,2012/7/27,America Star Books,,false,1,16208501,0,0,0,0,2012/7/27,,,0,0,0,0,0,0.00,188,Paperback,,0,0,Joshua Allen Raab,,,,,,,0,,
16209001,1477259074,Terra Treblinka. Holocaust Poems,9781477259078,,,,ES,2012/8/29,Authorhouse,,false,3,17650572,4,5,1,0,2012/8/29,,,1,0,0,0,0,5.00,60,Paperback,,0,0,Hanoch Guy Kaner,,,,,,2,0,,
16209501,,The House at Kilgallen,,,,,ES,1973/11/1,,eng,false,1,16209501,5,2,1,0,1973/11/1,,book,0,0,0,1,0,2.00,151,Paperback,,1,0,Mary Linn Roby,,,,,,4,0,,gothic
16210001,1934758159,Simulation in Nursing Education: From Conceptualization to Evaluation,9781934758151,,,,ES,2012/9/28,National League for Nursing,,false,4,16210001,30,57,13,3,2007/1/1,,,7,4,2,0,0,4.38,288,Paperback,,10,2,Pamela R. Jeffries,,,,,,6,0,1,"reference,unfinished"
16210501,3837010538,"Die Märchen der Elfen Sternchen, Lilifee und Minty",9783837010534,,,,ES,2007/10/9,Books on Demand,,false,1,16210501,0,0,0,0,2007/10/9,,,0,0,0,0,0,0.00,80,Paperback,,0,0,Lisa Meili,,,,,,,0,,
16211001,9400756682,An Anthropological Journey Into Well-Being: Insights from Bolivia,9789400756687,,,,ES,2012/11/6,Springer,,false,2,17712320,1,0,0,0,2012/11/6,,,0,0,0,0,0,0.00,96,Paperback,,0,0,Melania Calestani,,,,,,1,0,,
16211501,,Les chemins de Pilduin,9782265059207,,,,ES,,,fre,false,1,16211501,2,3,1,0,,,book,0,0,1,0,0,3.00,,,,1,0,Claude Castan,,,,,,,0,,
16212001,1410454010,One Man's Fire,9781410454010,,,,ES,2013/1/9,Thorndike Press,,false,5,12350134,51,58,16,3,2012/5/1,,book,3,7,4,1,1,3.62,369,Hardcover,,0,1,Marcus Galloway,,,,,,19,0,6,
16212501,1466956011,Abigail's Bunny,9781466956018,,,,ES,2012/8/31,Trafford Publishing,,false,2,16212501,1,5,1,0,2012/8/31,,,1,0,0,0,0,5.00,16,Paperback,,1,0,Carlin Hawes,,,,,,,0,,
16213001,1477683941,Contrasting Conservative and Liberal Christian Beliefs,9781477683941,,,,ES,2012/9/6,Createspace Independent Publishing Platform,,false,2,16213001,1,0,0,0,2012/9/6,,,0,0,0,0,0,0.00,226,Paperback,,0,0,Bruno Heidik,,,,,,1,0,,
16213501,1479704210,Lemon Grass Chicken and Ginger Tea: The Ta EA Chronicles Book I,9781479704217,,,,ES,2012/8/1,Xlibris Corporation,,false,2,16213501,0,0,0,0,2012/8/28,,,0,0,0,0,0,0.00,100,Paperback,,0,0,Sonia K,,,,,,,0,,
16214001,1624191649,Misfits in the Kingdom,9781624191640,,,,ES,2012/8/1,Xulon Press,,false,1,16214001,1,4,1,1,2012/8/31,,,0,1,0,0,0,4.00,216,Paperback,,1,1,Garner Fritts,,,,,,,0,,
16215001,3837006360,Der Schlüssel zum Erfolg: LR - Aus der Praxis für die Praxis,9783837006360,,,,ES,2010/1/12,Books on Demand,,false,1,16215001,0,0,0,0,2010/1/12,,,0,0,0,0,0,0.00,116,Paperback,,0,0,Berthold G Ntner,,,,,,,0,,
16215501,3839107725,Naikan Jahresbegleiter 2010: Ruhe und Kraft für jeden Tag,9783839107720,,,,ES,2009/8/14,Books on Demand,,false,1,16215501,0,0,0,0,2009/8/14,,,0,0,0,0,0,0.00,176,Paperback,,0,0,,,,"Das Naikan-Leiter-Netzwerk,Johanna Schuh",,,,0,,
16216001,3839148790,Unbeschwerte Kindertage in Rheda,9783839148792,,,,ES,2010/1/5,Books on Demand,,false,1,16216001,0,0,0,0,2010/1/5,,,0,0,0,0,0,0.00,80,Paperback,,0,0,"Lisa Marie Tappert,Marie-Margret Pape",,,,,,,0,,
16216501,3842331177,Die Hexe von Minthalynd,9783842331174,,,,ES,2010/12/21,Books on Demand,,false,1,16216501,0,0,0,0,2010/12/21,,,0,0,0,0,0,0.00,360,Paperback,,0,0,Ute Fischer,,,,,,,0,,
16217001,3842382448,Social Media Sales: Statt sinnloser Zeitverschwendung profitieren Sie jetzt von XING und Co.,9783842382442,,,,ES,2013/6/3,Books on Demand,,false,2,16217001,1,1,1,0,2011/12/20,,,0,0,0,0,1,1.00,84,Paperback,,1,0,Stephan Heinrich,,,,,,,0,,
16217501,0253009049,Encountering Morocco:  Fieldwork and Cultural Understanding,9780253009043,,,,ES,2013/5/1,Indiana University Press,eng,false,5,16217501,32,51,14,2,2013/1/1,,book,1,9,3,0,1,3.64,232,Hardcover,,11,1,,,,"David Crawford,Rachel Newcomb",,,13,1,1,non-fiction
16218001,0415646618,Chinese Space Policy: A Study in Domestic and International Politics,9780415646611,,,,ES,2012/9/13,Routledge,,false,9,8107270,10,10,2,2,2006/11/1,,,2,0,0,0,0,5.00,208,Paperback,,0,0,"Roger Handberg,Zhen Li",,,,,,8,0,,"politics,science"
16218501,0415653819,Perspectives on Classifier Constructions in Sign Languages,9780415653817,,,,ES,2013/10/31,Psychology Press,,false,7,943398,4,0,0,0,2003/3/1,Perspectives on Classifier Constructions in Sign Languages,,0,0,0,0,0,0.00,349,Paperback,,0,0,,,,Karen Emmorey,,,3,0,1,
16219001,0739177885,Missionary Impositions,9780739177884,,,,ES,2012/12/18,Lexington Books,,false,5,17120064,4,0,0,0,2012/1/1,,,0,0,0,0,0,0.00,112,Hardcover,,0,0,,,,"Deana Weibel,Hillary K. Crane",,,4,1,,"history,non-fiction,religion"
16219501,0985654678,The Church Choir Murders,9780985654672,,,,ES,2012/9/1,Itoh Press,,false,2,16219501,2,5,1,1,2012/9/15,,,1,0,0,0,0,5.00,242,Paperback,,1,1,Jack K. Walker,,,,,,1,0,,
16220001,1444812874,Cory's Girls,9781444812879,,,,ES,2012/10/1,Linford,,false,1,16220001,1,0,0,0,2012/10/1,,book,0,0,0,0,0,0.00,184,Paperback,,0,0,Teresa Ashby,,,,,,,0,,
16220501,1466953535,The Imminent Second Coming,9781466953536,,,,ES,2012/9/14,Trafford Publishing,,false,3,16220501,2,3,1,0,2012/9/14,,,0,0,1,0,0,3.00,114,Paperback,,1,0,Lewis S. Brownlow,,,,,,1,0,,
16221001,1477265066,The Chinese Crystal Ball,9781477265062,,,,ES,2012/9/14,Authorhouse,,false,4,19877742,1,0,0,0,2012/9/14,,,0,0,0,0,0,0.00,102,Paperback,,0,0,Pelham K. Mead III,,,,,,1,0,,
16221501,1479317292,Raji: Book One: Octavia Pompeii,9781479317295,,,,ES,2012/9/1,Createspace,,false,2,16221501,2,0,0,0,2012/9/15,,,0,0,0,0,0,0.00,318,Paperback,,0,0,Charley Brindley,,,,,,1,0,1,
16222001,1620244187,Spiritual Jackets: An Array of Thoughts for Everyday Living,9781620244180,,,,ES,2012/10/23,Tate Publishing & Enterprises,,false,1,16222001,0,0,0,0,2012/10/23,,,0,0,0,0,0,0.00,172,Paperback,,0,0,Karla Elizabeth Trott,,,,,,,0,,
16222501,1935098985,Running to Make a Difference,9781935098980,,,,ES,2012/9/18,BASCOM Hill Publishing Group,,false,1,16222501,0,0,0,0,2012/9/18,,,0,0,0,0,0,0.00,236,Paperback,,0,0,Leonard W. Levine,,,,,,,0,,
16223001,3831127352,Yoga - Entspannung in seiner Vielfalt,9783831127351,,,,ES,2001/10/29,Books on Demand,,false,1,16223001,0,0,0,0,2001/10/29,,,0,0,0,0,0,0.00,56,Paperback,,0,0,Erna Hildegard D Nigus,,,,,,,0,,
16223501,3837095436,Wie der Nil in der Wüste: Der moderne Feudalismus in Deutschland - Meudalismus (Ergänzungsband 2009),9783837095432,,,,ES,2009/6/4,Books on Demand,,false,1,16223501,0,0,0,0,2009/6/4,,,0,0,0,0,0,0.00,80,Paperback,,0,0,Harald Wozniewski,,,,,,,0,,
16224001,3839164885,... Und ploetzlich Glaubte Ich Mir!,9783839164884,,,,ES,2010/3/11,Books on Demand,,false,1,16224001,2,7,2,1,2010/3/11,,book,0,1,1,0,0,3.50,80,Paperback,,2,1,Franziska Hoetzel,,,,,,,0,,
16224501,3842362234,Einmal Schlitz und zurück: Mit dem Rad rund um Hessen,9783842362239,,,,ES,2011/8/30,Books on Demand,,false,1,16224501,0,0,0,0,2011/8/30,,,0,0,0,0,0,0.00,148,Paperback,,0,0,Guido Block-K Nzler,,,,,,,0,,
16225001,3938342307,Osnabr Cker Bibliografie: Genremalerei Des 19. Jahrhunderts - USA Und Europa,9783938342305,,,,ES,2012/9/3,Verlag Dirk Koentopp,,false,1,16225001,0,0,0,0,2012/9/3,,,0,0,0,0,0,0.00,88,Paperback,,0,0,Stefanie Lipke,,,,,,,0,,
16225501,0199588864,The Oxford Handbook of Modern Diplomacy,9780199588862,,,,ES,2013/6/30,"Oxford University Press, USA",,false,3,16225501,96,54,13,1,2013/3/28,,book,7,3,2,0,1,4.15,953,Hardcover,,5,1,"Jorge Heine,Ramesh Chandra Thakur",,,Andrew F. Cooper,,,42,0,8,politics
16226001,0756698197,Cooking Season by Season,9780756698195,,,,ES,2012/10/1,DK,,false,2,16226001,38,49,12,2,2012/9/25,,book,4,5,3,0,0,4.08,496,Hardcover,,11,2,,,Emma Callery,Susannah Steel,,,-1,1,,"food,nature"
16226501,1249217067,"Missouri City, Texas: The Missouri City Civic Center, Blue Ridge Tower, the Buffalo Bird Sanctuary, and More",9781249217060,,,,ES,2012/8/1,Earth Eyes Travel Guides,,false,1,16226501,0,0,0,0,2012/8/2,,,0,0,0,0,0,0.00,188,Paperback,,0,0,Johnathan Black,,,,,,,0,,
16227001,1249223377,"Montezuma County, Colorado: Including Its History, the Mesa Verde National Park, the Canyons of the Ancients National Monument, the Mancos State Park, and More",9781249223375,,,,ES,2012/8/2,Earth Eyes Travel Guides,,false,1,16227001,0,0,0,0,2012/8/2,,,0,0,0,0,0,0.00,160,Paperback,,0,0,Johnathan Black,,,,,,,0,,
16227501,1249229650,"Mitchell County, North Carolina: Including Its History, the Unaka Range, the Pisgah National Forest, and More",9781249229650,,,,ES,2012/8/1,Earth Eyes Travel Guides,,false,1,16227501,0,0,0,0,2012/8/2,,,0,0,0,0,0,0.00,148,Paperback,,0,0,Sharon Clyde,,,,,,,0,,
16228001,1249238072,"Newton County, Georgia: Including Its History, the Bruce Weiner Microcar Museum, the Hard Labor Creek State Park, and More",9781249238072,,,,ES,2012/8/1,Earth Eyes Travel Guides,,false,1,16228001,0,0,0,0,2012/8/2,,,0,0,0,0,0,0.00,142,Paperback,,0,0,Fran Sharmen,,,,,,,0,,
16228501,1249281180,Foundations of Arithmetic,9781249281184,,,,ES,2012/8/24,Biblioscholar,,false,1,16228501,0,0,0,0,2012/8/24,,,0,0,0,0,0,0.00,38,Paperback,,0,0,Arthur Bowes Frizell,,,,,,,0,,
16229001,1439893977,"Multi-Detector CT Imaging: Abdomen, Pelvis, and CAD Applications",9781439893975,,,,ES,2013/10/21,CRC Press,,false,5,16229001,0,0,0,0,2012/6/30,,,0,0,0,0,0,0.00,689,Hardcover,,0,0,,,,"Jasjit S. Suri,Luca Saba",,,,0,,
16229501,1469231654,Best Laid Plans,9781469231655,,,,ES,2013/3/19,Brilliance Audio,,false,41,695852,3475,6568,1731,66,1989/1/1,Best Laid Plans,book,519,515,545,126,26,3.79,,Audio CD,,0,0,Nora Roberts,,,,,,877,16,135,"adult-fiction,chick-lit,contemporary,fiction,harlequin,love,modern,romance"
16230001,1469274426,Dark Summer,9781469274423,,,,ES,2013/4/2,Brilliance Audio,,false,27,3059921,12073,28522,7232,346,2008/1/1,Dark Summer,book,2506,2476,1727,384,139,3.94,,Audio CD,,0,0,Iris Johansen,,,,,,2879,30,156,"action,adult,adult-fiction,animals,contemporary,crime,fantasy,fiction,murder-mystery,mystery,mystery-thriller,paranormal,romance,suspense,thriller"
16230501,1478307927,No Place for a Wallflower,9781478307921,,,,ES,2012/9/18,Createspace Independent Publishing Platform,,false,2,32791130,5,13,3,1,2012/9/18,,,1,2,0,0,0,4.33,100,Paperback,,2,1,Nathaniel Robert Winters,,,,,,1,0,,
16231001,1569703035,Deflower the Boss,9781569703038,,,,ES,2013/9/25,Digital Manga Publishing,en-US,false,1,16231001,46,83,24,2,2013/4/9,,book,5,7,7,4,1,3.46,200,Paperback,,24,2,Ayan Sakuragi,,,,,,19,5,,manga
16231501,1622416732,Mail-Order Bride [Taos Wolven Mates],9781622416738,,,,ES,2012/9/17,Siren Publishing,eng,false,3,15743895,53,72,21,1,2012/7/4,Mail-Order Bride,book,4,8,5,1,3,3.43,148,Paperback,,1,0,Tianna Xander,,,,,,20,2,,"historical,menage,new-adult,paranormal"
16232001,3631624794,Lifelong Learning and Teacher Development,9783631624791,,,,ES,2012/10/12,"Peter Lang Gmbh, Internationaler Verlag Der Wissenschaften",,false,3,17067823,3,5,1,0,2012/1/1,,,1,0,0,0,0,5.00,161,Hardcover,,0,0,,,,"Jaan Mikk,Marika Veisson,Piret Luik",,,1,0,,
16232501,3844809651,Berufung Menschsein: Vom Burnout Business zum Unternehmensglück,9783844809657,,,,ES,2011/11/30,Books on Demand,,false,2,16232501,0,0,0,0,2011/11/30,,,0,0,0,0,0,0.00,112,Paperback,,0,0,Peter Illing,,,,,,,0,,
16233001,3954547651,Deutsch-Amerikanische Feinbäckerei und Konditorei,9783954547654,,,,ES,2012/6/21,Dogma,ger,false,11,32674974,0,0,0,0,1900/1/1,,,0,0,0,0,0,0.00,128,Paperback,,0,0,Emil Braun,,,,,,,0,,
16233501,0123884179,Advances in Photovoltaics: Part 3,9780123884176,,,,ES,2014/12/22,Academic Press,,false,2,16233501,1,0,0,0,2013/6/1,,,0,0,0,0,0,0.00,150,Hardcover,,0,0,,,Gerhard Willeke,,,,1,0,,
16234001,0415661056,"Rhetoric, History, and Women's Oratorical Education: American Women Learn to Speak",9780415661058,,,,ES,2013/4/11,Routledge,,false,7,16234001,5,9,2,1,2013/1/1,,,1,1,0,0,0,4.50,256,Hardcover,,1,1,,,,"Catherine Hobbs,David Gold",,,2,0,,
16234501,0823251918,"Hollow Men: Writing, Objects, and Public Image in Renaissance Italy",9780823251919,,,,ES,2013/3/20,Modern Language Initiative,,false,5,16234501,2,7,2,0,2013/3/1,,,0,1,1,0,0,3.50,372,Paperback,,1,0,Susan Gaylard,,,,,,,0,,
16235001,1118484126,"Wiley CIA Exam Review Online Test Bank, 1 Year Subscription, Internal Audit Basics",9781118484128,,,,ES,2013/3/26,John Wiley & Sons,,false,1,16235001,1,4,1,0,2013/3/26,,,0,1,0,0,0,4.00,,Paperback,,1,0,S. Rao Vallabhaneni,,,,,,,0,,
16235501,1448892481,Naval Vessels,9781448892488,,,,ES,2012/12/15,Rosen Central,,false,1,16235501,2,2,1,0,2012/12/15,,,0,0,0,1,0,2.00,48,Hardcover,,1,0,Martin J. Dougherty,,,,,,,0,,
16236001,1462697100,Power Source: Book Two: Wolf in the Fold,9781462697106,,,,ES,2012/9/17,America Star Books,,false,1,16236001,1,3,1,1,2012/9/17,,,0,0,1,0,0,3.00,188,Paperback,,1,1,Vince Reed,,,,,,,0,,
16236501,1469600889,Sexual Injustice,9781469600888,,,,ES,2013/2/1,University of North Carolina Press,,false,4,8951587,20,14,4,1,2010/10/4,,,0,3,0,1,0,3.50,364,Paperback,,1,0,Marc Robert Stein,,,,,,11,0,,"grad-school,history,queer"
16237001,1477451102,Memoirs of an Extraterrestrial: The Negro Conundrum,9781477451106,,,,ES,2012/9/26,Createspace,,false,1,16237001,26,20,4,2,2012/9/26,,,4,0,0,0,0,5.00,334,Paperback,,4,2,H.P. Stanly,,,,,,22,0,,
16237501,1479715549,Weird Stories,9781479715541,,,,ES,2012/9/20,Xlibris,,false,2,16237501,0,0,0,0,2012/9/20,,,0,0,0,0,0,0.00,160,Paperback,,0,0,Stanford E. Hoffman,,,,,,,0,,
16238001,1614808074,Emily Dickinson,9781614808077,,,,ES,2013/1/1,Core Library,,true,4,16277317,3,8,2,0,2013/1/1,,book,0,2,0,0,0,4.00,50,ebook,,0,0,Maurene J. Hinds,,,,,,,0,,
16238501,1908098481,Learning to Tie a Bow,9781908098481,,,,ES,2012/9/30,2qt Limited (Publishing),,false,2,16238501,2,3,1,1,2012/9/30,,,0,0,1,0,0,3.00,316,Paperback,,1,1,Sarah Hampton,,,,,,1,0,,
16239001,1480054054,In the Hands of Angels,9781480054059,,,,ES,2012/10/17,CreateSpace Independent Publishing Platform,eng,false,3,16239001,167,11,3,1,2012/10/3,,book,0,2,1,0,0,3.67,288,Paperback,,3,1,Joanna Barucci,,,,,,147,2,,
16239501,9739952305,La început a fost sfârșitul,,,,,ES,1999/1/1,Fundatia culturala Memoria,rum,false,3,16239501,128,200,43,5,1951/1/1,La început a fost sfârșitul,book,32,7,4,0,0,4.65,234,Paperback,,33,3,Adriana Georgescu,,,,,,80,1,1,"history,politics"
16240001,3863830121,Forstwirtschaftslehre,9783863830120,,,,ES,2011/7/3,Salzwasser-Verlag Gmbh,,false,1,16240001,0,0,0,0,2011/7/3,,,0,0,0,0,0,0.00,208,Paperback,,0,0,Christian Gottlob G Bel,,,,,,,0,,
16240501,,My Wife's Plaything,B008N0GXTQ,,,,ES,2012/7/18,Amazon Digital Services,eng,true,3,16240501,9,5,2,1,2012/7/18,,book,0,0,1,1,0,2.50,26,Kindle Edition,,1,1,Gregor Daniels,,,,,,6,0,,
16241001,,The Illustrated Pepys: Extracts from the Diary,,,,,ES,1979/1/1,Book Club Associates,eng,false,6,892153,194,350,85,10,1978/1/1,The Illustrated Pepys,book,29,41,12,2,1,4.12,333,Hardcover,,2,1,Samuel Pepys,,,Robert Latham,,,68,8,7,"biography,christianity,classics,historical,historical-fiction,history,memoir,non-fiction"
16241501,0674072391,Journey Through the Afterlife: Ancient Egyptian Book of the Dead,9780674072398,,,,ES,2013/5/13,Harvard University Press,,false,4,9417981,125,149,36,5,2010/10/1,,book,16,12,6,1,1,4.14,320,Paperback,,1,0,,,,John H. Taylor,,,39,4,2,"academic,history,language,non-fiction,religion"
16242001,1611382246,Scandalous,9781611382242,,,,ES,2012/12/4,Book View Cafe,eng,true,6,16242001,134,138,37,13,1991/8/1,,book,8,15,11,2,1,3.73,,ebook,,24,12,Patricia Burroughs,,,,,,66,5,9,"contemporary,fiction,historical-fiction,humor,novella,romance"
16242501,1432794477,Thankers: Homo Grates,9781432794477,,,,ES,2012/10/1,Outskirts Press,,false,1,16242501,1,4,1,0,2012/10/4,,,0,1,0,0,0,4.00,194,Paperback,,1,0,David T.,,,,,,,0,,
16243001,1466959223,You Have Heard It Said Every Book Tells a Story,9781466959224,,,,ES,2012/10/2,Trafford Publishing,,false,2,16703109,0,0,0,0,2012/10/2,,,0,0,0,0,0,0.00,120,Paperback,,0,0,Teresa Mason,,,,,,,0,,
16243501,1470841827,Seal Team 666,9781470841829,,,,ES,2012/11/27,Blackstone Audiobooks,,false,11,13538868,2181,3634,993,162,2012/11/13,,book,220,367,290,80,36,3.66,,Audio CD,,0,0,Weston Ochse,,,,,,346,22,35,"action,adventure,crime,fantasy,fiction,horror,mystery,paranormal,science-fiction,supernatural,thriller,urban-fantasy"
16244001,1479256331,Anchored,9781479256334,,,,ES,2012/9/5,Dawn Esmond Publishing,,false,3,16244001,196,287,68,10,2012/9/5,,book,38,17,6,4,3,4.22,374,Paperback,,9,1,Tracey Hoffmann,,,,,,73,1,22,"christian-fiction,inspirational,mystery,suspense"
16244501,1550029932,"Now You Know More: The Book of Answers, Vol. 2",9781550029932,,,,ES,2004/9/1,Dundurn,,true,7,255786,56,75,22,0,2004/1/1,Now You Know More,book,2,9,8,2,1,3.41,192,ebook,,0,0,Doug Lennox,,,,,,16,1,1,"non-fiction,reference"
16245001,1620249146,Jessica Hedgehog Becomes Rich,9781620249147,,,,ES,2012/11/13,Tate Publishing & Enterprises,,false,2,16245001,0,0,0,0,2012/11/13,,,0,0,0,0,0,0.00,28,Paperback,,0,0,Rachael Erichsen,,,,,,,0,,
16245501,1934452858,WEHT (WhatEverHappenedTo . . .?): Reconnecting in a Virtual World,9781934452851,,,,ES,2012/9/1,Bedazzled Ink Publishing,,false,2,16245501,4,9,2,0,2012/9/24,,,1,1,0,0,0,4.50,214,Paperback,,2,0,"Kimberly D. Lowrey,Marilyn K. Simon,Toni M. Williams",,,,,,1,0,1,
16246001,3862671356,Symphonie Fur Jazz,9783862671359,,,,ES,2011/3/21,Europaischer Literaturverlag,,false,13,16246522,2,2,1,1,1929/3/21,Symphonie für Jazz,book,0,0,0,1,0,2.00,224,Paperback,,0,0,Ren Schickele,,,,,,1,0,,
16246501,3954550199,Italienisches Bilderbuch,9783954550197,,,,ES,2012/4/24,Dearbooks,,false,11,19347556,3,13,3,0,2010/10/19,,,1,2,0,0,0,4.33,376,Paperback,,0,0,Fanny Lewald,,,,,,,1,,"biography,classics"
16247001,9573329093,All Things Wise and Wonderful,9789573329091,,,,ES,2012/6/18,Huang Guan,,false,1,42909,32941,106771,24271,454,1976/11/1,All Things Wise an Wonderful,book,13163,8124,2605,266,113,4.40,448,Paperback,,0,0,James Herriot,,,,,,4843,31,385,"adult,animals,autobiography,biography,biography-memoir,british-literature,childrens,classics,comedy,contemporary,fiction,funny,historical,historical-fiction,history,humor,literature,medical,memoir,nature,non-fiction,science,short-stories,young-adult"
16247501,,"Πέρα από τον κινηματογράφο, Α΄ τόμος",9607058798,,,,ES,1999/1/1,Εκδόσεις του Εικοστού Πρώτου,gre,false,1,16247501,15,28,6,0,1999/1/1,,book,4,2,0,0,0,4.67,357,Paperback,,6,0,"Vasilis Rafailidis,Βασίλης Ραφαηλίδης",,,,,,9,0,,non-fiction
16248001,0061809470,When it Happens to You,9780061809477,,,,ES,2013/5/7,It Books,,false,16,13623790,11147,17706,4955,835,2012/8/1,,book,636,2106,1750,389,74,3.57,272,Paperback,,75,20,Molly Ringwald,,,,,,5355,82,121,"adult,adult-fiction,biography,chick-lit,collections,contemporary,drama,family,fiction,literary-fiction,memoir,modern,non-fiction,novels,realistic-fiction,relationships,romance,short-stories"
16248501,0199793727,Litigating War: Mass Civil Injury and the Eritrea-Ethiopia Claims Commission,9780199793723,,,,ES,2013/4/26,"Oxford University Press, USA",,false,2,20085533,2,0,0,0,2013/3/1,,,0,0,0,0,0,0.00,1072,Hardcover,,0,0,Sean D. Murphy,,,,,,2,0,,
16249001,,Dare to Dream Again,B00AB48V2O,,,,ES,,,eng,true,2,16249001,10,4,1,0,2012/11/20,,book,0,1,0,0,0,4.00,,Kindle Edition,,0,0,Eilise Burrows,,,,,,8,-2,,"historical,historical-fiction"
16249501,0810884453,"German Foreign Policy, 1918-1945: A Guide to Current Research and Resources",9780810884458,,,,ES,2013/4/9,Scarecrow Press,,false,3,17472174,1,0,0,0,2013/2/22,,,0,0,0,0,0,0.00,342,Hardcover,,0,0,Christoph Kimmich,,,,,,,0,,
16250001,,Como o Mundo Faz Amor,9788576861287,,,,ES,,,,false,9,4681408,811,1384,411,76,2009/3/17,How the World Makes Love: . . . And What It Taught a Jilted Groom,,53,130,157,57,14,3.37,332,,,3,0,Franz Wisner,,,,,,308,17,18,"autobiography,biography,comedy,humor,love,memoir,non-fiction,novels,psychology,romance,travel"
16250501,1249275199,Reformation of the Criminal and Respect for Law the Purpose of the Criminal Law,9781249275190,,,,ES,2012/8/22,Biblioscholar,,false,1,16250501,0,0,0,0,2012/8/22,,,0,0,0,0,0,0.00,40,Paperback,,0,0,Gustav A Nyquist,,,,,,,0,,
16251001,1429699183,Awesome Space Robots,9781429699181,,,,ES,2013/1/1,Capstone Press,,false,4,16251001,14,10,3,2,2013/1/1,,,0,1,2,0,0,3.33,32,Hardcover,,3,2,Michael O'Hearn,,,,,,4,0,,"non-fiction,science"
16251501,1449673368,The Interprofessional Health Care Team: Leadership and Development,9781449673369,,,,ES,2013/3/1,Jones & Bartlett Publishers,,false,6,16251501,15,14,3,0,2013/2/28,,,2,1,0,0,0,4.67,226,Paperback,,2,0,"Donna Weiss,Felice Tilin,Marlene J. Morgan",,,,,,5,0,5,
16252001,1462721923,Love Heals,9781462721924,,,,ES,2012/10/11,CrossBooks Publishing,,false,2,16252001,1,0,0,0,2012/10/11,,,0,0,0,0,0,0.00,142,Hardcover,,0,0,Leslie Cardinal,,,,,,,0,,
16252501,1470165082,Building on Fire,9781470165086,,,,ES,2012/3/23,Createspace,,false,1,16252501,0,0,0,0,2012/3/23,,,0,0,0,0,0,0.00,96,Paperback,,0,0,Ryn Holmes,,,,,,,0,,
16253001,1477118721,The Nunes Family Cookbook,9781477118726,,,,ES,2012/10/5,Xlibris,,false,2,16253001,0,0,0,0,2012/9/25,,,0,0,0,0,0,0.00,400,Paperback,,0,0,Robin Nunes,,,,,,,0,,
16253501,1477702458,"Science and Craft Projects with Insects, Spiders, and Other Minibeasts",9781477702451,,,,ES,2013/1/15,PowerKids Press,,false,5,16253501,3,4,1,0,2012/1/1,,,0,1,0,0,0,4.00,32,Hardcover,,1,0,Ruth Owen,,,,,,1,0,,non-fiction
16254001,1479355844,Glee Club Smarties Easy Piano 2,9781479355846,,,,ES,2012/10/24,Createspace Independent Publishing Platform,,false,1,16254001,0,0,0,0,2012/10/24,,,0,0,0,0,0,0.00,30,Paperback,,0,0,Jeffrey Eric Funk,,,,,,,0,,
16254501,1480063347,The Bhagavad-Gita with Sanskrit Verses,9781480063341,,,,ES,2012/10/17,Createspace Independent Publishing Platform,eng,false,657,99944,117285,192514,46747,1537,-400/1/1,भगवद्गीता [bhagavad-gītā],book,21773,13252,8327,2265,1130,4.12,274,Paperback,,0,0,Ramananda Prasad,,,,,,55207,377,3865,"adult,classic-literature,classics,college,fiction,historical,history,inspirational,literature,mythology,non-fiction,philosophy,poetry,psychology,reference,religion,school,self-help,spirituality,theology"
16255001,1583213635,2005 Membrane Technology Conference Proceedings on CD,9781583213636,,,,ES,2005/4/1,American Water Works Association,,false,1,16255001,0,0,0,0,2005/4/1,,,0,0,0,0,0,0.00,,Audio CD,,0,0,,,American Water Works Association,,,,,0,,
16255501,1614805644,Costume Craziness,9781614805649,,,,ES,2013/1/1,Graphic Planet,,true,3,16677342,8,11,4,1,2013/1/1,,book,0,0,3,1,0,2.75,34,ebook,,0,0,Dustin Evans,,,,,,1,3,,adventure
16256001,1620657961,Cell Phone Safety,9781620657966,,,,ES,2013/1/1,Capstone Press,,false,5,16242478,14,31,8,1,2013/1/1,,,2,3,3,0,0,3.88,32,Paperback,,0,0,Kathy Allen,,,,,,5,0,,
16256501,1770706488,John Diefenbaker,9781770706484,,,,ES,2001/1/1,Dundurn,,true,5,749785,26,34,8,3,2001/1/1,John Diefenbaker: An Appointment with Destiny,book,3,4,1,0,0,4.25,182,ebook,,0,0,Arthur Slade,,,,,,16,0,,"biography-memoir,history"
16257001,1935083414,Cold Storage,9781935083412,,,,ES,2012/11/1,Cypress Publications,,false,1,16257001,3,8,2,1,2012/11/1,,,1,0,1,0,0,4.00,290,Paperback,,2,1,Barbara A. Kiger,,,,,,,0,,
16257501,303431230X,Facteurs D'Identite- Faktoren Der Identitaet,9783034312301,,,,ES,2012/7/13,"Peter Lang Gmbh, Internationaler Verlag Der Wissenschaften",,false,3,16257501,0,0,0,0,2012/1/1,,,0,0,0,0,0,0.00,381,Paperback,,0,0,,,,"Dominique Avon,Jutta Langenbacher-Liebgott",,,,0,,
16258001,3631377703,Neue Institutionenoekonomik Und Politische Institutionen: Zur Anwendung Der Oekonomischen Theorie Auf Politische Institutionen Und Organisationen,9783631377703,,,,ES,2001/8/21,"Peter Lang Gmbh, Internationaler Verlag Der Wissenschaften",,false,1,16258001,0,0,0,0,2001/8/21,,,0,0,0,0,0,0.00,276,Paperback,,0,0,Rainer Pappenheim,,,,,,,0,,
16259001,3631399154,Die Erstinstanzliche Zustaendigkeit Der Oberlandesgerichte in Staatsschutzstrafsachen: Historische Entwicklung Und Aktuelle Probleme,9783631399156,,,,ES,2002/10/1,"Peter Lang Gmbh, Internationaler Verlag Der Wissenschaften",,false,1,16259001,0,0,0,0,2002/10/1,,,0,0,0,0,0,0.00,300,Paperback,,0,0,Iris Kristina Passek,,,,,,,0,,
16260001,3631519885,Hochschulseminare Im Vergleich: Chancen Und Ergebnisse Unterschiedlicher Lehrformen in Der Wissenschaftlichen Ausbildung Von Lehrkraeften,9783631519882,,,,ES,2003/12/3,"Peter Lang Gmbh, Internationaler Verlag Der Wissenschaften",,false,1,16260001,0,0,0,0,2003/12/3,,,0,0,0,0,0,0.00,302,Paperback,,0,0,Julika Kotzschmar,,,,,,,0,,
16260501,3631529538,Die Wertpapierboerse Und Ihr Traeger: Ein Beitrag Zur Inhaltsbestimmung Der Betriebspflicht Und Zur Erwerbswirtschaftlichen Betaetigung Des Traegers,9783631529539,,,,ES,2004/9/14,"Peter Lang Gmbh, Internationaler Verlag Der Wissenschaften",,false,1,16260501,0,0,0,0,2004/9/14,,,0,0,0,0,0,0.00,199,Paperback,,0,0,Oliver Lorenz,,,,,,,0,,
16261001,3631539290,Im Dienst Sozialer Dienste: Oekonomische Analyse Der Beschaeftigung in Sozialen Dienstleistungseinrichtungen Des Nonprofit Sektors,9783631539293,,,,ES,2006/1/30,"Peter Lang Gmbh, Internationaler Verlag Der Wissenschaften",,false,2,16261001,0,0,0,0,2006/1/30,,,0,0,0,0,0,0.00,304,Paperback,,0,0,Birgit Trukeschitz,,,,,,,0,,
16261501,3631549849,"Der Abschluss Eines Aufhebungsvertrags: Schutz Des Arbeitnehmer-Verbrauchers Und Seine Grenzen- Insbesondere Das Widerrufsrecht Gem. 312, 355 Bgb",9783631549841,,,,ES,2006/4/11,"Peter Lang Gmbh, Internationaler Verlag Der Wissenschaften",,false,1,16261501,0,0,0,0,2006/4/11,,,0,0,0,0,0,0.00,639,Paperback,,0,0,Einiko B Franz,,,,,,,0,,
16262001,3631560060,Forschungsarbeiten Zur Fruehen Kultur Der Menschheit: Das Alte Aegypten,9783631560068,,,,ES,2007/1/24,"Peter Lang Gmbh, Internationaler Verlag Der Wissenschaften",,false,1,16262001,0,0,0,0,2007/1/24,,,0,0,0,0,0,0.00,370,Paperback,,0,0,Ulrich Langner,,,,,,,0,,
16262501,3631570023,Nichtraucherschutz Am Arbeitsplatz,9783631570029,,,,ES,2008/3/18,"Peter Lang Gmbh, Internationaler Verlag Der Wissenschaften",,false,1,16262501,0,0,0,0,2008/3/18,,,0,0,0,0,0,0.00,189,Paperback,,0,0,Ute Dietrich,,,,,,,0,,
16263001,363158086X,Das Preuische Ehescheidungsrecht in Der Judikatur Des Berliner Obertribunals Von 1835 Bis 1879,9783631580868,,,,ES,2008/6/2,"Peter Lang Gmbh, Internationaler Verlag Der Wissenschaften",,false,1,16263001,0,0,0,0,2008/6/2,,,0,0,0,0,0,0.00,192,Paperback,,0,0,Wiebke Mund,,,,,,,0,,
16263501,3631590431,Gluecksspielsucht in Deutschland: Praevalenz Bei Verschiedenen Gluecksspielformen,9783631590430,,,,ES,2009/5/28,"Peter Lang Gmbh, Internationaler Verlag Der Wissenschaften",,false,1,16263501,1,0,0,0,2009/5/28,,,0,0,0,0,0,0.00,76,Hardcover,,0,0,Tilman Becker,,,,,,1,0,,
16264001,3631598483,Strategien Der Kooperation in Der Loesungsfokussierten Kurztherapie Von Steve de Shazer Und Insoo Kim Berg,9783631598481,,,,ES,2010/2/18,"Peter Lang Gmbh, Internationaler Verlag Der Wissenschaften",,false,1,16264001,1,0,0,0,2010/2/18,,,0,0,0,0,0,0.00,214,Paperback,,0,0,Sabine Vesper,,,,,,1,0,,
16264501,3631605285,Transnationale Unternehmen Zwischen Heterogenen Umwelten Und Interner Flexibilisierung: Zur Rolle Polykontextueller Netzwerke in Der Siemens AG,9783631605288,,,,ES,2010/10/7,"Peter Lang Gmbh, Internationaler Verlag Der Wissenschaften",,false,3,18558015,0,0,0,0,2010/10/7,,,0,0,0,0,0,0.00,598,Hardcover,,0,0,Mirka C Wilderer,,,,,,,0,,
16265001,3631611978,Medien Der Auferstehung,9783631611975,,,,ES,2012/3/5,"Peter Lang Gmbh, Internationaler Verlag Der Wissenschaften",,false,3,18535290,0,0,0,0,2012/1/1,,,0,0,0,0,0,0.00,237,Hardcover,,0,0,,,,Helga Finter,,,,0,,
16265501,3631618875,Die Ehe ALS Rechtsinstitut Im Badischen Landrecht Von 1810: Unter Besonderer Beruecksichtigung Der Gesellschaftlichen Entwicklungen Im 19. Jahrhundert,9783631618875,,,,ES,2011/6/1,"Peter Lang Gmbh, Internationaler Verlag Der Wissenschaften",,false,1,16265501,0,0,0,0,2011/6/1,,,0,0,0,0,0,0.00,434,Hardcover,,0,0,Annika Lillemor Lara Rabaa,,,,,,,0,,
16266001,3631633262,Literatura Catalana del Segle XX I de L'Actualitat,9783631633267,,,,ES,2012/7/19,"Peter Lang Gmbh, Internationaler Verlag Der Wissenschaften",,false,2,17067632,0,0,0,0,2012/7/19,,,0,0,0,0,0,0.00,259,Hardcover,,0,0,,,,Eberhard Geisler,,,,0,,
16266501,3837049841,Kinderkram: Reimgeschichten für große und kleine Leute,9783837049848,,,,ES,2009/6/2,Books on Demand,,false,1,16266501,0,0,0,0,2009/6/2,,,0,0,0,0,0,0.00,72,Paperback,,0,0,Gudrun Schroeder,,,,,,,0,,
16267001,384921012X,Die Technik Des Unterrichts Der Deutschen Grammatik,9783849210120,,,,ES,2012/5/21,Klassik Literatur,,false,1,16267001,0,0,0,0,2012/5/21,,,0,0,0,0,0,0.00,230,Paperback,,0,0,P. Hellwig,,,,,,,0,,
16267501,3864443571,Reise auf den Inseln des Thrakischen Meeres,9783864443572,,,,ES,2012/1/9,Salzwasser-Verlag Gmbh,ger,false,1,16267501,0,0,0,0,1860/1/1,Reise auf den Inseln des Thrakischen Meeres,book,0,0,0,0,0,0.00,246,Paperback,,0,0,A. Conze,,,,,,,0,,
16268001,3899752716,Dolmetschen Im Psychotherapeutischen Setting: Eindrucke Aus Der Praxis,9783899752717,,,,ES,2011/12/1,"Peter Lang Gmbh, Internationaler Verlag Der Wissenschaften",,false,1,16268001,0,0,0,0,2011/12/1,,,0,0,0,0,0,0.00,154,Paperback,,0,0,Anke Koellmann,,,,,,,0,,
16268501,3954546671,Rodbertus' Stellung Zur Sozialen Frage,9783954546671,,,,ES,2012/6/13,Dogma,,false,1,16268501,0,0,0,0,2012/6/13,,,0,0,0,0,0,0.00,96,Paperback,,0,0,Oscar Nacht,,,,,,,0,,
16269001,8132208757,Biotechnology for Environmental Management and Resource Recovery,9788132208754,,,,ES,2013/4/9,Springer,,false,3,18157117,0,0,0,0,2013/2/28,,,0,0,0,0,0,0.00,313,Hardcover,,0,0,,,,"Ajay Singh,Ramesh Chander Kuhad",,,,0,,
16269501,0124076815,"Advances in Clinical Chemistry, Volume 60",9780124076815,,,,ES,2013/4/25,Academic Press,,false,2,16269501,0,0,0,0,,,,0,0,0,0,0,0.00,224,Hardcover,,0,0,,,,Gregory S. Makowski,,,,0,,
16270501,0789750570,Excel 2013 Absolute Beginner's Guide (Absolute Beginner's Guides (Que)),9780789750570,,,,ES,2013/3/21,,,false,3,16270501,5,10,2,0,2013/3/18,,,2,0,0,0,0,5.00,,Paperback,,1,0,Tracy Syrstad,,,,,,2,0,,
16271001,1111771871,"Gardner's Art Through the Ages: A Global History, Volume 2: SlideGuide",9781111771874,,,,ES,2012/1/5,Cengage Learning,,false,28,1258281,696,1365,341,13,1924/1/1,Art Through the Ages ,book,127,121,67,19,7,4.00,335,Paperback,,1,0,Fred S. Kleiner,,,,,,193,5,8,"art,christianity,classics,history,mystery,non-fiction,politics,psychology,reference,school,textbooks,thriller"
16271501,1249364353,Command and Control Mechanisms in the Chickamauga Campaign: The Union Experience,9781249364351,,,,ES,2012/9/13,Biblioscholar,,false,1,16271501,0,0,0,0,2012/9/13,,,0,0,0,0,0,0.00,162,Paperback,,0,0,Philip J Baker,,,,,,,0,,
16272001,1249401534,Death by a Thousand Cuts: Micro-Air Vehicles (Mav) in the Service of Air Force Missions,9781249401537,,,,ES,2012/9/17,Biblioscholar,,false,1,16272001,0,0,0,0,2012/9/17,,,0,0,0,0,0,0.00,90,Paperback,,0,0,Arthur F. Huber,,,,,,,0,,
16272501,124941508X,"Leveraging U.S. Intelligence to Defeat Mexican Drug Trafficking Organization: A Framework for Strengthening Democracy, Sovereignty, and the Rule of La",9781249415084,,,,ES,2012/9/17,Biblioscholar,,false,1,16272501,1,0,0,0,2012/9/17,,,0,0,0,0,0,0.00,80,Paperback,,0,0,Kirk S. Karver,,,,,,,0,,
16273001,1249496799,Backward Amplification and Beam Cleanup of a Raman Fiber Laser Oscillator Using a Multi-Mode Graded Index Fiber Amplifier,9781249496793,,,,ES,2012/9/24,Biblioscholar,,false,1,16273001,0,0,0,0,2012/9/24,,,0,0,0,0,0,0.00,70,Paperback,,0,0,Jesse D S Morgan,,,,,,,0,,
16273501,1249593271,Experimental Investigation of a Lift Augmented Ground Effect Platform,9781249593270,,,,ES,2012/10/9,Biblioscholar,,false,1,16273501,0,0,0,0,2012/10/9,,,0,0,0,0,0,0.00,112,Paperback,,0,0,Roberto T Igue,,,,,,,0,,
16274001,1249827744,Investigation Into the Adaptation of a Stream Injector for Use on a Liquid Rock Engine,9781249827740,,,,ES,2012/10/17,Biblioscholar,,false,1,16274001,0,0,0,0,2012/10/17,,,0,0,0,0,0,0.00,78,Paperback,,0,0,Charles B. McFarland,,,,,,,0,,
16274501,1249839076,Benchmarking: Application of Commercial Practices to Air Force Processes,9781249839071,,,,ES,2012/10/17,Biblioscholar,,false,1,16274501,0,0,0,0,2012/10/17,,,0,0,0,0,0,0.00,96,Paperback,,0,0,"Billie J. Antes,Darcy L. Lilley,Stephen B. Marr",,,,,,,0,,
16275001,124991969X,Comparison of the Security Strategies of the United States and the European Union: Is There a Common Approach in Combating Terrorism?,9781249919698,,,,ES,2012/10/24,Biblioscholar,,false,1,16275001,0,0,0,0,2012/10/24,,,0,0,0,0,0,0.00,52,Paperback,,0,0,Torsten Gersdorf,,,,,,,0,,
16275501,145211207X,The Art of Monsters University,9781452112077,,,,ES,2013/6/30,Chronicle Books,en-GB,false,2,16275501,567,1108,246,16,2013/6/1,,book,165,49,26,3,3,4.50,168,Hardcover,First Edition,246,16,Karen Paik,,,,,,277,10,2,"art,fantasy,film,non-fiction,research"
16276001,1475952570,The Butler Did It Every Chance He Got: A Dreadfully Funny Murder Mystery,9781475952575,,,,ES,2012/10/1,iUniverse,,false,4,17044567,9,8,3,0,2012/10/25,,,0,0,2,1,0,2.67,262,Paperback,,0,0,Helen Parramore,,,,,,5,0,1,"funny,mystery"
16276501,1479728209,Meade's Breakthrough at Fredericksburg,9781479728206,,,,ES,2012/10/24,Xlibris,,false,2,16276500,0,0,0,0,2012/10/24,,,0,0,0,0,0,0.00,778,Hardcover,,0,0,Don Ernsberger,,,,,,,0,,
16277001,1594713863,"Rebuilt: The Story of a Catholic Parish: Awakening the Faithful, Reaching the Lost, and Making Church Matter",9781594713866,,,,ES,2013/2/25,Ave Maria Press,en-US,false,8,17437031,1070,2413,612,87,2012/2/28,,book,203,227,138,32,12,3.94,292,Paperback,,144,18,"Michael         White,Tom  Corcoran",,,,,,229,16,88,"academic,adult,christian,christianity,education,faith,inspirational,non-fiction,religion,spirituality,theology,unfinished"
16277501,1620876264,Roosevelt and the Holocaust: How FDR Saved the Jews and Brought Hope to a Nation,9781620876268,,,,ES,2013/6/1,Skyhorse,,false,5,20116674,265,233,63,8,2008/4/25,,,18,20,16,6,3,3.70,368,Paperback,,7,2,Robert L. Beir,,,,,,101,4,57,"american-history,history,non-fiction,reference"
16278001,1859063675,The Oracle of Dr John Dee,9781859063675,,,,ES,2013/6/1,Eddison Books,eng,false,1,16278001,32,25,6,0,2013/6/1,,book,3,1,2,0,0,4.17,112,Paperback,,6,0,John Matthews,,,,,,23,0,1,"history,non-fiction,reference,science"
16278501,3845743921,Die Krankheiten Der Zuckerr Be,9783845743929,,,,ES,2012/7/24,Europ Ischer Hochschulverlag Gmbh & Co. Kg,,false,1,16278501,0,0,0,0,2012/7/24,,,0,0,0,0,0,0.00,160,Paperback,,0,0,Anton Stift,,,,,,,0,,
16279001,3863820967,Geschichte Des Neunzehnten Jahrhunderts Seit Den Wiener Vertr Gen,9783863820961,,,,ES,2012/6/3,Salzwasser-Verlag Gmbh,,false,2,17077197,0,0,0,0,2011/7/3,,,0,0,0,0,0,0.00,510,Paperback,,0,0,G.G. Gervinus,,,,,,,0,,
16279501,395454542X,Der Letzte Tod Des Gautama Buddha,9783954545421,,,,ES,2012/6/7,Dogma,,false,13,11200369,15,19,5,1,2010/2/23,,,1,2,2,0,0,3.80,180,Paperback,,0,0,Fritz Mauthner,,,,,,9,0,1,
16280001,9587370724,El dinero y la vida próspera,9789587370720,,,,ES,2012/5/6,Editorial Desafio,,false,2,16280001,1,5,1,0,2012/9/1,,,1,0,0,0,0,5.00,200,Paperback,,1,0,Stephen K. DeSilva,,,,,,,0,,
16280501,,South of Burnt Rocks West of the Moon,9780988398221,,,,ES,2012/10/22,Smashwords Edition,eng,true,4,16150855,157,60,13,7,2012/10/8,,book,10,2,0,1,0,4.62,,ebook,,0,0,G.J. Berger,,,,,,129,0,,"fiction,historical-fiction"
16281001,0758259409,If You Could See What I See,9780758259400,,,,ES,2013/7/30,Kensington,eng,false,10,16281001,4450,6485,1611,226,2013/1/1,,book,584,625,291,81,30,4.03,434,Paperback,,1283,201,Cathy Lamb,,,,,,2500,31,51,"chick-lit,contemporary,fiction,health,humor,relationships,romance"
16281501,,Cocaine Confidence,,B00A0WD85W,,,ES,2012/11/1,yellowbay.co.uk,en-GB,true,2,16281498,443,38,10,1,2012/11/1,,book,5,0,3,2,0,3.80,282,Kindle Edition,,4,0,Clifford Thurlow,,,,,,424,2,2,"crime,thriller"
16282001,0230313388,The Postcolonial Short Story: Contemporary Essays,9780230313385,,,,ES,2012/11/27,Palgrave Macmillan,,false,2,17060932,1,0,0,0,2012/10/23,,,0,0,0,0,0,0.00,240,Hardcover,,0,0,,,,"Maggie Awadalla,Paul March-Russell",,,1,0,,
16282501,,No Time for Tears,,,,,ES,1944/1/1,George G. Harrap and Co. Ltd.,eng,false,1,16282501,2,5,1,0,1944/1/1,,book,1,0,0,0,0,5.00,168,Hardcover,,1,0,Margaret Sherman,,,,,,,0,,
16283001,,Dharma: The Way of Transcendence,,,,,ES,1996/1/1,The Bhaktivedanta Book Trust Mumbai,eng,false,4,784302,143,149,38,3,1996/1/1,Dharma: The Way of Transcendence,,18,8,4,7,1,3.92,144,Paperback,,0,0,A.C. Bhaktivedanta Swami Prabhupāda,,,,,,73,1,9,"philosophy,religion,spirituality"
16283501,1466836059,The Fun Parts: Stories,9781466836051,,,,ES,2013/3/5,"Farrar, Straus and Giroux",,true,16,15773592,4132,5078,1439,203,2014/2/12,,book,259,495,494,130,61,3.53,240,ebook,,7,0,Sam Lipsyte,,,,,,2373,31,49,"adult-fiction,american,americana,comedy,contemporary,fiction,humor,literary-fiction,literature,magical-realism,short-stories,unfinished"
16284001,,الأمير,9789770931691,,,,ES,2012/1/1,شروق بنجوين,ara,false,2241,28862,441269,823181,216585,6845,1513/1/1,Il principe,book,61848,75603,58168,16059,4907,3.80,214,Paperback,,115,25,Niccolò Machiavelli,,,,,,167377,383,16739,"academic,adult,business,classic-literature,classics,college,essays,fiction,high-school,historical,history,leadership,literature,medieval,non-fiction,novels,philosophy,politics,psychology,reference,school,science,self-help,sociology,unfinished,war"
16284501,,A Scanner Darkly,,,,,ES,1985/1/1,Panther Granada,eng,false,10,14817,147378,298145,73954,2692,1977/1/1,A Scanner Darkly ,book,26274,28936,14563,3161,1020,4.03,252,Mass Market Paperback,,3,1,Philip K. Dick,,,,,,61818,73,3058,"abuse,adult,adult-fiction,adventure,american,classics,comics,contemporary,crime,dark,drama,dystopia,fantasy,fiction,literature,mystery,novels,philosophy,psychology,science,science-fiction,science-fiction-fantasy,speculative-fiction,suspense,thriller,unfinished"
16285001,1934193909,Bob Warden's Favorite Ninja Recipes,9781934193907,,,,ES,2012/10/31,Quail Ridge Press,,false,2,16285001,82,212,57,1,2012/10/31,,,16,20,13,5,3,3.72,184,Paperback,,50,0,Bob Warden,,,,,,21,0,2,"cookbooks,food,reference"
16285501,0334047498,Our Faith,9780334047490,,,,ES,2012/10/10,SCM Press,,false,3,3920453,44,54,15,1,1954/1/1,Our Faith,book,3,5,5,2,0,3.60,120,Hardcover,,1,0,Emil Brunner,,,,,,14,4,1,"christianity,reference,theology"
16286001,0615695272,One Shot: A Selection of Photographs by Reuben V. Burrell,9780615695273,,,,ES,2012/12/17,University of Virginia Press,,false,2,16286001,2,5,1,1,2012/12/10,,,1,0,0,0,0,5.00,100,Paperback,,1,1,Vanessa Thaxton-Ward,,,,,,,0,,
16286501,0880622431,Ray's New Arithmetic Workbook Series 3-Book 4,9780880622431,,,,ES,2003/11/1,Mott Media (MI),,false,1,16286501,0,0,0,0,2003/11/1,,,0,0,0,0,0,0.00,57,Paperback,,0,0,"Betty Moore,Rudolph Moore",,,,,,,0,,
16287001,1105930033,The Transformation,9781105930034,,,,ES,2018/6/30,Lulu.com,,false,1,16287001,0,0,0,0,2012/8/22,,,0,0,0,0,0,0.00,196,Paperback,,0,0,Robin Buckallew,,,,,,,0,,
16287501,1410455580,Cruising in Your Eighties is Murder (Paul Jacobson Geezer-Lit Mysteries),9781410455581,,,,ES,,,,false,6,16080626,371,315,80,18,2012/12/19,,book,27,30,16,5,2,3.94,,,,1,0,Mike Befeler,,,,,,252,5,1,"comedy,cozy-mystery,fiction,humor,mystery,romance"
16288001,1449771629,Water Walk America,9781449771621,,,,ES,2012/11/7,WestBow Press,,false,2,16288000,0,0,0,0,2012/11/7,,,0,0,0,0,0,0.00,268,Paperback,,0,0,Angel Hinman,,,,,,,0,,
16288501,1463340230,Cuando Las Segovias Lloraron Sangre: La Odisea de La Familia Moncada,9781463340230,,,,ES,2012/11/16,Palibrio,,false,2,16288501,2,0,0,0,2012/11/16,,,0,0,0,0,0,0.00,220,Hardcover,,0,0,Juan Moncada,,,,,,1,0,,
16289001,1469281929,We Can All Do Better,9781469281926,,,,ES,2012/12/25,Brilliance Audio,,false,8,13435661,532,742,193,47,2012/1/1,,book,44,86,53,9,1,3.84,,Audio CD,,1,0,Bill Bradley,,,,,,283,8,22,"business,canon,economics,leadership,non-fiction,politics"
16289501,1475961715,"The Dark Side: Immigrants, Racism, and the American Way",9781475961713,,,,ES,2012/11/15,iUniverse,,false,3,17064562,0,0,0,0,2012/11/15,,,0,0,0,0,0,0.00,620,Paperback,,0,0,Young Park,,,,,,,0,,
16290001,1477814302,"Price of Victory, The",9781477814307,,,,ES,2012/10/16,Montlake Romance,,false,3,11018835,83,151,38,8,2011/6/3,,book,15,12,7,3,1,3.97,185,Paperback,,1,1,Sandra Leesmith,,,,,,32,4,1,"adult,chick-lit,contemporary,romance"
16290501,147971609X,Goodenoughmothering: The Best of the Blog,9781479716098,,,,ES,2012/11/7,Xlibris Corporation,,false,3,16290501,0,0,0,0,2012/11/7,,,0,0,0,0,0,0.00,200,Paperback,,0,0,Elaine Heffner,,,,,,,0,,
16291001,1480184268,5 Steps to a Successful Linkedin Strategy for Professionals,9781480184268,,,,ES,2012/11/5,Createspace Independent Publishing Platform,,false,1,16291001,1,0,0,0,2012/11/5,,,0,0,0,0,0,0.00,34,Paperback,,0,0,F Bolbeck,,,,,,1,0,,
16291501,1555953875,For My Daughters,9781555953874,,,,ES,2013/4/16,Hudson Hills Press,,false,1,16291501,4,0,0,0,2013/2/27,,,0,0,0,0,0,0.00,72,Hardcover,,0,0,Dorothy Darling Kerper,,,,,,2,0,,poetry
16292001,1612036880,The Philip Bennett Power Collection,9781612036885,,,,ES,2012/11/15,Bottom of the Hill Publishing,,false,1,16292001,0,0,0,0,2012/11/1,,,0,0,0,0,0,0.00,150,Paperback,,0,0,Philip Bennett Power,,,,,,,0,,
16292501,1627093036,Wagon Wheel,9781627093033,,,,ES,2012/11/8,America Star Books,,false,1,16292501,4,15,3,1,2012/11/8,,,3,0,0,0,0,5.00,134,Paperback,,3,1,Stephanie Busse,,,,,,1,1,,
16293001,1908766271,Girls Getting Off,9781908766274,,,,ES,2013/8/23,Xcite Books,eng,false,4,19230244,39,58,16,1,2013/3/24,,book,4,5,5,1,1,3.62,224,Paperback,,3,1,,,,Elizabeth Coldwell,,,18,0,2,"erotica,fiction,short-stories"
16293501,3034401094,Peristaltische Lokomotion: Modellbildung und technische Applikation,9783034401098,,,,ES,2002/11/1,Books on Demand,,false,1,16293501,0,0,0,0,2002/11/1,,,0,0,0,0,0,0.00,112,Paperback,,0,0,Holger Kunz,,,,,,,0,,
16294001,3643902433,American Top Journalists Analyse Russia: Pulitzer Prize Winning Articles and Cartoons,9783643902436,,,,ES,2013/1/1,LIT Verlag,,false,1,16294001,0,0,0,0,2013/1/1,,book,0,0,0,0,0,0.00,254,Paperback,,0,0,Heinz-Dietrich Fischer,,,,,,,0,,
16294501,3831130590,Die Zündung des Witzes: Eine umfassende Untersuchung der humorbedingten Auslösung des Lachreizes,9783831130597,,,,ES,2002/1/10,Books on Demand,,false,1,16294501,0,0,0,0,2002/1/10,,,0,0,0,0,0,0.00,356,Paperback,,0,0,Reiner Foerst,,,,,,,0,,
16295001,3833004495,50 Jahre Bergkirchweih: Eine Festwirtin erzählt,9783833004490,,,,ES,2003/4/30,Books on Demand,,false,1,16295001,0,0,0,0,2003/4/30,,,0,0,0,0,0,0.00,128,Paperback,,0,0,Irma Steinmüller,,,,,,,0,,
16295501,3833488964,"Geschichten, die das Leben schrieb",9783833488962,,,,ES,2009/6/30,Books on Demand,,false,1,16295501,0,0,0,0,2009/6/30,,,0,0,0,0,0,0.00,456,Paperback,,0,0,Helmut Schlitte,,,,,,,0,,
16296001,3845724803,Das Buch Der Marionetten,9783845724805,,,,ES,2013/3/6,Unikum,,false,3,16296001,1,0,0,0,2012/7/24,,,0,0,0,0,0,0.00,316,Paperback,,0,0,Hermann Siegfried Rehm,,,,,,1,0,,
16296501,3861955407,Deutschland Im Stillen Ozean,9783861955405,,,,ES,2011/1/21,Salzwasser-Verlag Gmbh,,false,8,17388235,0,0,0,0,2011/1/21,,,0,0,0,0,0,0.00,162,Paperback,,0,0,Georg Wegener,,,,,,,0,,
16297001,3864031761,Geschichte Der Philosophie Im Islam,9783864031762,,,,ES,2011/9/14,Outlook Verlag,,false,13,11860492,1613,672,180,32,,,book,46,67,49,9,9,3.73,196,Paperback,,2,0,T.J. De Boer,,,,,,1305,4,36,"history,non-fiction,philosophy,politics"
16297501,3864545072,Der Tee Der Drei Alten Damen,9783864545078,,,,ES,2012/2/13,Trapeza,,false,26,6715686,145,229,66,7,1940/1/1,Der Tee der drei alten Damen,book,11,21,25,6,3,3.47,204,Paperback,,1,0,Friedrich Glauser,,,,,,29,0,4,"crime,death,fiction,literature,mystery,mystery-thriller,politics"
16298001,3925895728,F R Eine Menschlichere Gesellschaft,9783925895722,,,,ES,2001/8/21,Kirchenamt Der Ekd,,false,1,16298001,0,0,0,0,2001/8/21,,,0,0,0,0,0,0.00,350,Paperback,,0,0,Günter Brakelmann,,,,,,,0,,
16298501,849015032X,Flores Blancas,9788490150320,,,,ES,2012/10/30,Vindobona Verlag,,false,1,16298501,0,0,0,0,2012/10/30,,,0,0,0,0,0,0.00,356,Paperback,,0,0,Francisca Herraiz Romero,,,,,,,0,,
16299001,,Khasiat Bombastis Kopi,9786020032733,,,,ES,2012/9/11,ELEX MEDIA,ind,false,1,16299001,7,13,4,0,2012/9/11,Khasiat Bombastis Kopi,book,0,1,3,0,0,3.25,224,Paperback,,4,0,Femi Olivia,,,,,,3,0,,
16299501,,"Prophecy (Lirieia's Children, #1)",9781105868115,,,,ES,2012/6/17,,eng,true,3,15717931,74,24,7,4,2012/6/17,,book,0,3,4,0,0,3.43,,ebook,First,0,0,S.J. Faerlind,,,,,,59,1,1,"fantasy,high-fantasy"
16300001,,Design for Change,,B007X7D2TO,,,ES,2012/4/24,,eng,true,1,16300001,11,14,3,2,2012/4/24,,book,2,1,0,0,0,4.67,319,Kindle Edition,,3,2,Stella Murphy,,,,,,6,1,1,"chick-lit,contemporary,fiction,romance"
16300501,,"Final Curtain (Roderick Alleyn, #14)",,,,,ES,1982/3/1,Fontana Books,eng,false,38,280849,3978,11415,2839,99,1947/1/1,Final Curtain,book,966,1090,682,78,23,4.02,251,Paperback,,3,0,Ngaio Marsh,,,,,,685,22,47,"art,crime,detective,family,fiction,historical,murder-mystery,mystery,mystery-thriller"
16301001,9516113192,Tukikohta 1,,,,,ES,1990/1/1,Book Studio,fin,false,1,16301001,35,58,15,0,,,,3,7,5,0,0,3.87,670,Hardcover,,15,0,Stephen King,,,,,,12,1,1,"dystopia,fiction,horror,survival"
16301501,0071595651,Fluids and Electrolytes Demystified,9780071595650,,,,ES,2008/1/7,McGraw-Hill Education / Medical,,true,2,16429423,0,0,0,0,2007/12/17,,,0,0,0,0,0,0.00,304,ebook,,0,0,Joyce Y. Johnson,,,,,,,0,,
16302001,0253005302,Rice Talks: Food and Community in a Vietnamese Town,9780253005304,,,,ES,2012/4/30,Indiana University Press,,true,5,12282326,28,26,7,2,2011/1/1,,book,1,3,3,0,0,3.71,344,ebook,,0,0,Nir Avieli,,,,,,15,-1,2,"anthropology,college,food,history,non-fiction"
16302501,0470090510,Working with Anger: A Constructivist Approach,9780470090510,,,,ES,2006/6/14,Wiley,,true,5,16769011,4,5,1,0,2006/1/1,,,1,0,0,0,0,5.00,236,ebook,,0,0,,,,Peter Cummins,,,1,0,1,psychology
16303001,0470535105,"Church Turned Inside Out: A Guide for Designers, Refiners, and Re-Aligners",9780470535103,,,,ES,2009/9/18,Jossey-Bass,,true,7,6768563,41,83,22,1,2009/1/1,,,5,11,3,2,1,3.77,240,ebook,,0,0,"Allan Karr,Linda Bergquist",,,,,,9,0,3,"christian,christianity,leadership,non-fiction"
16303501,054775891X,No Sleep for the Sheep!,9780547758916,,,,ES,2011/3/7,Harcourt Brace and Company,,true,6,8739824,1127,2867,720,124,2011/3/7,,,237,276,169,33,5,3.98,32,ebook,,0,0,Karen Beaumont,,,,,,243,22,,"animals,childrens,fiction,humor,picture-books"
16304001,0752471767,MR Verdant Green: Adventures of an Oxford Freshman,9780752471761,,,,ES,2011/10/1,History Press (SC),,true,68,1274017,90,104,32,5,1853/1/1,Mr Verdant Green: Adventures of an Oxford Freshman (Nonsuch Classics),book,5,6,16,2,3,3.25,527,ebook,,0,0,Cuthbert Bede,,,,,,45,1,3,"fiction,humor,literature,victorian"
16304501,0813347017,The Accidental System: Health Care Policy in America,9780813347011,,,,ES,2014/5/27,Westview Press,,true,8,4664389,9,17,5,0,1999/4/29,The Accidental System,,1,0,4,0,0,3.40,334,ebook,,0,0,Michael D. Reagan,,,,,,4,0,,"health,history"
16305001,1101386746,Investigators,9781101386743,,,,ES,1998/12/1,Jove Books,,true,14,494612,2713,6358,1542,36,1998/1/12,The Investigators,book,582,628,282,40,10,4.12,,ebook,,0,0,W.E.B. Griffin,,,,,,476,11,81,"action,crime,detective,fiction,historical,historical-fiction,mystery,thriller,war"
16305501,1118267117,AARP Hawaii 2012,9781118267110,,,,ES,2012/5/22,Frommer's,,true,3,16305500,0,0,0,0,2012/5/22,,,0,0,0,0,0,0.00,741,ebook,,0,0,Frommer's,,,,,,,0,,
16306001,1118490053,Survey Measurement and Process Quality,9781118490051,,,,ES,2012/9/4,Wiley-Interscience,,true,4,16672776,0,0,0,0,2012/8/24,,,0,0,0,0,0,0.00,808,ebook,,0,0,,,,"Cathryn Dippo,Dennis Trewin,Edith D. de Leeuw,Lars E. Lyberg,Martin Collins,Norbert Schwarz,Paul P. Biemer",,,,0,,
16306501,144430318X,"Recreational Hunting, Conservation and Rural Livelihoods: Science and Practice",9781444303186,,,,ES,2009/1/22,Wiley-Blackwell,,true,2,16306501,3,3,1,0,2009/1/1,,,0,0,1,0,0,3.00,384,ebook,,1,0,,,,"Barney Dickson,Bill Adams,Jonathan Hutton",,,2,0,,
16307001,1462900879,"Chinese Martial Code: The Art of War of Sun Tzu, the Precepts of War by Sima Rangju, Wu Zi on the Art of War",9781462900879,,,,ES,2014/12/30,Tuttle Publishing,,true,5,5923770,41,36,10,0,1900/1/1,"The Chinese Martial Code: The Art of War of Sun Tzu, The Precepts of War by Sima Rangju, Wu Zi on the Art of War",,2,3,4,1,0,3.60,191,ebook,,0,0,"A.L. Sadler,Sadler Sadler",,,,,,19,1,2,"history,leadership,non-fiction"
16307501,1607340739,A Black Hole Is Not a Hole,9781607340737,,,,ES,2012/2/1,Charlesbridge Publishing,,true,11,12726786,1738,2934,751,165,2012/2/1,A Black Hole Is Not a Hole,book,242,272,178,43,16,3.91,80,ebook,,0,0,Carolyn Cinami Decristofano,Michael            Carroll,,,,,814,17,12,"chapter-books,childrens,juvenile,middle-grade,non-fiction,picture-books,science,young-adult"
16308001,1843513153,Portobello Notebook,9781843513155,,,,ES,2012/5/1,Lilliput Press,,true,2,13745546,20,35,11,4,2012/1/1,Portobello Notebook,book,1,1,8,1,0,3.18,143,ebook,,0,0,Adrian Kenny,,,,,,5,0,,"fiction,short-stories"
16308501,1907667814,Cattitude 2013: No. 191: Calendar,9781907667817,,,,ES,2012/7/1,Wpl,,false,1,16308501,0,0,0,0,2012/7/1,,,0,0,0,0,0,0.00,14,Paperback,,0,0,DCI Studios,,,,,,,0,,
16309001,3527624376,Automatische Genetische Analytik,9783527624379,,,,ES,2009/2/11,Wiley-Blackwell,,true,4,16900979,0,0,0,0,1997/1/1,,,0,0,0,0,0,0.00,249,ebook,,0,0,"Günter Mertes,Jorg Vom Stein,Jörg vom Stein,Thomas Schäfer,Thomas Schäfer",,,,,,,0,,
16309501,3838134168,Das Prinzip der Eigenverantwortung und der Vertrauensgrundsatz Im Bereich medizinischer Arbeitsteilung,9783838134161,,,,ES,2012/7/7,Sudwestdeutscher Verlag für Hochschulschriften AG,ger,false,1,16309501,0,0,0,0,2012/7/7,,book,0,0,0,0,0,0.00,92,Paperback,,0,0,Christina M. Berchtold,,,,,,,0,,
16310001,,Encyklopedia materiałów odzieżowych . Podręcznik kreatywnego doboru tkanin dla projektantów,9788321347547,,,,ES,2012/1/1,Arkady,pol,false,4,10371221,213,233,56,2,2011/4/1,,book,26,19,7,2,2,4.16,320,Paperback,,1,0,Gail Baugh,,,,,,129,3,6,art
16310501,6610446164,Merchants to Multinationals: British Trading Companies in the Nineteenth and Twentieth Centuries,9786610446162,,,,ES,2000/3/16,Oxford University Press,,true,6,7665562,13,17,4,0,2000/3/16,,book,2,1,1,0,0,4.25,,ebook,,0,0,Geoffrey Jones,,,,,,9,0,,"business,non-fiction"
16311001,6610621632,Apparateelemente: Praxis Der Sicheren Auslegung,9786610621637,,,,ES,2006/1/1,Springer,,true,3,16790007,0,0,0,0,2005/11/10,,,0,0,0,0,0,0.00,437,ebook,,0,0,"Dietrich Gleich,Richard Weyl",,,,,,,0,,
16311501,6610756678,Robert Frost and Northern Irish Poetry,9786610756674,,,,ES,2004/5/8,Oxford University Press,,true,5,138179,7,5,1,0,2004/5/8,Robert Frost and Northern Irish Poetry (Oxford English Monographs),,1,0,0,0,0,5.00,240,ebook,,0,0,Rachel Buxton,,,,,,3,0,2,
16312001,6610766754,Samuel Taylor Coleridge and the Sciences of Life,9786610766758,,,,ES,2001/1/1,Oxford University Press,,true,3,16312001,2,5,1,0,2001/1/1,,,1,0,0,0,0,5.00,382,ebook,,1,0,,,,Nicholas Roe,,,1,0,,
16312501,6610819750,Equivalence and Priority: Newton Versus Leibniz: Including Leibniz's Unpublished Manuscripts on the Principia,9786610819751,,,,ES,1993/1/1,Oxford University Press,,true,2,16804238,3,0,0,0,1993/1/1,,,0,0,0,0,0,0.00,328,ebook,,0,0,Domenico Bertoloni Meli,,,,,,2,0,,philosophy
16313001,6610965129,"Quantum Physics: A First Encounter: Interference, Entanglement, and Reality",9786610965120,,,,ES,2006/2/16,Oxford University Press,,true,5,100028,56,95,25,5,2006/1/1,"Quantum Physics: A First Encounter: Interference, Entanglement, and Reality",,7,9,6,3,0,3.80,144,ebook,,0,0,"Rachael Thew,Valerio Scarani",,,,,,24,0,4,science
16313501,6611155236,Newton: A Very Short Introduction,9786611155230,,,,ES,2007/1/25,Oxford University Press,,true,9,19172663,795,532,154,33,2007/1/25,Newton: A Very Short Introduction (Very Short Introductions),book,30,46,46,28,4,3.45,144,ebook,,0,0,Rob Iliffe,,,,,,540,9,17,"biography,biography-memoir,collections,history,memoir,modern,non-fiction,philosophy,science,textbooks"
16314001,6611515232,"Euroclash: The Eu, European Identity, and the Future of Europe",9786611515232,,,,ES,2008/4/10,Oxford University Press,,true,7,6656019,61,65,18,0,2008/1/1,"Euroclash: The EU, European Identity, and the Future of Europe",,3,8,4,3,0,3.61,296,ebook,,0,0,Neil Fligstein,,,,,,33,1,3,"non-fiction,politics,sociology"
16314501,6611985719,Niets Zo Veranderlijk ALS Het HIV,9786611985714,,,,ES,2005/1/1,Amsterdam University Press,,true,2,16898414,0,0,0,0,2005/1/1,,,0,0,0,0,0,0.00,30,ebook,,0,0,Hanneke Schuitemaker,,,,,,,0,,
16315001,6611999434,Spurensuche Nach Gott: Studien zur Fundamentaltheologie und Gotteslehre,9786611999438,,,,ES,2008/12/10,Walter de Gruyter,,true,4,5692183,1,0,0,0,2008/10/30,,book,0,0,0,0,0,0.00,491,ebook,,0,0,Wilfried Härle,,,,,,1,0,,
16315501,6612066830,Aide-Mmoire D'Lectrotechnique,9786612066832,,,,ES,2006/1/1,Dunod,,true,1,16315501,0,0,0,0,2006/1/1,,,0,0,0,0,0,0.00,320,ebook,,0,0,Pierre May,,,,,,,0,,
16316001,6612506512,Psychopathologie de L'Anorexie Mentale: 2me Dition,9786612506512,,,,ES,2008/7/9,Dunod,,true,4,6640871,4,4,1,0,1998/4/9,Psychopathologie de l'anorexie mentale,book,0,1,0,0,0,4.00,248,ebook,,0,0,Bernard Brusset,,,,,,1,0,,
16316501,6612667206,Ageing Societies,9786612667206,,,,ES,2005/12/30,Hodder Education,,true,8,16939860,5,4,2,0,2005/1/1,,,0,0,1,0,1,2.00,377,ebook,,0,0,Sarah  Harper,,,,,,1,0,,
16317001,6612957212,Teach Yourself: Digital Photography for the Over 50s,9786612957215,,,,ES,2009/12/25,Hodder Education,,true,2,16317001,0,0,0,0,2009/12/25,,,0,0,0,0,0,0.00,343,ebook,,0,0,Peter Cope,,,,,,,0,,
16317501,6613076805,Risonanza Magnetica Cardiaca,9786613076809,,,,ES,2010/1/1,Springer,,true,3,16966424,0,0,0,0,2010/1/1,,,0,0,0,0,0,0.00,229,ebook,,0,0,"Francesco Cobelli,Luigi Natale",,,,,,,0,,
16318001,6613323500,Fiche de Lecture: Une Forme de Vie de Amlie Nothomb,9786613323507,,,,ES,2011/9/1,Milliken,,true,2,16987301,18,32,9,0,2011/9/1,,,2,2,4,1,0,3.56,11,ebook,,0,0,Catherine Bourguignon,,,,,,6,0,2,
16318501,6613368032,Laparoskopische und roboterassistierte Chirurgie in der Urologie: Atlas der Standardeingriffe,9786613368034,,,,ES,2011/1/1,Not Avail,ger,true,7,8347319,1,0,0,0,2010/8/1,,book,0,0,0,0,0,0.00,393,ebook,,0,0,"Evangelos N. Liatsikos,Ingolf A Trk,Jens-Uwe Stolzenburg",,,,,,,0,,
16319001,6613514144,"Garantie Wirksamen Rechtsschutzes Gegen Manahmen Der Europischen Union: Zum Verhltnis Von Art. 47 ABS. 1, 2 Grch Und Art. 263 Ff. Aeuv",9786613514141,,,,ES,2008/7/7,Not Avail,,true,1,16319001,0,0,0,0,2008/7/7,,,0,0,0,0,0,0.00,321,ebook,,0,0,Christina Last,,,,,,,0,,
16319501,6613572780,"Meeresnaturschutz, Erhaltung Der Biodiversitt Und Andere Herausforderungen Im ""Kaskadensystem"" Des Rechts",9786613572783,,,,ES,2012/1/1,Not Avail,,true,1,16319501,0,0,0,0,2012/1/1,,,0,0,0,0,0,0.00,347,ebook,,0,0,Peter Kersandt Thomas Bosecke,,,,,,,0,,
16320001,6613688037,"Projects in Linguistics and Language Studies, Third Edition",9786613688033,,,,ES,2012/3/30,Not Avail,,true,8,15002488,42,57,14,0,2012/3/30,,,7,2,4,1,0,4.07,328,ebook,,0,0,"Aileen Bloomer,Alison Wray",,,,,,13,0,4,
16320501,661369911X,"Die Relevanz Des Vertrauens Fr Das Identittsbasierte Management Globaler Marken: Ein Interkultureller Vergleich Zwischen Deutschland, Indien Und Sdafrika",9786613699114,,,,ES,2012/1/1,Not Avail,,true,1,16320501,0,0,0,0,2012/1/1,,,0,0,0,0,0,0.00,357,ebook,,0,0,Sabrina Hegner,,,,,,,0,,
16321001,6613704172,Ecologist-Developed Spatially-Explicit Dynamic Landscape Models,9786613704177,,,,ES,2012/1/1,Not Avail,,true,4,16321001,0,0,0,0,2012/1/1,,,0,0,0,0,0,0.00,273,ebook,,0,0,"Gordon L. Cohen,James D. Westervelt",,,,,,,0,,
16321501,6613709239,"Second Generation Biometricsthe Ethical, Legal and Social Context",9786613709233,,,,ES,2012/1/1,Not Avail,,true,1,16321501,0,0,0,0,2012/1/1,,,0,0,0,0,0,0.00,349,ebook,,0,0,"Mordini Emilio,Tzovaras Dimitros",,,,,,,0,,
16322001,6613716073,Ethics and Politics in Modern American Poetry,9786613716071,,,,ES,2012/6/25,Not Avail,,true,6,17548138,0,0,0,0,2012/1/1,,,0,0,0,0,0,0.00,237,ebook,,0,0,John Wrighton,,,,,,,0,,
16322501,6613722405,"Smart Cinema, DVD Add-Ons and New Audience Pleasures",9786613722409,,,,ES,2012/5/30,Not Avail,,true,5,13539341,4,9,2,0,2012/1/1,,,1,1,0,0,0,4.50,265,ebook,,0,0,Pat Brereton,,,,,,1,0,,film
16323001,661372758X,Burundi: First Review Under the Three-Year Arrangement Under the Poverty Reduction and Growth Facility and Request for Waiver of Performance Criteria -- Staff Report; Staff Statement; Press Release on the Executive Board Discussion; And Statement by th...,9786613727589,,,,ES,2005/2/17,Not Avail,,true,1,16323001,0,0,0,0,2005/2/17,,,0,0,0,0,0,0.00,74,ebook,,0,0,International Monetary Fund,,,,,,,0,,
16323501,6613732559,Guatemala: Statistical Annex,9786613732552,,,,ES,2005/10/6,Not Avail,,true,1,16323501,0,0,0,0,2005/10/6,,,0,0,0,0,0,0.00,43,ebook,,0,0,International Monetary Fund,,,,,,,0,,
16324001,6613737518,Pakistan: 2006 Article IV Consultation - Staff Report; Public Information Notice on the Executive Board Discussion; And Statement by the Executive Director for Pakistan,9786613737519,,,,ES,2006/12/7,Not Avail,,true,1,16324001,0,0,0,0,2006/12/7,,,0,0,0,0,0,0.00,57,ebook,,0,0,International Monetary Fund,,,,,,,0,,
16324501,661374249X,Poland - Statistical Appendix,9786613742490,,,,ES,2000/5/11,Not Avail,,true,1,16324501,0,0,0,0,2000/5/11,,,0,0,0,0,0,0.00,47,ebook,,0,0,International Monetary Fund,,,,,,,0,,
16325001,6613747467,Liberia - Staff Report for the 1999 Article IV Consultation and Staff Monitored Program,9786613747464,,,,ES,2000/4/10,Not Avail,,true,1,16325001,0,0,0,0,2000/4/10,,,0,0,0,0,0,0.00,72,ebook,,0,0,International Monetary Fund,,,,,,,0,,
16325501,6613752452,Hungary: Selected Issues,9786613752451,,,,ES,2003/5/9,Not Avail,,true,6,16325144,0,0,0,0,2003/5/9,,,0,0,0,0,0,0.00,68,ebook,,0,0,International Monetary Fund,,,,,,,0,,
16326001,0080476368,C#.Net Developer's Guide,9780080476360,,,,ES,2002/1/12,Syngress Publishing,,true,1,16326001,1,0,0,0,2002/2/11,,,0,0,0,0,0,0.00,608,ebook,,0,0,"Adrian Turtschi,Syngress",,,,,,,0,,
16326501,0080508081,"High-Temperature Solid Oxide Fuel Cells: Fundamentals, Design and Applications: Fundamentals, Design and Applications",9780080508085,,,,ES,2003/12/8,Elsevier Science & Technology,,true,5,5595101,3,0,0,0,2003/12/8,,book,0,0,0,0,0,0.00,423,ebook,,0,0,Subhash C. Singhal,,,Kevin Kendall,,,2,0,,
16327001,0080533299,Harmonic Analysis and Special Functions on Symmetric Spaces,9780080533292,,,,ES,1995/2/8,Academic Press,,true,2,3930235,2,0,0,0,1994/12/1,,,0,0,0,0,0,0.00,225,ebook,,0,0,Gerrit Heckman,,,,,,1,0,,
16327501,0080570410,A First Course in Stochastic Processes,9780080570419,,,,ES,2014/5/14,Academic Press,,true,7,1155283,79,72,16,2,1975/1/1,"A First Course in Stochastic Processes, Second Edition",,9,6,1,0,0,4.50,577,ebook,,0,0,"Howard M. Taylor,Samuel Karlin",,,,,,52,1,1,science
16328001,0080954731,"Provability, Computability and Reflection",9780080954738,,,,ES,2000/4/1,Elsevier Science & Technology,,true,246,7957747,2,0,0,0,1966/2/12,,book,0,0,0,0,0,0.00,,ebook,,0,0,Lev D. Beklemishev,,,,,,,0,,
16328501,0470012072,"Bulk Crystal Growth of Electronic, Optical and Optoelectronic Materials",9780470012079,,,,ES,2005/10/31,Wiley,,true,6,3288936,2,0,0,0,2005/1/1,"Bulk Crystal Growth of Electronic, Optical and Optoelectronic Materials (Wiley Series in Materials for Electronic & Optoelectronic Applications)",book,0,0,0,0,0,0.00,574,ebook,,0,0,,,,Peter Capper,,,,0,1,
16329001,047009222X,Evolution of Stars and Stellar Populations,9780470092224,,,,ES,2005/12/13,Wiley,,true,6,2976180,10,4,1,0,2005/1/1,Evolution of Stars and Stellar Populations,,0,1,0,0,0,4.00,386,ebook,,0,0,"Maurizio Salaris,Santi Cassisi",,,,,,6,0,1,
16329501,0470319046,Financial Applications Using Excel Add-In Development in C / C++,9780470319048,,,,ES,2007/4/30,Wiley,,true,4,370576,20,12,3,0,2007/4/30,Financial Applications using Excel Add-in Development in C/C++ with CD (The Wiley Finance Series),,2,0,0,1,0,4.00,584,ebook,,0,0,Steve Dalton,,,,,,13,0,,textbooks
16330001,0470410620,Lean Accounting: Best Practices for Sustainable Integration,9780470410622,,,,ES,2008/5/15,Wiley,,true,7,10069565,43,39,10,0,2007/1/1,,,3,4,2,1,0,3.90,352,ebook,,0,0,,,,Joe Stenzel,,,25,0,4,non-fiction
16330501,0470480386,Veterans Benefits for Dummies,9780470480380,,,,ES,2009/2/18,For Dummies,eng,true,7,6511784,60,102,26,1,2009/2/1,Veterans Benefits For Dummies (For Dummies (Business & Personal Finance)),book,10,6,9,0,1,3.92,384,ebook,,0,0,Rod Powers,,,,,,16,0,15,christmas
16331001,0470541806,Playing Bigger Than You Are: How to Sell Big Accounts Even If You're David in a World of Goliaths,9780470541807,,,,ES,2009/10/2,Wiley,,true,7,7391704,8,16,4,0,2009/1/1,,book,1,2,1,0,0,4.00,256,ebook,,0,0,William T. Brooks,,,,,,3,0,-1,business
16331501,0470602929,The Hedge Fund Fraud Casebook,9780470602928,,,,ES,2010/1/21,Wiley,,true,7,7761850,10,7,2,0,2010/1/21,,,0,1,1,0,0,3.50,312,ebook,,0,0,Bruce Johnson,,,,,,8,0,,
16332001,0470649496,Fires in the Mind: What Kids Can Tell Us about Motivation and Mastery,9780470649497,,,,ES,2010/5/6,Jossey-Bass,,true,8,8032314,395,529,147,29,2010/1/1,,book,33,46,48,16,4,3.60,208,ebook,,0,0,"Kathleen Cushman,Lastthe Students of What Kids Can Do,The students of What Kids Can Do",,,,,,175,14,19,"academic,adult,college,education,leadership,non-fiction,parenting,reference,teaching"
16332501,0470686715,Renewable Energy and Climate Change,9780470686713,,,,ES,2009/12/17,Wiley-IEEE Press,,true,6,16929200,2,0,0,0,2009/12/17,,,0,0,0,0,0,0.00,320,ebook,,0,0,Volker Quaschning,,,,,,,0,,
16333001,0470714905,"The Human Adrenal Cortex, Volume 8: Book 2 of Colloquia on Endocrinology",9780470714904,,,,ES,2009/9/17,Wiley,,true,2,16333001,0,0,0,0,2009/9/17,,,0,0,0,0,0,0.00,352,ebook,,0,0,,,,CIBA Foundation,,,,0,,
16333501,0470741074,Voice Work: Art and Science in Changing Voices,9780470741078,,,,ES,2008/11/20,Wiley,,true,8,8252331,34,37,8,0,2008/1/1,,,5,3,0,0,0,4.62,538,ebook,,0,0,Christina Shewell,,,,,,19,1,3,"education,music"
16334001,0470759534,Understanding the Construction Client,9780470759530,,,,ES,2008/4/15,Wiley-Blackwell,,true,6,8524290,2,4,1,0,2006/1/1,Understanding the Construction Client,,0,1,0,0,0,4.00,328,ebook,,0,0,"David Boyd,Ezekiel Chinyio",,,,,,,0,,
16334501,0470828730,Harmonic Elliott Wave: The Case for Modification of R. N. Elliott's Impulsive Wave Structure,9780470828731,,,,ES,2011/6/3,Wiley,,true,6,16974336,6,1,1,0,2011/6/3,,,0,0,0,0,1,1.00,224,ebook,,0,0,Ian Copsey,,,,,,2,0,1,
16335001,0470860626,Transportation Network Analysis,9780470860625,,,,ES,2000/11/21,Wiley,,true,1,16335001,0,0,0,0,2000/11/21,,,0,0,0,0,0,0.00,226,ebook,,0,0,"M G H Bell,Yasunori Iida",,,,,,,0,,
16335501,0470883561,Handbook for Muni-Bond Issuers,9780470883563,,,,ES,2010/5/14,Bloomberg Press,,true,7,131545,8,9,4,1,1998/1/1,Handbook for Muni-Bond Issuers (Bloomberg Professional Library),,0,0,1,3,0,2.25,240,ebook,,0,0,Joe Mysak,,,,,,3,0,,
16336001,0470936940,Stained Glass for Dummies,9780470936948,,,,ES,2010/10/12,For Dummies,,true,7,9498724,110,213,49,3,2010/9/24,,book,28,11,9,1,0,4.35,336,ebook,,0,0,Vicki Payne,,,,,,36,1,13,"art,reference"
16336501,0470974699,Digital Design of Signal Processing Systems: A Practical Approach,9780470974698,,,,ES,2010/12/20,Wiley,,true,6,16645306,2,0,0,0,2010/12/20,,,0,0,0,0,0,0.00,608,ebook,,0,0,Shoab Ahmed Khan,,,,,,1,0,,
16337001,0471265195,The New York Public Library Amazing U.S. Geography: A Book of Answers for Kids,9780471265191,,,,ES,2002/7/17,Wiley,,true,1,16337001,0,0,0,0,2002/7/17,,,0,0,0,0,0,0.00,176,ebook,,0,0,"Andrea Sutcliffe,Lastthe New York Public Library,New York Public Library,Public Library Ny Public Library",,,,,,,0,,
16337501,0520908856,Henry Thoreau: A Life of the Mind,9780520908857,,,,ES,2015/4/20,University of California Press,,true,5,194061,1892,1613,368,25,1986/1/1,Henry Thoreau: A Life of the Mind,book,194,132,33,7,2,4.38,464,ebook,,0,0,Robert D. Richardson Jr.,,,,,,1448,15,21,"american-history,biography,biography-memoir,history,literature,non-fiction,philosophy,politics"
16338001,0520917189,"Vale of Tears: Revisiting the Canudos Massacre in Northeastern Brazil, 1893-1897",9780520917187,,,,ES,1992/7/1,University of California Press,,true,3,1297258,45,45,13,2,1992/6/1,"Vale of Tears: Revisiting the Canudos Massacre in Northeastern Brazil, 1893-1897",,2,4,5,2,0,3.46,365,ebook,,0,0,Robert M. Levine,,,,,,29,1,2,"crime,history,non-fiction,religion"
16338501,0520924215,"Soldiers in a Narrow Land: The Pinochet Regime in Chile, Updated Edition",9780520924215,,,,ES,1999/8/2,University of California Press,,true,1,16338501,1,0,0,0,1999/8/2,,,0,0,0,0,0,0.00,322,ebook,,0,0,Mary Helen Spooner,,,,,,1,0,,
16339001,0520932234,Tearing Down the Gates: Confronting the Class Divide in American Education,9780520932234,,,,ES,2007/5/29,University of California Press,,true,8,882275,201,275,70,11,2007/4/29,Tearing Down the Gates: Confronting the Class Divide in American Education,book,11,46,11,1,1,3.93,388,ebook,,0,0,Peter Sacks,,,,,,106,3,4,"class,college,economics,education,non-fiction,social-issues,sociology,teaching,textbooks"
16339501,0520938879,"Enemy Lines: Warfare, Childhood, and Play in Batticaloa",9780520938878,,,,ES,2007/4/11,University of California Press,,true,4,338255,33,26,7,4,2007/1/1,"Enemy Lines: Warfare, Childhood, and Play in Batticaloa (Philip E. Lilienthal Books)",,1,3,3,0,0,3.71,320,ebook,,0,0,Margaret Trawick,,,,,,22,0,,"anthropology,class,non-fiction,politics,school,sociology"
16340001,0520946081,Home Lands: How Women Made the West,9780520946088,,,,ES,2010/5/18,University of California Press,,true,4,7016455,34,53,17,2,2010/1/1,,book,2,4,6,4,1,3.12,184,ebook,,0,0,"Carolyn Brucken,Virginia Scharff",,,,,,15,0,,"essays,historical,history"
16340501,0736942149,How to Be Happy Where You Are: Finding Fulfillment,9780736942140,,,,ES,2012/3/1,Harvest House Publishers,,true,4,12310176,106,99,23,2,2012/3/1,,,11,10,1,0,1,4.30,192,ebook,,1,1,Michelle McKinney Hammond,,,,,,69,0,8,"non-fiction,reference,relationships"
16341001,0787996262,"The Masterful Coaching Fieldbook: Grow Your Business, Multiply Your Profits, Win the Talent War!",9780787996260,,,,ES,2007/4/10,Pfeiffer,,true,3,1822533,15,13,3,0,2007/3/23,"The Masterful Coaching Fieldbook: Grow Your Business, Multiply Your Profits, Win the Talent War! (Essential Knowledge Resource)",,2,0,1,0,0,4.33,350,ebook,,0,0,Robert Hargrove,,,,,,4,1,,
16341501,0957300964,Hattori Hachi: Stalking the Enemy,9780957300965,,,,ES,2012/7/1,Silver Fox Productions Limited,,true,3,7807928,149,133,32,15,2012/6/24,,book,14,11,5,2,0,4.16,,ebook,,1,1,Jane Prowse,,,,,,101,7,2,fiction
16342001,1101394684,The Enneagram of Passions and Virtues,9781101394687,,,,ES,2005/5/1,Tarcher,,true,8,311074,297,488,121,8,2005/5/5,The Enneagram of Passions and Virtues: Finding the Way Home,,49,36,28,7,1,4.03,,ebook,,0,0,Sandra Maitri,,,,,,117,1,32,"non-fiction,philosophy,psychology,self-help,spirituality,unfinished"
16342501,1101424176,This Thing Called You,9781101424179,,,,ES,2007/12/1,Tarcher,,true,15,161111,1079,1727,384,31,1956/1/1,This Thing Called You,,238,111,24,10,1,4.50,,ebook,,0,0,Ernest Holmes,,,,,,498,16,117,"christian,christianity,classics,inspirational,non-fiction,personal-development,philosophy,psychology,self-help,spirituality"
16343001,1101576448,Next Stop: A Memoir,9781101576441,,,,ES,2012/3/1,Putnam Adult,,true,3,13076430,467,737,190,35,2012/3/29,,,51,82,42,13,2,3.88,304,ebook,,0,0,Glen Finland,,,,,,235,4,7,"adult,autobiography,biography,biography-memoir,education,memoir,non-fiction,parenting"
16343501,1118030370,Business Analytics for Sales and Marketing Managers: How to Compete in the Information Age,9781118030370,,,,ES,2011/3/8,Wiley,,true,5,10679787,26,16,4,0,2011/3/8,,,1,2,1,0,0,4.00,256,ebook,,0,0,Gert Laursen,,,,,,17,0,1,
16344001,1118055489,Eldercare for Dummies,9781118055489,,,,ES,2011/3/10,For Dummies,,true,3,812122,54,72,19,2,2003/5/1,Eldercare for Dummies,,5,7,5,2,0,3.79,384,ebook,,0,0,Rachelle Zukerman,,,,,,27,1,2,self-help
16344501,1118078365,Html5 for Dummies Quick Reference,9781118078365,,,,ES,2011/5/9,For Dummies,,true,7,10572934,58,56,17,3,2011/3/1,,,3,4,6,3,1,3.29,224,ebook,,0,0,Andy Harris,,,,,,24,0,3,
16345001,1118114469,Frommer's British Columbia,9781118114469,,,,ES,2012/4/30,Frommer's,,true,6,13838123,5,2,1,0,2012/4/18,,book,0,0,0,1,0,2.00,352,ebook,,0,0,Chloe Ernst,,,,,,1,0,,travel
16345501,1118140591,Applied Polymer Rheology: Polymeric Fluids with Industrial Applications,9781118140598,,,,ES,2011/10/24,Wiley,,true,7,16985819,0,0,0,0,2011/10/19,,,0,0,0,0,0,0.00,320,ebook,,0,0,,,,Marianna Kontopoulou,,,,0,,
16346001,1118174194,Fundamentals of Building Construction: Materials and Methods,9781118174197,,,,ES,2011/10/24,Wiley,,true,34,555097,801,1094,283,9,1986/1/1,Fundamentals of Building Construction: Materials and Methods,book,95,99,55,24,10,3.87,1008,ebook,,0,0,"Edward Allen,Joseph Iano",,,,,,356,1,40,"college,non-fiction,reference,science,textbooks,unfinished"
16346501,111819490X,"St. Petersburg, Russia: Frommer's Shortcuts",9781118194904,,,,ES,2012/1/6,Frommer's,,true,3,16346501,0,0,0,0,2012/1/6,,,0,0,0,0,0,0.00,185,ebook,,0,0,Frommer's,,,,,,,0,,
16347001,1118220307,Correctional Psychology and Mental Health,9781118220306,,,,ES,2015/5/18,Wiley,,true,3,16347001,1,0,0,0,2012/8/28,,,0,0,0,0,0,0.00,608,ebook,,0,0,Michael P. Maloney,,,,,,1,0,,
16347501,1118248813,AARP Hay Fever: How Chasing a Dream on a Vermont Farm Changed My Life,9781118248812,,,,ES,2011/12/8,John Wiley & Sons,,true,9,7693210,186,303,97,28,2010/1/1,,book,10,23,37,23,4,3.12,,ebook,,0,0,Angela Miller,,,,,,72,5,6,"biography,biography-memoir,food,memoir,non-fiction,unfinished"
16348001,1118270525,"East Midlands, England: Frommer's Shortcuts",9781118270523,,,,ES,2012/3/12,Frommer's,,true,3,16348001,0,0,0,0,2012/3/12,,,0,0,0,0,0,0.00,,ebook,,0,0,Frommer's,,,,,,,0,,
16348501,1118295404,Candice Olson Bedrooms,9781118295403,,,,ES,2012/9/27,John Wiley & Sons,,true,10,13838732,124,200,57,13,2012/1/1,,,16,13,16,8,4,3.51,,ebook,,0,0,"Brandon Barre,Candice Olson",,,,,,41,2,13,"education,non-fiction"
16349001,1118335228,The Innovator's Toolkit: 50+ Techniques for Predictable and Sustainable Organic Growth,9781118335222,,,,ES,2013/2/12,Wiley,,true,15,3950021,427,450,115,7,2008/10/1,The Innovator's Toolkit: 50+ Techniques for Predictable and Sustainable Organic Growth,,36,43,29,4,3,3.91,432,ebook,,0,0,"David Silverstein,Neil DeCarlo,Philip Samuel",,,,,,159,14,29,"business,leadership,non-fiction,reference,research,technology"
16349501,1118391675,Methods of Multivariate Analysis,9781118391679,,,,ES,2012/8/15,Wiley,,true,12,1753584,38,56,14,0,1995/2/6,Methods of Multivariate Analysis (Wiley Series in Probability and Statistics),,5,5,3,1,0,4.00,800,ebook,,0,0,"Alvin C. Rencher,William F. Christensen",,,,,,14,2,3,"grad-school,reference,research"
16350001,1118450167,Cultural Competence in Health Education and Health Promotion,9781118450161,,,,ES,2013/12/17,Jossey-Bass,,true,12,8747781,21,58,13,0,2008/7/23,Cultural Competence in Health Education and Health Promotion (Public Health/AAHE),,9,1,3,0,0,4.46,368,ebook,,0,0,"Miguel A. Pérez,Raffy R. Luquis",,,,,,5,-1,,
16350501,1119949386,Spanish for Veterinarians: A Practical Introduction,9781119949381,,,,ES,2011/11/16,Wiley-Blackwell,,true,7,1583868,10,14,4,0,2001/1/24,Spanish for Veterinarians: A Practical Introduction,,0,3,0,1,0,3.50,152,ebook,,0,0,"Bonnie Frederick,Juan Mosqueda",,,,,,3,1,1,reference
16351001,1119957818,Steroid Chemistry at a Glance,9781119957812,,,,ES,2011/6/20,Wiley,,true,9,16949461,1,0,0,0,2010/1/1,,,0,0,0,0,0,0.00,152,ebook,,0,0,Daniel Lednicer,,,,,,1,0,,
16351501,1119968291,Strategic Issues in Public-Private Partnerships,9781119968290,,,,ES,2011/12/29,Wiley,,true,7,16787560,1,0,0,0,2011/12/29,,,0,0,0,0,0,0.00,256,ebook,,0,0,"Anneloes Blanken,Geert Dewulf,Mirjam Bult-Spiering",,,,,,,0,,
16352001,1119993520,Modelling Transport,9781119993520,,,,ES,2011/5/3,Wiley,,true,15,1192533,55,70,17,1,1990/10/24,Modelling Transport,,7,5,5,0,0,4.12,606,ebook,,0,0,"Juan De Dios Ortúzar,Luis G. Willumsen",,,,,,20,0,6,reference
16352501,140514338X,Flatfishes: Biology and Exploitation,9781405143387,,,,ES,2008/4/15,Wiley-Blackwell,,true,5,2941965,0,0,0,0,2005/2/24,Flatfishes: Biology and Exploitation (Fish and Aquatic Resources),book,0,0,0,0,0,0.00,416,ebook,,0,0,,,,Robin N. Gibson,,,,0,,
16353001,1405173114,Pocket Guide to Fungal Infection,9781405173117,,,,ES,2008/5/12,Wiley-Blackwell,,true,8,1743004,2,0,0,0,2000/3/1,Pocket Guide to Fungal Infection,book,0,0,0,0,0,0.00,192,ebook,,0,0,Malcolm D. Richardson,,,,,,1,0,,reference
16353501,1415311455,Choose to Change: You Can Transform Yourself,9781415311455,,,,ES,2011/7/1,Struik Christian Media,,true,3,16353501,45,12,3,1,2011/1/1,,,1,1,1,0,0,4.00,209,ebook,,3,1,David Molapo,,,,,,30,0,2,
16354001,1431701416,Gamebirds of Southern Africa,9781431701414,,,,ES,2011/11/5,Struik Nature,,true,5,16354000,0,0,0,0,2000/9/1,,,0,0,0,0,0,0.00,135,ebook,,0,0,"Rob Little,Tim Crowe",,,,,,,0,,
16354501,1444306251,"Crying Shame: Metaculture, Modernity, and the Exaggerated Death of Lament",9781444306255,,,,ES,2009/2/11,Wiley-Blackwell,,true,2,16354501,14,3,1,0,2008/1/1,,,0,0,1,0,0,3.00,296,ebook,,0,0,James M. Wilce,,,,,,,0,,non-fiction
16355001,1444314718,Textbook of Endodontology,9781444314717,,,,ES,2009/10/1,Wiley-Blackwell,,true,1,16355001,0,0,0,0,2009/10/1,,,0,0,0,0,0,0.00,400,ebook,,0,0,Kerl Helmut,,,"Claes Reit,Gunnar Bergenholtz,Kevin Gatter,Preben H&#248 Rsted-Bindslev,Preben Horsted-Bindslev",,,,0,,
16355501,1444329251,General Hospital Care for People with Learning Disabilities,9781444329254,,,,ES,2010/10/1,Wiley-Blackwell,,true,7,16952706,0,0,0,0,2010/1/1,,,0,0,0,0,0,0.00,264,ebook,,0,0,"Julie Clift,Lynn Hannon",,,,,,,0,,
16356001,1444348027,Fish Processing: Sustainability and New Opportunities,9781444348026,,,,ES,2011/6/13,Wiley-Blackwell,,true,6,13301461,2,5,1,0,2010/9/2,,,1,0,0,0,0,5.00,312,ebook,,0,0,,,,George Hall,,,,0,,
16356501,1444355473,Driving Spaces: A Cultural-Historical Geography of England's M1 Motorway,9781444355475,,,,ES,2011/7/22,Wiley-Blackwell,,true,7,16822098,1,4,1,0,2007/1/1,,,0,1,0,0,0,4.00,320,ebook,,0,0,Peter Merriman,,,,,,,0,,
16357001,144436118X,The Great Ormond Street Hospital Manual of Children's Nursing Practices,9781444361186,,,,ES,2012/4/20,Wiley-Blackwell,,true,6,16787196,2,5,1,0,2012/1/1,,,1,0,0,0,0,5.00,504,ebook,,0,0,,,,"Elizabeth Bruce,Faith Gibson,Susan Macqueen",,,,0,1,
16357501,1447211103,"Misty (Fairy Bears, #6)",9781447211105,,,,ES,2011/9/23,MacMillan Children's Books,,true,4,16357501,3,5,1,0,2010/11/1,,book,1,0,0,0,0,5.00,96,ebook,,0,0,Julie Sykes,,,,,,,0,,
16358001,1466602899,Successful Customer Relationship Management Programs and Technologies,9781466602892,,,,ES,2012/3/31,Business Science Reference,,true,5,16785061,1,0,0,0,2012/1/1,,,0,0,0,0,0,0.00,,ebook,,0,0,,,,Riyad Eid,,,,0,,
16358501,1552779572,Educating African Canadians,9781552779576,,,,ES,2011/1/1,Lorimer,,true,1,16358501,0,0,0,0,2011/5/25,,,0,0,0,0,0,0.00,,ebook,,0,0,,,,"Carl E. James,Keren S. Brathwaite",,,,0,,
16359001,1612121187,"The Knitter's Life List: To Do, to Know, to Explore, to Make",9781612121185,,,,ES,2011/11/30,Storey Publishing,,true,4,10882307,897,1527,392,57,2011/9/30,,book,129,144,78,31,10,3.90,320,ebook,,1,1,Gwen Steege,,,,,,363,14,36,"adult,art,non-fiction,reference"
16359501,1742168663,"$1 Million for Life: How to Make It, Manage It, Maximise It",9781742168661,,,,ES,2011/9/19,Wrightbooks,,true,5,18547479,6,10,3,2,2011/1/1,,,0,2,0,1,0,3.33,304,ebook,,0,0,Ashley Ormond,,,,,,,0,1,
16360001,1844099458,Natural Wellness Strategies for Pregnancy,9781844099450,,,,ES,2012/7/1,Findhorn Press,,true,2,13227469,5,10,3,0,2012/7/1,,,0,1,2,0,0,3.33,209,ebook,,0,0,Laurel Alexander,,,,,,1,0,,
16360501,3110198010,Elliptic Curves: A Computational Approach,9783110198010,,,,ES,2008/8/22,de Gruyter,,true,4,15067594,0,0,0,0,2003/1/1,,,0,0,0,0,0,0.00,376,ebook,,0,0,"Horst G. Zimmer,Susanne Schmitt",,"Attila Peth,Attila Pethö",,,,,0,,
16361001,3110214024,Tears in the Graeco-Roman World,9783110214024,,,,ES,2009/8/17,de Gruyter,,true,3,14673159,2,0,0,0,2009/7/1,,,0,0,0,0,0,0.00,497,ebook,,0,0,,,,"Thorsten Fögen,Thorsten Fögen",,,2,0,,
16361501,3110228939,John Henry Newmans Konversion: Sein Weg Zur Katholischen Kirche Aus Protestantischer Perspektive,9783110228939,,,,ES,2011/4/29,de Gruyter,,true,3,16361501,0,0,0,0,2011/4/19,,,0,0,0,0,0,0.00,353,ebook,,0,0,Johannes Schwanke,,,,,,,0,,
16362001,3110255448,Karl Heinrich Grafs Arbeit Am Alten Testament: Studien Zu Einer Wissenschaftlichen Biographie,9783110255447,,,,ES,2011/5/4,de Gruyter,,true,5,16996245,0,0,0,0,2011/4/19,,,0,0,0,0,0,0.00,217,ebook,,0,0,Joachim Conrad,,,Uwe Becker,,,,0,,
16362501,3110800055,Discourse and Inference in Cognitive Anthropology: An Approach to Psychic Unity and Enculturation,9783110800050,,,,ES,2011/7/22,Walter de Gruyter,,true,4,8906969,3,0,0,0,1978/1/1,,,0,0,0,0,0,0.00,324,ebook,,0,0,,,,"James Silverberg,Marvin D. Loflin",,,1,0,,
16363001,3110829339,Altiranisches W�rterbuch,9783110829334,,,,ES,2011/12/7,de Gruyter,,true,5,16366262,1,5,1,0,1961/1/1,,,1,0,0,0,0,5.00,1332,ebook,,0,0,,,,Christian Bartholomae,,,,0,,
16363501,3110859483,"Speech Acts, Meaning and Intentions: Critical Approaches to the Philosophy of John R. Searle",9783110859485,,,,ES,2010/9/15,de Gruyter,,true,3,14677919,6,6,2,0,1990/1/1,,,0,0,2,0,0,3.00,428,ebook,,0,0,,,,Armin Burkhardt,,,3,0,,
16364001,3110889382,Convergence in Ergodic Theory and Probability,9783110889383,,,,ES,2011/6/15,de Gruyter,,true,2,16364001,0,0,0,0,1996/1/1,,,0,0,0,0,0,0.00,456,ebook,,0,0,,,,"Joseph Rosenblatt,Peter March,Vitaly Bergelson",,,,0,,
16364501,3110912015,"Stefan George: Werk Und Wirkung Seit Dem ""Siebenten Ring""",9783110912012,,,,ES,2010/10/13,de Gruyter,,true,3,3264953,0,0,0,0,2001/1/1,Stefan George: Werk und Wirkung seit dem 'Siebenten Ring',,0,0,0,0,0,0.00,467,ebook,,0,0,,,,"Bernhard Böschenstein,Ute Oelmann,Wolfgang Braungart",,,,0,,
16365001,3110926865,Franz�sische Etymologie: Einf�hrung Und �berblick,9783110926866,,,,ES,2012/2/14,de Gruyter,,true,2,16365001,0,0,0,0,1991/1/1,,,0,0,0,0,0,0.00,92,ebook,,0,0,"Otto J Nicke,Otto Janicke",,,,,,,0,,
16365501,3110945045,Die Sinne Und Die Oper: Sinnlichkeit Und Das Problem Ihrer Versprachlichung Im Musiktheater Des Nord- Und Mitteldeutschen Raumes (1680-1740),9783110945041,,,,ES,2011/12/22,de Gruyter,,true,2,16365501,0,0,0,0,2005/1/1,,,0,0,0,0,0,0.00,450,ebook,,0,0,Bernhard Jahn,,,,,,,0,,
16366001,3111353850,Wunschs�tze Im Deutschen - Formale Und Funktionale Beschreibung: Satztypen Mit Verberst- Und Verbletztstellung,9783111353852,,,,ES,2012/1/2,de Gruyter,,true,2,16366001,0,0,0,0,1991/1/1,,,0,0,0,0,0,0.00,327,ebook,,0,0,Ulrike Scholz,,,,,,,0,,
16366501,311167195X,Untersuchungen Zur Grammatik Appositionsverd�chtiger Einheiten Im Deutschen,9783111671956,,,,ES,2010/11/22,de Gruyter,,true,2,16366501,0,0,0,0,1990/1/1,,,0,0,0,0,0,0.00,365,ebook,,0,0,Wolfgang Schindler,,,,,,,0,,
16367001,3527616691,Financing Health Care: New Ideas for a Changing Society,9783527616695,,,,ES,2008/4/9,Wiley-Blackwell,,true,4,5622317,0,0,0,0,2007/10/1,Financing Health Care: New Ideas for a Changing Society (Health Care and Disease Management),,0,0,0,0,0,0.00,291,ebook,,0,0,,,,"Egon Jonsson,Mingshan Lu",,,,0,,
16367501,3527632190,Amplitude Modulation Atomic Force Microscopy,9783527632190,,,,ES,2010/8/6,Wiley-Vch,,true,6,9334196,1,0,0,0,2010/8/6,,book,0,0,0,0,0,0.00,193,ebook,,0,0,Ricardo Garcia,,,,,,1,0,,
16368001,3527647856,Microwaves in Organic and Medicinal Chemistry,9783527647859,,,,ES,2012/3/27,Wiley-Vch,,true,4,17723926,1,0,0,0,2012/3/27,,,0,0,0,0,0,0.00,683,ebook,,0,0,"Alexander Stadler,C. Oliver Kappe,Doris Dallinger",,,"Gerd Folkers,Hugo Kubinyi,Raimund Mannhold",,,,0,,
16368501,9814358312,Island of Demons,9789814358316,,,,ES,2009/8/1,Monsoon Books,,true,4,6344691,150,213,64,14,2009/8/1,Island of Demons,book,10,19,22,8,5,3.33,392,ebook,,0,0,Nigel Barley,,,,,,63,5,6,"anthropology,biography,fiction,historical,non-fiction"
16369001,0789489465,Morocco,9780789489463,,,,ES,2002/11/8,DK Publishing (Dorling Kindersley),,false,6,360299,113,229,57,1,2002/11/7,Morocco (Eyewitness Travel Guides),book,16,26,15,0,0,4.02,400,Paperback,,2,0,Louise Lang,,,,,,28,1,2,"non-fiction,reference,travel"
16369501,0792786017,A Murderous Yarn,9780792786016,,,,ES,2012/3/1,AudioGO,,true,9,367055,2737,6124,1637,115,2002/3/5,"A Murderous Yarn (Needlecraft Mystery, Book 5)",book,385,573,562,104,13,3.74,6,ebook,,9,2,Monica Ferris,,,,,,513,14,16,"american,contemporary,cozy-mystery,crime,detective,fiction,murder-mystery,mystery,mystery-thriller,realistic-fiction"
16370001,1449871747,Babbitt,9781449871741,,,,ES,2011/3/28,Recorded Books,eng,false,423,169718,40719,72334,19789,1123,1922/1/1,Babbitt,book,4422,7234,5711,1733,689,3.66,,Audiobook,,2,0,Sinclair Lewis,,,,,George Guidall,17098,174,756,"adult,adult-fiction,american,americana,classic-literature,classics,fiction,high-school,historical,historical-fiction,history,humor,literary-fiction,literature,modern-classics,novels,school"
16370501,1449882129,Big Red Tequila,9781449882129,,,,ES,2011/3/28,Recorded Books,,false,11,113255,7037,9329,2607,263,1997/6/2,Big Red Tequila,book,507,910,859,246,85,3.58,,Audiobook,,1,0,Rick Riordan,,,,,,3567,23,154,"action,adult,adult-fiction,adventure,contemporary,crime,detective,fantasy,fiction,humor,mystery,mystery-thriller,realistic-fiction,suspense,thriller"
16371001,1449890725,The Coal Tattoo,9781449890728,,,,ES,2011/3/28,Recorded Books,,false,8,26653,3679,7201,1782,146,2004/1/1,The Coal Tattoo,book,642,690,356,69,25,4.04,,Audiobook,,1,1,Silas House,,,,,Kate Forbes,1568,13,54,"adult,adult-fiction,chick-lit,contemporary,family,fiction,historical,historical-fiction,history,literary-fiction,literature,love,novels,religion"
16371501,1449898750,When You Dance with the Devil,9781449898755,,,,ES,2011/3/28,Recorded Books,,false,6,115429,179,303,78,6,2006/8/1,When You Dance With The Devil,book,27,23,22,4,2,3.88,,Audiobook,,1,0,Gwynne Forster,,,,,,67,8,4,"christian-fiction,fiction,romance"
16372001,1456103598,Dead to the World,9781456103590,,,,ES,2011/3/28,Recorded Books,eng,false,93,140077,298246,947332,228984,5523,2004/1/1,Dead to the World,book,93244,84365,42880,6517,1978,4.14,10,Audiobook,eAudiobook,4,1,Charlaine Harris,,,,,Johanna Parker,25866,776,982,"adult,adult-fiction,chick-lit,contemporary,fantasy,fiction,horror,humor,magic,mystery,mystery-thriller,paranormal,romance,science-fiction,science-fiction-fantasy,shapeshifters,supernatural,suspense,urban-fantasy,vampires,werewolves,witches,young-adult"
16372501,1456110845,The Crying Tree,9781456110840,,,,ES,2011/3/28,Recorded Books,,false,25,5356056,8365,13780,3592,645,2009/1/1,The Crying Tree,book,902,1534,881,216,59,3.84,,Audio,,0,0,Naseem Rakha,,,,,,4145,48,83,"adult,adult-fiction,chick-lit,contemporary,crime,death,drama,family,fiction,literary-fiction,literature,mystery,mystery-thriller,novels"
16373001,1461815010,Spies of the Mississippi,9781461815013,,,,ES,2011/3/28,Recorded Books,,false,11,7057692,1076,1564,433,115,2009/12/18,,book,88,146,151,39,9,3.61,,Audio,,0,0,Rick Bowers,,,,,Peter Jay Fernandez,491,13,24,"american-history,childrens,crime,historical,historical-fiction,history,juvenile,middle-grade,non-fiction,teen,young-adult"
16373501,1464047790,The Hot Zone,9781464047794,,,,ES,2012/7/1,Recorded Books,,false,75,16213,135272,351026,85369,4387,1994/12/1,The Hot Zone: The Terrifying True Story of the Origins of the Ebola Virus,book,33496,32718,15328,2863,964,4.11,,Audio,,1,0,Richard   Preston,,,,,,38695,161,1588,"adult,animals,contemporary,fiction,health,high-school,historical,history,horror,medical,mystery,mystery-thriller,nature,non-fiction,novels,research,school,science,science-fiction,suspense,thriller"
16374001,6610746818,Advances in Quantum Chemistry: Volume 51,9786610746811,,,,ES,2006/12/11,Elsevier Science & Technology,,true,5,16799836,1,0,0,0,2006/11/1,,book,0,0,0,0,0,0.00,332,ebook,,0,0,,,,"Erkki J. Brändas,John R. Sabin",,,1,0,,
16374501,661105488X,"Pvd for Microelectronics: Sputter Deposition Applied to Semiconductor Manufacturing. Thin Films, Volume 26.",9786611054885,,,,ES,1999/1/1,Elsevier Science & Technology,,true,4,16820851,0,0,0,0,1998/1/1,,,0,0,0,0,0,0.00,419,ebook,,0,0,,,,"Ronald A. Powell,Stephen M. Rossnagel",,,,0,,
16375001,6611473483,"International Review of Cytology, Volume 18",9786611473488,,,,ES,1965/5/28,Elsevier Science & Technology,,true,3,16327563,0,0,0,0,1965/1/1,,book,0,0,0,0,0,0.00,,ebook,,0,0,,,,"Geoffrey H. Bourne,J.F. Danielli",,,,0,,
16375501,6611773630,"Geomagnetism in Marine Geology. Elsevier Oceanography Series, Volume 6.",9786611773632,,,,ES,1972/1/1,Elsevier Science & Technology,,true,2,16883754,0,0,0,0,1972/1/1,,,0,0,0,0,0,0.00,185,ebook,,0,0,Victor Vacquier,,,,,,,0,,
16376001,6612347341,"Advances in Chemical Physics, Molecular Beams",9786612347344,,,,ES,2009/9/8,John Wiley & Sons,,true,3,16921775,0,0,0,0,2009/9/8,,,0,0,0,0,0,0.00,431,ebook,,0,0,,,,"Ilya Prigogine,Stuart A. Rice",,,,0,,
16376501,6612951664,Cits Interculturelles - Vers Un Modle D'Intgration Interculturelle,9786612951664,,,,ES,2010/1/1,Council of Europe,,true,1,16376501,0,0,0,0,2010/1/1,,,0,0,0,0,0,0.00,124,ebook,,0,0,Phil Wood,,,,,,,0,,
16377001,6613689661,Advances in Parasitology,9786613689665,,,,ES,2012/8/6,Not Avail,,true,7,23019846,4,0,0,0,2008/6/18,,book,0,0,0,0,0,0.00,465,ebook,,0,0,,,,"David Rollinson,Simon Iain Hay",,,1,0,,
16377501,6613759759,"Kontrollierte Kontrolleure : die Bedeutung der Zollverwaltung für die ""politisch-operative Arbeit"" des Ministeriums für Staatssicherheit der DDR",9786613759757,,,,ES,2011/3/9,Vandenhoeck & Ruprecht,,true,3,16815131,0,0,0,0,2011/3/9,,book,0,0,0,0,0,0.00,497,ebook,,0,0,Jörn-Michael Goll,,,,,,,0,,
16378001,6613764736,Robert Fludd,9786613764737,,,,ES,2008/5/21,Not Avail,,true,1,16378001,0,0,0,0,2008/5/21,,,0,0,0,0,0,0.00,633,ebook,,0,0,Johannes Rsche,,,,,,,0,,
16378501,6613770132,"Trenchless Technology: Pipeline and Utility Design, Construction, and Renewal",9786613770134,,,,ES,2004/12/27,McGraw-Hill Professional Publishing,,true,5,902337,10,25,5,0,2004/6/1,"Trenchless Technology : Pipeline and Utility Design, Construction, and Renewal",,5,0,0,0,0,5.00,512,ebook,,0,0,Mohammad Najafi,,,,,,6,0,,
16379001,6613775282,Six Puzzles in Electronic Money and Banking,9786613775283,,,,ES,2004/2/1,Not Avail,,true,2,16823487,0,0,0,0,2004/2/1,,,0,0,0,0,0,0.00,31,ebook,,0,0,Saleh M. Nsouli,,,,,,,0,,
16379501,661378026X,The Effects of Exchange Rate Change on the Trade Balance in Croatia,9786613780263,,,,ES,2004/4/1,Not Avail,,true,2,16852307,1,3,1,0,2004/4/1,,,0,0,1,0,0,3.00,31,ebook,,0,0,Tihomir Stucka,,,,,,,0,,
16380001,6613785288,Fiscal Sustainability and Resource Mobilization in the Dominican Republic,9786613785282,,,,ES,2003/1/1,Not Avail,,true,1,16380001,0,0,0,0,2003/1/1,,,0,0,0,0,0,0.00,37,ebook,,0,0,Oscar E. Melhado,,,,,,,0,,
16380501,0080458858,A Practical Handbook of Preparative HPLC,9780080458854,,,,ES,2014/5/14,Elsevier Science & Technology,,true,4,8249423,2,0,0,0,2006/3/7,,,0,0,0,0,0,0.00,193,ebook,,0,0,Donald A. Wellings,,,,,,,0,1,
16381001,0080470505,The Finite Element Method in Engineering,9780080470504,,,,ES,2014/5/14,Butterworth-Heinemann,,true,17,9152243,63,45,11,1,1981/12/1,,book,4,5,1,1,0,4.09,683,ebook,,0,0,Singiresu S. Rao,,,,,,33,1,1,"science,technology"
16381501,0080490115,"Advances in Applied Microbiology, Volume 57",9780080490113,,,,ES,2005/5/26,Academic Press,,true,4,1822245,1,0,0,0,1992/7/1,Advances in Applied Microbiology,book,0,0,0,0,0,0.00,352,ebook,,0,0,Allen I. Laskin,,,"Geoffrey M. Gadd,Joan W. Bennett",,,,0,,
16382001,0080511236,"Studies in Mathematics and Its Applications, Volume 29: Mathematical Elasticity, Volume 3: Theory of Shells",9780080511238,,,,ES,2000/5/11,North-Holland,,true,3,2309354,4,5,1,0,1997/7/22,Mathematical Elasticity : Theory of Shells (Studies in Mathematics and Its Applications),book,1,0,0,0,0,5.00,661,ebook,,0,0,Philippe G. Ciarlet,,,,,,3,0,,
16382501,008052883X,Cerebral Vasospasm,9780080528830,,,,ES,2001/4/2,Academic Press,,true,3,8155097,1,0,0,0,2001/1/1,,book,0,0,0,0,0,0.00,518,ebook,,0,0,"Bryce Weir,R. Loch Macdonald",,,,,,,0,,
16383001,0080537626,Non-Equilibrium Processing of Materials,9780080537627,,,,ES,1999/7/22,Pergamon,,true,2,2650406,5,5,1,0,1999/8/1,Non-equilibrium Processing of Materials (Pergamon Materials Series),,1,0,0,0,0,5.00,,ebook,,1,0,C. Suryanarayana,,,,,,5,0,,
16383501,0080549500,Modeling in Transport Phenomena: A Conceptual Approach,9780080549507,,,,ES,2007/7/17,Elsevier Science & Technology,,true,6,5456298,7,15,3,0,2002/1/1,"Modeling in Transport Phenomena, Second Edition: A Conceptual Approach",,3,0,0,0,0,5.00,629,ebook,,0,0,İsmail Tosun,,,,,,3,0,1,
16384001,0080559972,Evolutionary Essays: : A Thermodynamic Interpretation of the Evolution,9780080559971,,,,ES,2014/5/14,Elsevier Science & Technology,,true,2,16384001,0,0,0,0,2008/8/25,,,0,0,0,0,0,0.00,219,ebook,,0,0,Sven Erik Jørgensen,,,,,,,0,,
16384501,0080579272,"Advances in Marine Biology, Volume 4",9780080579276,,,,ES,1966/1/1,Academic Press,,true,3,16384501,1,5,1,0,1966/1/1,,book,1,0,0,0,0,5.00,339,ebook,,1,0,Frederick S. Russell,,,,,,1,0,,
16385001,0080872271,Weighted Norm Inequalities and Related Topics,9780080872278,,,,ES,2014/5/14,North-Holland,,true,3,16385001,0,0,0,0,1985/1/1,,book,0,0,0,0,0,0.00,615,ebook,,0,0,"José García-Cuerva,José Luis Rubio de Francia",,,,,,,0,,
16385501,008095054X,Plastics Failure Analysis and Prevention,9780080950549,,,,ES,2001/12/31,William Andrew Publishing,,true,5,1945689,2,0,0,0,2001/5/1,Plastics Failure Analysis and Prevention (Plastics),,0,0,0,0,0,0.00,345,ebook,,0,0,John Moalli,,,,,,1,0,,
16386001,0123870437,"Advances in Clinical Chemistry, Volume 55",9780123870438,,,,ES,2014/5/14,Academic Press,,true,4,16386001,0,0,0,0,2011/10/1,,,0,0,0,0,0,0.00,174,ebook,,0,0,,,,Gregory S. Makowski,,,,0,,
16386501,0310828880,The Book of Uncommon Prayer 2: Prayers and Worship Services for Youth Ministry,9780310828884,,,,ES,2009/9/13,Zondervan Publishing Company,,true,1,16386501,1,5,1,0,2009/9/13,,,1,0,0,0,0,5.00,,ebook,,1,0,Steven L. Case,,,,,,,0,,
16387001,0807885282,American Inquisition: The Hunt for Japanese American Disloyalty in World War II,9780807885284,,,,ES,2007/10/15,University of North Carolina Press,,true,11,1905391,38,52,15,5,2007/10/15,American Inquisition: The Hunt for Japanese American Disloyalty in World War II (H. Eugene and Lillian Youngs Lehman Series),,2,5,7,0,1,3.47,216,ebook,,0,0,Eric L. Muller,,,,,,15,2,2,history
16387501,1101601930,The Harbormaster's Daughter,9781101601938,,,,ES,2012/8/1,New American Library,,true,4,13542916,522,466,152,32,2012/8/1,,book,15,35,59,31,12,3.07,368,ebook,,1,0,Heidi Jon Schmidt,,,,,,16,9,3,"chick-lit,contemporary,fiction,novels"
16388001,1430241500,User Experience Innovation: [User Centered Design That Works],9781430241508,,,,ES,2014/5/27,Apress,,true,1,16388001,1,0,0,0,2012/1/1,,,0,0,0,0,0,0.00,223,ebook,,0,0,Christian Kraft,,,,,,,0,,
16388501,145923541X,"A Home for Hannah (Brides of Amish Country, #6)",9781459235410,,,,ES,2012/8/1,Love Inspired,,true,11,13546981,650,1150,270,26,2012/7/24,A Home for Hannah ,book,128,92,43,6,1,4.26,224,ebook,,0,0,Patricia Davids,,,,,,266,11,18,"adult,christian,christian-fiction,contemporary,faith,family,fiction,harlequin,realistic-fiction,religion,romance"
16389001,1597494933,Eleventh Hour Network+: Exam N10-004 Study Guide,9781597494939,,,,ES,2014/5/14,Syngress Publishing,,true,1,16389001,0,0,0,0,2009/10/28,,,0,0,0,0,0,0.00,203,ebook,,0,0,Naomi J. Alpern,,,,,,,0,,
16389501,1847195318,Building Websites with Joomla! 1.5,9781847195319,,,,ES,2008/3/28,Packt Publishing,,true,3,16838303,0,0,0,0,2008/3/28,,,0,0,0,0,0,0.00,384,ebook,,0,0,Hagen Graf,,,,,,,0,,
16390001,1926812085,Dr. Art Hister's Guide to Living a Long and Healthy Life,9781926812083,,,,ES,2003/11/1,Greystone Books,,true,2,6383311,4,8,2,0,2003/11/1,Guide to Living a Long & Healthy Life,,1,0,1,0,0,4.00,309,ebook,,1,0,Art Hister,,,,,,2,0,,"humor,science,self-help"
16390501,5510520604,Jacques Jonghelinck,9785510520606,,,,ES,2013/1/8,Book on Demand Ltd.,,false,1,16390501,0,0,0,0,2012/3/10,,,0,0,0,0,0,0.00,168,Paperback,,0,0,"Jesse Russell,Ronald Cohn",,,,,,,0,,
16391001,5510535458,Mario & Sonic at the Olympic Games,9785510535457,,,,ES,2013/1/11,Book on Demand Ltd.,,false,1,16391001,0,0,0,0,2012/2/26,,,0,0,0,0,0,0.00,74,Paperback,,0,0,"Jesse Russell,Ronald Cohn",,,,,,,0,,
16391501,5510558369,Admiral Hipper Class Cruiser,9785510558364,,,,ES,2013/1/9,Book on Demand Ltd.,,false,1,16391501,0,0,0,0,2012/1/19,,,0,0,0,0,0,0.00,98,Paperback,,0,0,"Jesse Russell,Ronald Cohn",,,,,,,0,,
16392001,5510581484,Collybia Cookei,9785510581485,,,,ES,2013/1/1,Book on Demand Ltd.,,false,1,16392001,0,0,0,0,2012/5/22,,,0,0,0,0,0,0.00,106,Paperback,,0,0,"Jesse Russell,Ronald Cohn",,,,,,,0,,
16392501,551060381X,Iowa Events Center,9785510603811,,,,ES,2013/1/24,Book on Demand Ltd.,,false,1,16392501,0,0,0,0,2012/1/8,,,0,0,0,0,0,0.00,96,Paperback,,0,0,"Jesse Russell,Ronald Cohn",,,,,,,0,,
16393001,5510631368,Michael Reagan,9785510631364,,,,ES,2013/1/11,Book on Demand Ltd.,,false,1,16393001,0,0,0,0,2012/2/24,,,0,0,0,0,0,0.00,86,Paperback,,0,0,"Jesse Russell,Ronald Cohn",,,,,,,0,,
16393501,5510655194,Protein C,9785510655193,,,,ES,2012/1/25,Book on Demand Ltd.,,false,1,16393501,0,0,0,0,2012/1/25,,,0,0,0,0,0,0.00,158,Paperback,,0,0,"Jesse Russell,Ronald Cohn",,,,,,,0,,
16394001,5551053350,The Lesson of the Master,,,,,ES,2000/8/8,Xlibris Corporation,,true,113,398136,1505,2150,584,76,1888/1/1,The Lesson of the Master,book,123,229,167,53,12,3.68,,ebook,,0,0,Henry James,,,,,,745,5,23,"american,americana,british-literature,chick-lit,classics,drama,fiction,literary-fiction,literature,modern-classics,novella,novels,short-stories"
16394501,5551064913,Hard Times,,,,,ES,2000/8/8,Xlibris Corporation,,true,1211,5344,95106,169689,48240,2541,1854/1/1,Hard Times: For These Times,book,8860,16100,16219,5271,1790,3.52,,ebook,,0,0,Charles Dickens,,,,,,32373,284,2750,"adult,adult-fiction,british-literature,classic-literature,classics,college,education,english-literature,fiction,historical,historical-fiction,history,literary-fiction,literature,novels,school,social,unfinished,victorian"
16395001,5551070115,The 12 Simple Secrets of Microsoft Management: How to Think and ACT Like a Microsoft Manager and Take Your Company to the Top,,,,,ES,2000/9/15,McGraw-Hill Companies,,true,4,16395000,1,0,0,0,1999/2/21,,,0,0,0,0,0,0.00,,ebook,,0,0,"David Thielen,Theilen",,,,,,1,0,,
16395501,5551087557,Managing Technology,,,,,ES,2002/1/31,Capstone Publishing,,true,2,11429956,3,1,1,0,2002/1/31,,,0,0,0,0,1,1.00,128,ebook,,0,0,Amy Zuckerman,,,,,,2,0,,
16396001,5551098419,"Never Too Late for Love: More Stories of Love, Sex and Joy in a Florida Retirement Community",,,,,ES,2001/1/1,Stonehouse Press,,true,12,31146480,23,19,6,1,1995/1/1,Never Too Late for Love: Fiction,book,2,0,2,1,1,3.17,,ebook,,0,0,Warren Adler,,,,,,13,1,,fiction
16396501,5551109984,The Spike: How Our Lives Are Being Transformed by Rapidly Advancing Technologies,,,,,ES,2001/2/1,St. Martin's Press,,true,9,330915,213,266,73,4,2001/2/1,Die molekulare Manufraktur.,book,18,23,21,10,1,3.64,384,ebook,,0,0,Damien Broderick,,,,,,90,1,3,"canon,non-fiction,philosophy,science,sociology,technology"
16397001,5551122247,Jack,,,,,ES,2001/11/6,Random House (NY),,true,20,532,472,768,199,23,2001/1/1,Jack: A Life Like No Other,book,51,86,48,11,3,3.86,,ebook,,0,0,Geoffrey Perret,,,,,,230,5,8,"american-history,biography,history,non-fiction,politics"
16397501,5551131092,The Frog: A Tale of Sexual Torture and Degradation,,,,,ES,2002/8/25,Sizzler,,true,10,2280246,662,822,260,31,2002/1/1,Frog ,book,46,53,89,41,31,3.16,,ebook,,0,0,Claire Thompson,,,,,,331,10,3,"abuse,adult,adult-fiction,bdsm,contemporary,dark,erotica,menage"
16398001,5551136728,All Around the Town,,,,,ES,2000/5/25,Simon & Schuster,,true,80,170619,34205,91719,23222,626,1992/1/1,All Around the Town,book,7279,8655,6283,850,155,3.95,,ebook,,0,0,Mary Higgins Clark,,,Julie Rubenstein,,,4237,41,273,"adult,adult-fiction,american,chick-lit,contemporary,crime,drama,fiction,horror,murder-mystery,mystery,mystery-thriller,novels,psychology,romance,suspense,thriller"
16398501,5551141780,Avatar Book Two,,,,,ES,2001/7/24,Pocket Books,,true,11,131631,1752,4333,1082,57,2001/6/1,Avatar Book Two of Two (Star Trek: Deep Space Nine),book,336,448,270,23,5,4.00,,ebook,,0,0,S.D. Perry,,,,,,350,18,14,"collections,fantasy,fiction,literature,novels,science,science-fiction"
16399001,5551149757,The Brand You 50 (Reinventing Work),,,,,ES,1999/12/15,Knopf Publishing Group,,true,16,318804,1512,2193,585,43,1900/1/1,"The Brand You 50 : Or : Fifty Ways to Transform Yourself from an 'Employee' into a Brand That Shouts Distinction, Commitment, and Passion!",book,180,174,155,56,20,3.75,,ebook,,0,0,Tom Peters,,,,,,705,14,42,"business,leadership,non-fiction,personal-development,psychology,reference,self-help,social"
16399501,5551158225,A World Made New,,,,,ES,2001/3/30,Random House,,true,9,86019,915,944,255,24,2001/1/1,A World Made New: Eleanor Roosevelt and the Universal Declaration of Human Rights,book,51,104,78,17,5,3.70,,ebook,,0,0,Mary Ann Glendon,,,,,,503,11,62,"american-history,biography,biography-memoir,classics,feminism,historical,history,non-fiction,politics,teaching"
16400001,555117137X,The Customer Revolution,,,,,ES,2001/7/5,Crown Publishing Group (NY),,true,4,535855,66,77,23,2,2001/1/1,The Customer Revolution,,2,7,11,3,0,3.35,,ebook,,0,0,"Jeffrey M. Lewis,Patricia B. Seybold,Ronni T. Marshak",,,,,,23,3,1,"business,cooking"
16400501,5551191850,Springer's Gambit,,,,,ES,2001/10/18,Minotaur Books,,true,5,2996380,73,176,44,5,2001/10/18,Springer's Gambit (Cole Springer Mysteries),book,16,16,8,4,0,4.00,,ebook,,0,0,W.L. Ripley,,,,,,13,0,3,"humor,mystery"
16401001,5551205215,Queen of Camelot,,,,,ES,2002/4/9,Ballantine Books,,true,10,480575,10341,10203,2506,204,2002/1/1,Queen of Camelot,book,1044,815,476,124,47,4.07,,ebook,,0,0,Nancy McKenzie,,,,,,7341,28,99,"adult,adult-fiction,amazon,classics,epic-fantasy,fantasy,fiction,historical,historical-fiction,history,magic,medieval,mythology,retellings,romance"
16401501,555122905X,Kickoff to Danger,,,,,ES,2002/1/7,Minstrel,,true,8,319060,248,311,82,1,2001/1/1,"Kickoff to Danger (Hardy Boys, #170)",,30,15,29,6,2,3.79,,ebook,,0,0,Franklin W. Dixon,,,,,,121,5,2,"adventure,detective,fiction,middle-grade,mystery,young-adult"
16402001,5551237443,The Trade Mission: A Novel of Psychological Terror,,,,,ES,2003/2/18,Scribner Book Company,,true,16,1664010,551,617,197,27,2002/9/1,The Trade Mission,,25,45,73,39,15,3.13,,ebook,,0,0,Andrew Pyper,,,,,,45,12,5,"fiction,horror,literature,mystery,mystery-thriller,suspense,thriller,unfinished"
16403001,5551252493,Ace the Corporate Personality Test,,,,,ES,2000/9/7,McGraw-Hill,,true,5,968251,11,5,2,0,2000/7/9,Ace the Corporate Personality Test,book,0,0,1,1,0,2.50,,ebook,,0,0,Edward Hoffman,,,,,,5,1,1,non-fiction
16403501,5551259056,The Digital Dream,,,,,ES,2000/1/1,Boson Books,,true,3,10968929,1,0,0,0,2000/1/1,,,0,0,0,0,0,0.00,,ebook,,0,0,Michael J. Cale,,,,,,1,0,,
16404001,5551266036,"Sexual Bloopers: An Outrageous, Uncensored Collection of People's Most Embarrassing X-Rated Fumbles",,,,,ES,2003/7/1,Fireside Books,,true,4,6948562,6,12,3,0,2003/1/1,,,1,1,1,0,0,4.00,,ebook,,0,0,Michelle Horwitz,,,,,,1,0,1,non-fiction
16404501,5551274381,Mind Your Own Business,,,,,ES,2003/10/28,Currency,,true,2,16404501,1,5,1,0,2003/10/28,,,1,0,0,0,0,5.00,,ebook,,1,0,Sidney Harman,,,,,,,0,,
16405001,5551280705,Before & Beyond: A Collection of Stories,,,,,ES,2002/8/15,Double Dragon Publishing,,true,3,16405001,0,0,0,0,2002/8/15,,,0,0,0,0,0,0.00,,ebook,,0,0,Patrick Welch,,,,,,,0,,
16405501,5551286592,Accounting for Managers,,,,,ES,2003/11/17,McGraw-Hill,,true,2,16759569,5,5,1,0,2003/9/30,,,1,0,0,0,0,5.00,,ebook,,0,0,William H. Webster,,,,,,1,1,1,
16406001,5551292401,The Island at the Center of the World,,,,,ES,2004/3/16,Doubleday Books,,true,6,45000,18700,29708,7196,810,2004/1/1,The Island at the Center of the World: The Epic Story of Dutch Manhattan and the Forgotten Colony That Shaped America,book,2867,2820,1167,250,92,4.13,,ebook,,3,1,Russell Shorto,,,,,,5442,47,520,"adult,american,american-history,biography,economics,historical,historical-fiction,history,non-fiction,politics,reference,research,travel"
16406501,5551298434,"The Machine Crusade (Legends of Dune, #2)",,,,,ES,2003/9/16,Forge,eng,true,38,99218,17817,45267,12079,247,2002/9/16,The Machine Crusade ,book,3504,4012,3081,974,508,3.75,,ebook,,0,0,"Brian Herbert,Kevin J. Anderson",,,,,,3057,22,191,"adult,adventure,classics,epic,epic-fantasy,fantasy,fiction,literature,novels,science,science-fiction,science-fiction-fantasy,speculative-fiction,war"
16407001,5551309444,Emma,,,,,ES,2004/4/14,Nuvision Publications,,true,2779,6969,941057,2241828,561402,14129,1815/12/23,Emma,book,206255,199808,113582,28818,12939,3.99,,ebook,,0,0,Jane Austen,,,,,,296182,1638,22241,"adult,adult-fiction,british-literature,chick-lit,classic-literature,classics,drama,english-literature,fiction,historical,historical-fiction,humor,literary-fiction,literature,love,novels,regency,romance,school,unfinished"
16407501,5551336301,Kilrone,,,,,ES,2004/11/23,Bantam,,true,15,1129305,1925,4923,1277,32,1966/10/1,Kilrone,book,348,454,425,42,8,3.86,,ebook,,0,0,Louis L'Amour,,,,,,286,9,26,"action,adult-fiction,adventure,fiction,historical-fiction,novels"
16408001,555134276X,The Dare,,,,,ES,2004/6/2,Ellora's Cave,,true,6,1384534,124,169,49,10,2002/1/1,The Dare,book,6,19,18,3,3,3.45,,ebook,,0,0,Denise A. Agnew,,,,,,50,5,1,"adult,adult-fiction,contemporary,erotica,fiction,romance,suspense"
16408501,5551364666,The Importance of Being Earnest: A Trivial Comedy for Serious People,,,,,ES,2004/7/21,Nuvision Publications,,true,1153,92303,445234,1136991,272654,7765,1895/1/1,The Importance of Being Earnest,book,117077,99373,44541,8828,2835,4.17,,ebook,,0,0,Oscar Wilde,,,,,,134419,1344,2629,"adult,adult-fiction,british-literature,classic-literature,classics,college,comedy,drama,english-literature,fiction,funny,high-school,historical,historical-fiction,humor,literary-fiction,literature,novels,plays,romance,school,short-stories,theatre,victorian"
16409001,5551374793,You're in Charge--Now What?,,,,,ES,2005/1/11,Crown Publishing Group,,true,10,206051,1310,1685,458,28,2005/1/11,"You're in Charge, Now What?: The 8 Point Plan",book,99,168,146,35,10,3.68,288,ebook,,0,0,Thomas J. Neff,,,,,,671,17,56,"business,education,fiction,leadership,non-fiction,personal-development"
16409501,5551386414,Bertram Cope's Year,,,,,ES,2004/1/1,Kevin Neeland,,true,38,1476658,404,426,116,24,1919/1/1,Bertram Cope's Year,book,24,48,28,14,2,3.67,,ebook,,0,0,Henry Blake Fuller,,,,,,246,10,4,"amazon,american,classics,fiction,gay,historical-fiction,lgbt,literature,novels,queer,relationships"
16410001,5551401014,Billibub Baddings and the Case of the Singing Sword,,,,,ES,2004/10/19,Dragon Moon Press,,true,8,898664,961,2269,543,38,2004/10/1,Billibub Baddings and the Case of the Singing Sword,book,226,226,67,10,14,4.18,,ebook,,0,0,Tee Morris,,,,,,356,9,3,"comedy,crime,detective,fantasy,fiction,historical-fiction,humor,mystery,science-fiction,steampunk,supernatural,unfinished,urban-fantasy"
16410501,5551410854,Psychic Living: A Complete Guide to Enhancing Your Life,,,,,ES,2004/12/7,Pocket Books,,true,4,243538,34,41,11,3,2004/12/7,Psychic Living: A Complete Guide to Enhancing Your Life,,4,2,3,2,0,3.73,,ebook,,0,0,Stacey Wolf,,,,,,17,0,,non-fiction
16411001,5551417832,"Under the Shadow (Moonrunner, #1)",,,,,ES,1998/12/1,New Concepts Publishing,eng,true,9,647366,56,60,16,3,1992/7/7,Under the Shadow (Moonrunner),book,4,7,3,1,1,3.75,,ebook,,0,0,Jane Toombs,,,,,,23,6,,"adventure,dark,fantasy,fiction,gothic,paranormal,speculative-fiction,urban-fantasy,werewolves"
16411501,5551454681,Animals,,,,,ES,2004/3/15,Italica Press,,true,1,16411501,2,0,0,0,2004/3/15,,,0,0,0,0,0,0.00,,ebook,,0,0,Monica Sarsini,,,,,,2,0,,
16412001,5551460606,Stranger Than Fiction,,,,,ES,2005/5/10,Knopf Publishing Group,,true,53,24820339,38732,74515,20892,796,2004/6/15,Stranger Than Fiction: True Stories,book,3871,7236,7155,2121,509,3.57,,ebook,,0,0,Chuck Palahniuk,,,,,,13469,17,498,"adult,american,americana,anthologies,autobiography,biography,biography-memoir,collections,comedy,contemporary,dark,drama,essays,fiction,horror,humor,literature,memoir,non-fiction,novels,short-stories,unfinished,writing"
16412501,5551467317,Gods of Aberdeen,,,,,ES,2005/6/3,Simon & Schuster,,true,11,2545615,299,536,170,32,2005/1/1,Gods of Aberdeen: A Novel,book,24,45,48,39,14,3.15,,ebook,,0,0,Micah Nathan,,,,,,73,6,2,"adult-fiction,fantasy,fiction,mystery,suspense,thriller"
16413001,5551473627,Monitors,,,,,ES,2005/8/2,Double Dragon Publishing,,true,5,9487263,6,8,2,0,2005/7/23,,,0,2,0,0,0,4.00,,ebook,,0,0,Darrell Bain,,,,,,2,0,,science-fiction
16413501,5551480143,Portrait of Mara,,,,,ES,2005/9/16,Double Dragon Publishing,,true,3,17780773,0,0,0,0,2005/9/16,,,0,0,0,0,0,0.00,,ebook,,0,0,Cecil Ballerino,,,,,,,0,,
16414001,5551486931,"What Women Really Want: How American Women Are Quietly Erasing Political, Racial, Class, and Religious Lines to Change the Way We Live",,,,,ES,2005/10/12,Free Press,,true,7,528810,115,76,25,6,2005/1/1,"What Women Really Want: How American Women Are Quietly Erasing Political, Racial, Class, and Religious Lines to Change the Way We Live",,3,8,6,3,5,3.04,,ebook,,0,0,"Celinda Lake,Kellyanne Conway",,,,,,84,2,4,"non-fiction,politics,sociology"
16414501,5551493598,Voyagers,,,,,ES,2005/12/22,Double Dragon Publishing,,true,11,11139999,16,41,10,6,,,,3,5,2,0,0,4.10,,ebook,,0,0,K.L. Nappier,,,,,,4,0,,fiction
16415001,5551499480,Do I Look Fat in This?: Life Doesn't Begin Five Pounds from Now,,,,,ES,2006/1/31,Simon Spotlight Entertainment,,true,7,358373,167,290,80,16,2005/1/1,Do I Look Fat in This?: Life Doesn't Begin Five Pounds from Now,book,17,27,26,9,1,3.62,,ebook,,0,0,Jessica Weiner,,,,,,59,1,6,"health,medical,non-fiction,philosophy,psychology,self-help,sociology"
16415501,5551511472,Once Upon a Day,,,,,ES,2006/4/11,Atria Books,,true,32,751579,4254,8721,2386,318,2006/4/1,Once Upon a Day,book,431,956,783,177,39,3.66,,ebook,,0,0,Lisa Tucker,,,,,,1346,31,34,"adult,adult-fiction,chick-lit,contemporary,drama,family,fiction,mental-illness,mystery,novels,romance"
16416001,5551523276,The Scorsolini Marriage Bargain,,,,,ES,2006/5/1,Harlequin Presents,,true,23,334641,2975,6747,1719,93,2006/5/1,The Scorsolini Marriage Bargain,book,583,599,396,107,34,3.92,,ebook,,0,0,Lucy Monroe,,,,,,846,9,43,"adult,amazon,contemporary,drama,fiction,harlequin,love,marriage,romance"
16416501,5551533034,Last Voyage of the Valentina,,,,,ES,2006/6/6,Touchstone Books,,true,41,589432,3621,6996,1916,154,2005/2/28,Last Voyage of the Valentina,book,409,684,618,156,49,3.65,,ebook,,0,0,Santa Montefiore,,,,,,1078,15,81,"chick-lit,contemporary,drama,fiction,historical,historical-fiction,mystery,novels,romance,unfinished"
16417001,5551540200,The Sista Hood: On the MIC,,,,,ES,2006/7/11,Atria Books,,true,1,16417001,0,0,0,0,2006/7/11,,,0,0,0,0,0,0.00,,ebook,,0,0,E-Fierce,,,,,,,0,,
16417501,5551549763,Diary of a Mistress,,,,,ES,2006/8/1,Touchstone Books,,true,17,29122,4612,10944,2518,104,2006/8/1,Diary of a Mistress,book,1476,586,337,90,29,4.35,,ebook,,0,0,Miasha,,,,,,1975,14,57,"adult,adult-fiction,cultural,dark,drama,erotica,fiction,mental-health,mental-illness,novella,romance"
16418001,555155841X,Crossroads of Destiny: Science Fiction Stories,,,,,ES,2006/8/15,Wildside Press,,true,13,6477413,89,186,52,10,1959/7/1,Crossroads of Destiny,book,8,17,24,3,0,3.58,,ebook,,0,0,H. Beam Piper,,,,,,27,3,1,"fiction,science-fiction,short-stories"
16418501,5551565831,Piety & Politics,,,,,ES,2006/10/3,Crown Publishing Group,,true,7,251848,163,234,61,6,2006/1/1,Piety & Politics: The Right-Wing Assault on Religious Freedom,,18,19,20,4,0,3.84,288,ebook,,0,0,Barry W. Lynn,,,,,,82,4,1,"christianity,history,non-fiction,politics,religion,social,social-issues,sociology"
16419001,5551572285,French Women for All Seasons,,,,,ES,2006/10/31,Knopf Publishing Group,,true,33,106881,4299,8563,2368,241,2006/1/1,"French Women for All Seasons: A Year of Secrets, Recipes, and Pleasure",book,521,779,763,248,57,3.62,,ebook,,0,0,Mireille Guiliano,,,,,,766,11,61,"biography-memoir,cookbooks,cooking,fiction,food,france,health,memoir,non-fiction,personal-development,reference,self-help,travel,unfinished"
16419501,5551579476,The Mom's Guide to Earning and Saving Thousands on the Internet,,,,,ES,2006/8/30,McGraw-Hill,,true,5,296433,27,44,12,2,2005/12/16,The Mom's Guide to Earning and Saving Thousands on the Internet (Mom's Guide to Earning & Saving Thousands on the Internet),book,4,1,6,1,0,3.67,224,ebook,,0,0,Barb Webb,,,,,,7,1,1,"health,non-fiction,self-help"
16420001,5551587134,Bride and Doom,,,,,ES,2006/12/26,Dell Publishing Company,,true,6,222144,538,713,191,19,2006/1/1,Bride and Doom (Wedding Planner Mystery #6),book,47,65,63,13,3,3.73,336,ebook,,0,0,Deborah Donnelly,,,,,,263,7,3,"cozy-mystery,fiction,mystery,mystery-thriller"
16420501,5551597326,Oswald's Tale,,,,,ES,2007/1/23,Random House Publishing Group,,true,25,96119,2454,3598,929,96,1995/1/1,Oswald's Tale: An American Mystery,book,279,338,240,59,13,3.87,,ebook,,0,0,Norman Mailer,,,,,,1217,14,87,"american,american-history,biography,crime,fiction,historical,historical-fiction,history,literature,mystery,non-fiction,politics,psychology,true-crime,unfinished"
16421501,5551610187,Dark Desert,,,,,ES,2014/3/25,"Mardi Gras Publishing, LLC",eng,true,4,16421501,2,1,1,0,2006/8/1,,book,0,0,0,0,1,1.00,,ebook,2,1,0,Savannah Black,,,,,,1,0,,
16422001,5551617831,Enchanting Melody,,,,,ES,2007/5/1,Harlequin Presents,,true,7,1536446,71,104,27,0,2007/1/1,Enchanting Melody (Kimani Romance),book,6,13,6,2,0,3.85,224,ebook,,0,0,Robyn Amos,,,,,,24,1,4,"harlequin,romance"
16422501,5551625907,The Prince of Nantucket,,,,,ES,2007/4/24,Crown Publishing Group,,true,11,450927,360,753,234,57,2007/1/1,The Prince of Nantucket,book,17,68,105,37,7,3.22,,ebook,,0,0,Jan  Goldstein,,,,,,71,6,5,"american,chick-lit,fiction,literature,romance"
16423001,5551633128,Thoughts from the Heart of the Soul: Meditations on Emotional Awareness,,,,,ES,2007/5/21,TF eBooks,,true,9,205960,149,153,36,1,2002/5/7,,,14,18,3,1,0,4.25,,ebook,,0,0,Gary Zukav,,,,,,28,1,2,self-help
16423501,5551645738,Find Your Focus Zone: An Effective New Plan to Defeat Distraction and Overload,,,,,ES,2007/6/26,Free Press,,true,17,1630102,1736,1369,345,38,2007/1/1,Find Your Focus Zone: An Effective New Plan to Defeat Distraction and Overload,book,123,122,75,16,9,3.97,304,ebook,,0,0,Lucy Jo Palladino,,,,,,1228,13,75,"business,health,mental-health,non-fiction,personal-development,psychology,self-help"
16424001,5551651045,The First Commandment,,,,,ES,2007/7/17,Atria Books,,true,4,206197,27129,79234,18711,427,2007/7/17,The First Commandment,book,8346,7121,2688,400,156,4.23,,ebook,,0,0,Brad Thor,,,,,,4723,33,471,"action,adult,adult-fiction,adventure,crime,fiction,mystery,mystery-thriller,suspense,thriller"
16424501,5551658406,The Devilish Pleasures of a Duke,,,,,ES,2007/7/31,Random House Publishing Group,,true,9,17007,1837,3989,1002,44,2007/7/31,"The Devilish Pleasures of a Duke (Boscastle, #6)",book,336,372,244,39,11,3.98,,ebook,,0,0,Jillian Hunter,,,,,,486,13,17,"chick-lit,fiction,historical,historical-fiction,love,regency,romance"
16425001,5551666115,Lusty Billionaires Bundle,,,,,ES,2007/9/1,Harlequin Presents,,true,4,5044995,120,187,51,2,2007/9/1,The Billionaire's Contract Bride / The Billionaire's Pregnant Mistress / The Billionaire Boss's Bride,book,11,20,13,6,1,3.67,,ebook,,0,0,Carol Marinelli,,,,,,39,5,5,"contemporary,romance"
16425501,5551671739,The Best of Lady Churchill's Rosebud Wristlet,9785551671732,,,,ES,2007/8/28,Random House Publishing Group,eng,true,6,66663,867,1136,281,36,2007/1/1,The Best of Lady Churchill's Rosebud Wristlet: Occasional Outbursts,book,94,117,59,10,1,4.04,,ebook,,0,0,,,,"Gavin J. Grant,Kelly Link",,,516,6,7,"adult-fiction,anthologies,essays,fantasy,fiction,literary-fiction,poetry,science-fiction,short-stories,speculative-fiction"
16426001,5551682196,Eyes of Crow,,,,,ES,2007/10/1,Luna Books,,true,15,97505,2793,3632,946,67,2006/10/17,Eyes of Crow,book,305,329,210,59,43,3.84,,ebook,,0,0,Jeri Smith-Ready,,,,,,1569,20,22,"adult,animals,epic-fantasy,fantasy,fiction,high-fantasy,magic,mythology,nature,paranormal,post-apocalyptic,romance,science-fiction,shapeshifters,urban-fantasy,young-adult"
16426501,5551693759,Oracle Collaboration Suite Handbook,,,,,ES,2007/2/27,McGraw-Hill/Osborne Media,,true,4,1687257,4,5,2,0,2007/2/27,Oracle Collaboration Suite Handbook (Osborne Oracle Press),,0,0,1,1,0,2.50,417,ebook,,0,0,Ronald J. Zapar,,,,,,,0,,
16427001,5551705625,Dragonkeepers,,,,,ES,2007/10/24,Torquere Press,,true,4,6539767,94,106,35,4,2007/1/1,The Dragonkeepers,book,3,8,14,7,3,3.03,,ebook,,0,0,Mike Shade,,,,,,39,3,,"adventure,drama,fantasy,fiction,gay,magic,novella,paranormal,romance,speculative-fiction"
16427501,5551713903,Living Alone and Loving It,,,,,ES,2007/11/1,TF eBooks,,true,7,56404,683,936,244,26,2002/12/10,Living Alone and Loving It: A Guide to Relishing the Solo Life,book,79,83,49,29,4,3.84,176,ebook,,0,0,Barbara Feldon,,,,,,349,9,26,"adult,biography,biography-memoir,memoir,non-fiction,relationships,self-help"
16428001,5551722961,Troy: Fall of Kings,,,,,ES,2007/12/26,Random House Publishing Group,,true,32,870807,11650,34103,7790,295,2007/8/27,Troy: Fall of Kings ,book,4223,2484,914,141,28,4.38,,ebook,,0,0,"David Gemmell,Stella Gemmell",,,,,,613,28,81,"action,adult,adventure,classics,epic,epic-fantasy,fantasy,fiction,historical,historical-fiction,history,mythology,novels,romance,war"
16428501,5551729745,Shaking Off the Dust,,,,,ES,2008/1/1,Samhain Publishing,,true,6,3888035,310,356,97,13,2008/1/1,Shaking Off the Dust,book,30,29,22,8,8,3.67,,ebook,,0,0,Rhianna Samuels,,,,,,178,11,2,"adult,contemporary,erotica,fantasy,ghosts,mystery,paranormal,romance,suspense,unfinished,urban-fantasy,vampires"
16429001,5551743551,Dark Seduction,,,,,ES,2008/2/1,Silhouette Desire,,true,13,2531391,414,473,131,16,2008/2/1,Dark Seduction ,book,36,36,36,18,5,3.61,,ebook,,0,0,Kathleen Korbel,,,,,,219,12,3,"erotica,fantasy,harlequin,paranormal,romance"
16429501,5551751295,Beginning Bodybuilding,,,,,ES,2007/12/20,McGraw-Hill,,true,5,2978753,117,244,53,4,2007/12/20,Beginning Bodybuilding,book,39,8,5,1,0,4.60,220,ebook,,0,0,John  Little,,,,,,40,0,10,"health,non-fiction"
16430001,5551758664,Staked,,,,,ES,2008/3/11,Pocket Books,,true,9,2744959,5438,7531,2049,198,2008/1/1,"Staked (Void City, Book 1)",book,626,612,482,178,151,3.68,384,ebook,,0,0,J.F. Lewis,,,,,,1178,21,29,"adult,contemporary,crime,dark,demons,fantasy,fiction,horror,humor,magic,mystery,paranormal,romance,shapeshifters,supernatural,urban-fantasy,vampires,werewolves"
16430501,5551765261,Lost Boy,,,,,ES,2008/3/11,Random House Children's Books,,true,10,3229312,177,220,66,16,2005/10/1,Lost Boy,book,13,17,21,9,6,3.33,,ebook,,0,0,Linda Newbery,,,,,,80,4,3,"adventure,contemporary,ghosts,horror,mystery,realistic-fiction,young-adult"
16431001,5551770427,One-Click Buy: April Silhouette Desire,,,,,ES,2008/4/1,Silhouette Desire,,true,4,8609427,19,8,4,0,2008/4/1,,book,0,0,1,2,1,2.00,,ebook,,0,0,Jan Colley,,,,,,12,1,,
16431501,5551812057,Understanding Each Other: A Guide for Parents and Their Children,,,,,ES,2008/7/30,Inspirations by Grace Lajoy,,true,2,7431202,0,0,0,0,2008/1/1,,,0,0,0,0,0,0.00,,ebook,,0,0,Grace LaJoy Henderson,,,,,,,0,,
16432001,5551819477,Million Dollar Dilemma,,,,,ES,2008/5/1,Steeple Hill Love Inspired Suspense,,true,13,801328,1005,1812,488,35,2005/9/1,"Million Dollar Dilemma (Baer, Judy)",book,137,160,126,44,21,3.71,,ebook,,0,0,Judy Baer,,,,,,393,15,9,"adult-fiction,chick-lit,christian,christian-fiction,comedy,fiction,humor,romance"
16432501,5551828107,Housing Women,,,,,ES,1994/10/20,Routledge,,true,10,14837536,3,3,1,0,1994/1/1,,,0,0,1,0,0,3.00,,ebook,,0,0,,,,Rose Gilroy,,,1,0,,"feminism,sociology"
16433001,5551836010,The House at Midnight,,,,,ES,2008/6/3,Random House Publishing Group,,true,22,2363802,5632,5882,1873,261,2008/1/1,The House at Midnight,book,199,498,679,361,136,3.14,,ebook,,0,0,Lucie Whitehouse,,,,,,3425,33,27,"adult,contemporary,drama,fiction,gothic,historical-fiction,horror,literary-fiction,literature,mystery,mystery-thriller,novels,relationships,romance,suspense,thriller,unfinished"
16433501,5551841464,Petite Anglaise,,,,,ES,2008/6/17,Spiegel & Grau,,true,22,2249468,1897,3655,1163,177,2008/1/1,Petite Anglaise,book,130,293,431,231,78,3.14,304,ebook,,0,0,Catherine Sanderson,,,,,,486,14,22,"adult,biography,chick-lit,contemporary,fiction,france,memoir,non-fiction,romance,travel"
16434001,5551849716,Stalking Susan,,,,,ES,2008/7/15,Doubleday Publishing,,true,14,2900643,3597,7042,1921,313,2008/7/15,Stalking Susan: A Novel,book,328,810,629,121,33,3.67,240,ebook,,0,0,Julie Kramer,,,,,,1253,18,28,"cozy-mystery,crime,detective,fiction,murder-mystery,mystery,mystery-thriller,suspense,thriller"
16434501,5551858405,The Boat of Dreams: A Christmas Story,,,,,ES,2007/11/1,TF eBooks,,true,7,22166,203,374,113,20,2003/10/28,The Boat of Dreams,book,17,26,48,19,3,3.31,128,ebook,,0,0,Richard   Preston,,,,,,65,4,,"christmas,classics,fantasy,holiday,juvenile,literary-fiction,magical-realism"
16435001,5552038169,Sons of the Soil,,,,,ES,2001/2/1,Xlibris Corporation,,true,89,896479,406,530,150,12,1855/1/1,Les Paysans,book,28,48,56,12,6,3.53,,ebook,,0,0,Honoré de Balzac,,,,,,194,8,13,"canon,classics,fiction,france,novels"
16435501,5552043235,Noblesse,,,,,ES,2001/2/1,Xlibris Corporation,,true,1,16435501,10,17,5,0,2001/2/1,,,1,2,1,0,1,3.40,,ebook,,5,0,Mary E. Wilkins Freeman,,,,,,4,1,,romance
16436001,5552048652,The Great Big Treasury of Beatrix Potter,,,,,ES,1992/10/1,Xlibris Corporation,,true,65,345183,700,1444,345,39,1992/10/1,Great Big Treasury of Beatrix Potter,book,160,106,66,9,4,4.19,,ebook,,0,0,Beatrix Potter,,,,,,147,21,24,"animals,childrens,classic-literature,classics,fiction,juvenile,picture-books,short-stories"
16436501,,"Death of a Maid (Hamish Macbeth, #23)",,,,,ES,2007/1/1,BBC Audiobooks America,eng,false,29,120637,6280,15283,4033,293,2007/2/1,Death of a Maid ,book,849,1691,1307,167,19,3.79,,Audiobook,Audible Edition,0,0,M.C. Beaton,,,,,,943,26,104,"adult,adult-fiction,contemporary,cozy-mystery,crime,death,detective,fiction,humor,murder-mystery,mystery,mystery-thriller"
16437001,6610447047,Discovering My Autism: Apologia Pro Vita Sua with Apologies to Cardinal Newman,9786610447046,,,,ES,1999/1/1,Jessica Kingsley Publishers,,true,5,707391,22,37,11,1,1999/1/1,Discovering My Autism: Apologia Pro Vita Sua (with Apologies to Cardinal Newman),book,3,3,1,3,1,3.36,128,ebook,,0,0,Edgar Schneider,,,,,,8,0,,"biography-memoir,memoir,non-fiction,psychology"
16437501,6613428671,Varieties of English Vol: 1: The British Isles,9786613428677,,,,ES,2008/12/10,Mouton de Gruyter,,true,2,16437501,2,0,0,0,2008/12/10,,,0,0,0,0,0,0.00,512,ebook,,0,0,,,,"Bernd Kortmann,Clive Upton",,,2,0,,"essays,language,non-fiction"
16438001,661361100X,The Science of Sound Recording,9786613611000,,,,ES,2012/2/22,Focal Press,,true,10,16786777,13,7,2,0,2012/1/1,,,0,1,1,0,0,3.50,250,ebook,,0,0,Jay Kadis,,,,,,7,0,,reference
16438501,6613798916,C. Henry Kempe: 50 Year Legacy to the Field of Child Abuse and Neglect,9786613798916,,,,ES,2012/1/1,Springer,,true,3,22960182,0,0,0,0,2012/1/1,,book,0,0,0,0,0,0.00,275,ebook,,0,0,"Jill E. Korbin,Richard D. Krugman",,,,,,,0,,
16439001,6613803944,Potential Output and Total Factor Productivity Growth in Post-Apartheid South Africa,9786613803948,,,,ES,2003/9/1,Not Avail,,true,2,16439001,0,0,0,0,2003/9/1,,,0,0,0,0,0,0.00,44,ebook,,0,0,Ashok Bhundia,,,,,,,0,,
16439501,0203079280,The European Court of Human Rights in the Post-Cold War Era: Universality in Transition,9780203079287,,,,ES,2012/11/1,Routledge,,true,8,13712491,3,0,0,0,2012/7/27,,,0,0,0,0,0,0.00,289,ebook,,0,0,James A. Sweeney,,,,,,2,0,,
16440001,0759119864,Children During the Holocaust,9780759119864,,,,ES,2011/5/31,Altamira Press,,true,5,12474336,78,45,11,2,2011/5/31,,,6,2,2,0,1,4.09,556,ebook,,0,0,Patricia Heberer,,,,,,55,4,,non-fiction
16440501,0819572861,"A History of the Eclectic Society of Phi NU Theta, 1837-1970",9780819572868,,,,ES,2011/9/1,Wesleyan,,true,2,16987120,0,0,0,0,2011/9/1,,,0,0,0,0,0,0.00,208,ebook,,0,0,William B. Moody,,,,,,,0,,
16441001,0985114185,The Caliphate,9780985114183,,,,ES,2013/2/1,"D Street Books, a Division of Mountain Lake Press",,true,5,23004678,15,51,14,0,2012/3/10,,,4,5,1,4,0,3.64,445,ebook,,0,0,André Le Gallo,,,,,,,0,,
16441501,1118103777,Mwh's Water Treatment: Principles and Design,9781118103777,,,,ES,2012/6/14,Wiley,,true,5,16441501,2,0,0,0,2012/4/3,,,0,0,0,0,0,0.00,1920,ebook,,0,0,"David W. Hand,George Tchobanoglous,John C. Crittenden,Kerry J. Howe,R. Rhodes Trussell",,,,,,1,0,,
16442001,1136316884,Leadership in the Public Sector: Promises and Pitfalls,9781136316883,,,,ES,2013/5/2,Routledge,,true,9,16442001,2,0,0,0,2012/5/22,,,0,0,0,0,0,0.00,262,ebook,,0,0,,,,"Christine Teelken,Ewan Ferlie,Mike Dent",,,1,0,1,
16442501,1402223145,"My Lord John: A Tale of Intrigue, Honor and the Rise of a King",9781402223143,,,,ES,2009/5/1,Sourcebooks Landmark,,true,19,311205,2289,3436,1087,67,1975/1/1,My Lord John,book,148,251,401,202,85,3.16,464,ebook,,1,0,Georgette Heyer,,,,,,888,15,45,"cultural,fiction,historical,historical-fiction,history,medieval,regency,romance"
16443001,1426726740,My Devotional Companion 2010-11: 52 Devotions for Individuals and Groups,9781426726743,,,,ES,2010/9/1,Abingdon Press,,true,3,17814577,0,0,0,0,2010/9/1,,,0,0,0,0,0,0.00,,ebook,,0,0,Jeffrey Rasche,,,,,,,0,,
16443501,1455225479,Financial Policies and Capital Markets in Arab Countries,9781455225477,,,,ES,1994/9/1,International Monetary Fund,,true,1,16443501,0,0,0,0,1994/9/15,,,0,0,0,0,0,0.00,110,ebook,,0,0,Sa D El-Naggar,,,,,,,0,,
16444001,1456606263,Phase 3 Hcg Diet: Successful Stabilization Plan Revealed,9781456606268,,,,ES,2013/2/21,Ebookit.com,,true,1,16444001,0,0,0,0,2012/7/23,,,0,0,0,0,0,0.00,54,ebook,,0,0,"Candice Ekberg,Sonia E Russell",,,,,,,0,,
16444501,1468301853,Phantoms on the Bookshelves,9781468301854,,,,ES,2012/7/5,The Overlook Press,,true,24,9527900,2806,2712,749,147,2008/1/1,Des bibliothèques pleines de fantômes,book,135,293,235,74,12,3.62,144,ebook,,0,0,Jacques Bonnet,,,,,,1833,29,18,"art,biography,biography-memoir,essays,fiction,france,literature,memoir,non-fiction,philosophy,reference,writing"
16445001,1596698144,The Nehemiah Factor: 16 Characteristics of a Missional Leader,9781596698147,,,,ES,2011/6/1,New Hope Publishers (AL),,true,5,21279339,17,21,5,0,2011/6/1,,,2,2,1,0,0,4.20,224,ebook,,0,0,Frank S. Page,,,,,,8,0,1,"christian,leadership,non-fiction"
16445501,1617498513,Baseball Gold: Mining Nuggets from Our National Pastime,9781617498510,,,,ES,2007/4/1,Triumph Books (IL),,true,5,821313,22,31,9,1,2007/1/1,Baseball Gold: Mining Nuggets from Our National Pastime,,2,3,2,1,1,3.44,416,ebook,,0,0,Dan Schlossberg,,Milo Hamilton,,,,7,0,,
16446001,1780800215,Obsession,9781780800219,,,,ES,2013/6/1,Chimera Books,,true,8,6078905,6,18,6,1,1996/1/18,Obsession,,1,1,2,1,1,3.00,309,ebook,,0,0,Cathryn Cooper,,,,,,1,0,,
16446501,1781660972,Lapiz Lazuli: The Leigh Clark Collection,9781781660973,,,,ES,2012/4/1,House of Erotica,,true,1,16446501,1,0,0,0,2012/4/4,,,0,0,0,0,0,0.00,58,ebook,,0,0,Leigh Clark,,,,,,,0,,
16447001,1781669511,The Uprising of a Great People,9781781669518,,,,ES,2012/6/22,Auk Academic,,true,26,7198550,3,10,3,0,1861/1/1,Un grand peuple qui se relève,book,0,1,2,0,0,3.33,178,ebook,,0,0,Agénor De Gasparin,,,,,,,0,,history
16447501,1849892644,Richard Wagner: A Short Biography,9781849892643,,,,ES,2010/12/28,Auk Academic,eng,true,8,14300738,14,6,2,0,2005/1/1,,book,0,0,2,0,0,3.00,88,ebook,,0,0,John F. Runciman,,,,,,11,0,1,"amazon,music"
16448001,1902604776,Ben Goes to the Dentist,9781902604770,,,,ES,2011/12/16,Tiberius Publishing Ltd,,true,3,16448000,0,0,0,0,2011/12/15,,book,0,0,0,0,0,0.00,29,ebook,,0,0,Keith W. Harvey,,,,,,,0,,
16448501,1908382821,The Britney Spears Quiz Book: 100 Questions on the Pop Star,9781908382825,,,,ES,2011/6/1,Apex Publishing,,true,4,16994661,2,0,0,0,2011/6/1,,,0,0,0,0,0,0.00,19,ebook,,0,0,Chris Cowlin,,,,,,2,0,,
16449001,1933810874,"Karen Brown's England, Wales & Scotland: Exceptional Places to Stay & Itineraries",9781933810874,,,,ES,2013/2/24,"Karen Brown's Guides, Inc.",,true,17,7776012,32,87,21,2,1993/1/1,,book,10,6,4,0,1,4.14,183,ebook,,0,0,"June Eveleigh Brown,Karen Brown",,,,,,6,1,,"reference,travel"
16449501,5510536160,Myotis Alcathoe,9785510536164,,,,ES,2013/1/11,Book on Demand Ltd.,,false,1,16449501,0,0,0,0,2012/5/20,,,0,0,0,0,0,0.00,162,Paperback,,0,0,"Jesse Russell,Ronald Cohn",,,,,,,0,,
16450001,5510545569,Charles Stewart (Canadian Politician),9785510545562,,,,ES,2013/1/13,Book on Demand Ltd.,,false,1,16450001,0,0,0,0,2012/1/28,,,0,0,0,0,0,0.00,130,Paperback,,0,0,"Jesse Russell,Ronald Cohn",,,,,,,0,,
16450501,5510702273,Diprotodon,9785510702279,,,,ES,2013/1/25,Book on Demand Ltd.,,false,1,16450501,0,0,0,0,2012/3/5,,,0,0,0,0,0,0.00,96,Paperback,,0,0,"Jesse Russell,Ronald Cohn",,,,,,,0,,
16451001,5510761903,"Colin Sharman, Baron Sharman",9785510761900,,,,ES,2013/1/3,Book on Demand Ltd.,,false,1,16451001,0,0,0,0,2012/5/20,,,0,0,0,0,0,0.00,114,Paperback,,0,0,"Jesse Russell,Ronald Cohn",,,,,,,0,,
16451501,5510772093,Howrah (Ship),9785510772098,,,,ES,2013/1/20,Book on Demand Ltd.,,false,1,16451501,0,0,0,0,2012/3/4,,,0,0,0,0,0,0.00,82,Paperback,,0,0,"Jesse Russell,Ronald Cohn",,,,,,,0,,
16452001,5510782234,Cazzie Russell,9785510782233,,,,ES,2013/1/13,Book on Demand Ltd.,,false,1,16452001,0,0,0,0,2012/3/15,,,0,0,0,0,0,0.00,128,Paperback,,0,0,"Jesse Russell,Ronald Cohn",,,,,,,0,,
16452501,5510793236,Immaculate Conception Cathedral of Hangzhou,9785510793239,,,,ES,2013/1/21,Book on Demand Ltd.,,false,1,16452501,0,0,0,0,2012/4/13,,,0,0,0,0,0,0.00,130,Paperback,,0,0,"Jesse Russell,Ronald Cohn",,,,,,,0,,
16453001,551080484X,Baron Geddes,9785510804843,,,,ES,2013/1/25,Book on Demand Ltd.,,false,1,16453001,0,0,0,0,2012/4/30,,,0,0,0,0,0,0.00,216,Paperback,,0,0,"Jesse Russell,Ronald Cohn",,,,,,,0,,
16453501,5510816163,Jamming (Physics),9785510816167,,,,ES,2013/1/11,Book on Demand Ltd.,,false,1,16453501,0,0,0,0,2012/6/10,,,0,0,0,0,0,0.00,104,Paperback,,0,0,"Jesse Russell,Ronald Cohn",,,,,,,0,,
16454001,5510828315,Larry LaLonde,9785510828313,,,,ES,2013/1/9,Book on Demand Ltd.,,false,1,16454001,1,5,1,1,2012/4/4,,,1,0,0,0,0,5.00,150,Paperback,,1,1,"Jesse Russell,Ronald Cohn",,,,,,1,0,,
16454501,5510839414,"Concord, California",9785510839418,,,,ES,2013/1/13,Book on Demand Ltd.,,false,1,16454501,0,0,0,0,2012/2/2,,,0,0,0,0,0,0.00,128,Paperback,,0,0,"Jesse Russell,Ronald Cohn",,,,,,,0,,
16455001,5510846925,Jimmy Carr,9785510846928,,,,ES,2013/1/18,Book on Demand Ltd.,,false,1,16455001,3,5,1,0,2012/6/20,,,1,0,0,0,0,5.00,90,Paperback,,1,0,"Jesse Russell,Ronald Cohn",,,,,,2,0,,
16455501,5510854219,Francois Simiand,9785510854213,,,,ES,2013/1/26,Book on Demand Ltd.,,false,1,16455501,0,0,0,0,2012/4/17,,,0,0,0,0,0,0.00,86,Paperback,,0,0,"Jesse Russell,Ronald Cohn",,,,,,,0,,
16456001,5510861967,Kroq-FM,9785510861969,,,,ES,2013/1/6,Book on Demand Ltd.,,false,1,16456001,0,0,0,0,2012/7/10,,,0,0,0,0,0,0.00,178,Paperback,,0,0,"Jesse Russell,Ronald Cohn",,,,,,,0,,
16456501,5510869739,Charles S. Howard,9785510869736,,,,ES,2013/1/5,Book on Demand Ltd.,,false,1,16456501,0,0,0,0,2012/2/1,,,0,0,0,0,0,0.00,92,Paperback,,0,0,"Jesse Russell,Ronald Cohn",,,,,,,0,,
16457001,551087726X,Car Chase,9785510877267,,,,ES,2013/1/14,Book on Demand Ltd.,,false,1,16457001,0,0,0,0,2012/5/27,,,0,0,0,0,0,0.00,132,Paperback,,0,0,"Jesse Russell,Ronald Cohn",,,,,,,0,,
16457501,9789020205,ZIN,,,,,ES,2011/1/1,AnkhHermes,nl,false,1,16457501,74,131,33,3,2001/1/1,,book,8,16,9,0,0,3.97,141,Paperback,,33,3,Geertje Couwenbergh,,,,,,30,4,6,"non-fiction,personal-development,spirituality"
16458001,,"Stars, Love And Pirouettes (Dance ‘n’ Luv #3)",,B00AKI2B0O,,,ES,2012/12/6,"Amazon Digital Services, Inc.",eng,true,3,40383267,254,223,65,11,2012/12/6,,book,13,15,25,11,1,3.43,,Kindle Edition,,64,11,"Alicia Street,Roy Street",,,,,,152,16,2,"chick-lit,contemporary,fiction,humor,novella,romance"
16458501,6613583332,By Degrees: The First Year - From Care to University,9786613583338,,,,ES,2003/1/1,Not Avail,,true,4,23107028,0,0,0,0,2003/1/1,,book,0,0,0,0,0,0.00,,ebook,,0,0,"Sarah Quigley Ajayi,Sonia Jackson",,,,,,,0,,
16459001,6613600571,"Ridicule, Religion and the Politics of Wit in Augustan England",9786613600578,,,,ES,2012/4/1,Ashgate Publishing,,true,5,16785872,0,0,0,0,2012/4/1,,,0,0,0,0,0,0.00,259,ebook,,0,0,Roger D. Lund,,,,,,,0,,
16459501,6613808083,Flowering Plants,9786613808080,,,,ES,1980/1/21,Not Avail,,true,1,16459501,0,0,0,0,1980/1/21,,,0,0,0,0,0,0.00,306,ebook,,0,0,Robert H. Mohlenbrock,,,,,,,0,,
16460001,6613813508,Using Quality Benchmarks for Assessing and Developing Undergraduate Programs,9786613813503,,,,ES,2010/12/16,Jossey-Bass,,true,7,8216815,6,15,4,0,2010/1/1,,,0,3,1,0,0,3.75,386,ebook,,0,0,"Dana S. Dunn,Jane S. Halonen,Maureen A. McCarthy,Suzanne C. Baker",,,,,,1,0,,"education,research"
16460501,0203025024,Shared Care for Diabetes,9780203025024,,,,ES,1997/4/1,Taylor & Francis Group,,true,1,16460501,0,0,0,0,1997/4/1,,,0,0,0,0,0,0.00,289,ebook,,0,0,Wendy Gatling,,,,,,,0,,
16461001,0203314638,Diaries and Papers of Kenneth G. Younger,9780203314630,,,,ES,2004/10/1,Routledge,,true,6,17523722,0,0,0,0,2004/8/2,,,0,0,0,0,0,0.00,,ebook,,0,0,,,,Geoffrey Warner,,,,0,,
16461501,020349654X,Shaping the Current Islamic Reformation,9780203496541,,,,ES,2003/7/1,Routledge,,true,8,164898,7,0,0,0,2003/1/1,Shaping the Current Islamic Reformation (Cass Series--History and Society in the Islamic World.),book,0,0,0,0,0,0.00,262,ebook,,0,0,B.A. Roberson,,,,,,5,0,,
16462001,0203986032,Shakespeare and the Uses of Antiquity: An Introductory Essay,9780203986035,,,,ES,1994/3/3,Routledge,,true,6,17015774,6,6,2,0,1994/3/3,,,0,0,2,0,0,3.00,241,ebook,,0,0,Michelle Martindale,,,,,,4,0,,"non-fiction,school,theatre"
16462501,0470123648,Advances in Enzymology and Related Areas of Molecular Biology,9780470123645,,,,ES,2009/9/10,Wiley-Interscience,,true,274,16919279,139,0,0,0,1944/1/15,,,0,0,0,0,0,0.00,399,ebook,,0,0,,,,Alton Meister,,,51,0,49,
16463001,0470260750,3ds Max at a Glance,9780470260753,,,,ES,2008/3/31,Sybex,,true,1,16463001,1,5,1,0,2008/2/26,,,1,0,0,0,0,5.00,256,ebook,,1,0,"David L. Cannon,George Maestri",,,,,,,0,,
16463501,0470381590,Wireless Broadband: Conflict and Convergence,9780470381595,,,,ES,2009/3/27,Wiley-IEEE Press,,true,3,16908203,2,0,0,0,2009/3/27,,,0,0,0,0,0,0.00,300,ebook,,0,0,"Chetan Sharma,Vern Fotheringham",,,,,,1,0,,
16464001,0470434546,Bayesian Modeling Using Winbugs,9780470434543,,,,ES,2009/2/23,Wiley,,true,5,6503548,17,44,12,0,2009/2/3,Bayesian Modeling Using WinBUGS (Wiley Series in Computational Statistics),,3,4,4,0,1,3.67,520,ebook,,0,0,Ioannis Ntzoufras,,,,,,4,0,,technology
16464501,0470498439,Illuminate: Harnessing the Positive Power of Negative Thinking,9780470498439,,,,ES,2009/7/30,Wiley,,true,9,6282322,50,49,12,2,2009/7/28,Illuminate: Creating Breakthrough Results Using the Positive Power of Negative Thinking,,5,3,4,0,0,4.08,216,ebook,,0,0,David M. Corbin,,,,,,30,1,,"business,philosophy"
16465001,0470564628,Getting Started in Security Analysis,9780470564622,,,,ES,2009/10/30,Wiley,,true,8,1360500,18,13,3,0,2008/4/21,Getting Started in Security Analysis,,1,2,0,0,0,4.33,336,ebook,,0,0,"Brian R. Iammartino,Peter J. Klein",,,,,,9,0,,
16465501,0470610328,"Mechanical Vibration and Shock Analysis, Sinusoidal Vibration",9780470610329,,,,ES,2010/1/5,Wiley-Iste,,true,12,16465501,7,5,1,0,2002/1/1,,,1,0,0,0,0,5.00,416,ebook,,1,0,Christian Lalanne,,,,,,4,0,,
16466001,0470651407,Transmission Lines in Digital and Analog Electronic Systems: Signal Integrity and CrossTalk,9780470651407,,,,ES,2011/1/31,Wiley,,true,7,9779645,9,15,4,0,2010/9/7,,,1,1,2,0,0,3.75,312,ebook,,0,0,Clayton R. Paul,,,,,,6,0,,
16466501,0470909889,Advances in Bioceramics and Biotechnologies,9780470909881,,,,ES,2010/9/29,Wiley-American Ceramic Society,,true,5,16466501,0,0,0,0,2010/8/2,,,0,0,0,0,0,0.00,244,ebook,,0,0,"Joanna McKittrick,Mrityunjay Singh",,,Roger Narayan,,,,0,,
16467001,0470949945,Condensed Matter Physics,9780470949948,,,,ES,2010/11/17,Wiley,,true,10,1748792,35,34,11,0,2000/1/27,Condensed Matter Physics,,1,2,5,3,0,3.09,984,ebook,,0,0,Michael P. Marder,,,,,,10,0,3,"academic,collections,textbooks"
16467501,0520919092,The Feminine Sublime: Gender and Excess in Women's Fiction,9780520919099,,,,ES,1997/4/1,University of California Press,,true,3,472509,27,37,11,2,1995/7/1,The Feminine Sublime: Gender and Excess  in Women's Fiction,,2,3,3,3,0,3.36,205,ebook,,0,0,Barbara Claire Freeman,,,,,,11,1,1,
16468001,0674056469,Pensions in the Health and Retirement Study,9780674056466,,,,ES,2010/5/1,Harvard University Press,,true,2,8622729,0,0,0,0,2010/5/1,,,0,0,0,0,0,0.00,400,ebook,,0,0,"Alan L. Gustman,Nahid Tabatabai,Thomas L. Steinmeier",,,,,,,0,,
16468501,0782151833,Ccsp: Securing Cisco IOS Networks Study Guide: Exam 642-501 (Secur),9780782151831,,,,ES,2006/2/20,Sybex,,true,6,2655002,12,14,4,0,2003/6/10,CCSP: Securing Cisco IOS Networks Study Guide (642-501),,1,0,3,0,0,3.50,434,ebook,,0,0,"Carl Timm,Todd Lammle",,,,,,8,0,,
16469001,0812207734,"Foreign Aid Allocation, Governance, and Economic Growth",9780812207736,,,,ES,2012/5/22,International Food Policy Research Insitute,,true,2,16469001,1,0,0,0,2012/5/22,,,0,0,0,0,0,0.00,184,ebook,,0,0,Kamiljon T. Akramov,,,,,,1,0,,
16469501,1118005244,Photoshop Elements 9 All-In-One for Dummies,9781118005248,,,,ES,2010/10/26,For Dummies,,true,8,9326230,35,59,16,0,2010/10/26,,book,6,3,4,2,1,3.69,672,ebook,,0,0,"Barbara Obermeier,Ted Padova",,,,,,13,0,1,"reference,technology"
16470001,1118033396,Frommer's the Carolinas & Georgia,9781118033395,,,,ES,2011/3/1,Frommer's,eng,true,20,1489069,39,71,20,0,1996/11/1,Frommer's The Carolinas & Georgia (Frommer's Complete),book,2,7,11,0,0,3.55,544,ebook,,0,0,"Danforth Prince,Darwin Porter",,,,,,5,2,,"language,non-fiction,reference,travel"
16470501,1118085809,Locavesting: The Revolution in Local Investing and How to Profit from It,9781118085806,,,,ES,2011/5/4,Wiley,,true,7,10644887,419,519,137,25,2011/5/4,,,26,67,34,9,1,3.79,240,ebook,,0,0,Amy Cortese,,,,,,241,3,13,"american,business,economics,food,non-fiction,sociology"
16471001,1118119096,The Intuitive Compass: Why the Best Decisions Balance Reason and Instinct,9781118119099,,,,ES,2011/9/2,Jossey-Bass,,true,6,11973650,119,75,20,3,2011/9/2,,,3,11,4,2,0,3.75,288,ebook,,0,0,Francis Cholle,,,,,,80,4,10,"psychology,science,self-help"
16471501,111815522X,Maintaining Team Performance,9781118155226,,,,ES,2011/8/17,Pfeiffer,,true,3,16345691,0,0,0,0,2011/8/17,,,0,0,0,0,0,0.00,36,ebook,,0,0,"Center for Creative Leadership,Henry Browning,Kim Kanaga",,,,,,,0,,
16472001,111817688X,"The Marketing Agency Blueprint: The Handbook for Building Hybrid Pr, Seo, Content, Advertising, and Web Firms",9781118176887,,,,ES,2011/11/29,Wiley,,true,4,16647865,0,0,0,0,2011/11/16,,,0,0,0,0,0,0.00,256,ebook,,0,0,Paul Roetzer,,,,,,,0,,
16472501,1118201744,Eastern Oregon: Frommer's Shortcuts,9781118201749,,,,ES,2012/4/12,Frommer's,,true,3,16346638,0,0,0,0,2012/4/4,,,0,0,0,0,0,0.00,68,ebook,,0,0,Frommer's,,,,,,,0,,
16473001,1118224337,The Indomitable Investor: Why a Few Succeed in the Stock Market When Everyone Else Fails,9781118224335,,,,ES,2012/3/7,Wiley,,true,9,13634703,264,471,125,10,2012/1/1,,book,37,39,34,13,2,3.77,256,ebook,,0,0,Steven M. Sears,,,,,,92,1,21,"business,economics,non-fiction"
16473501,111824222X,"Effective Writing in Psychology: Papers, Posters, and Presentations",9781118242223,,,,ES,2012/3/22,Wiley-Blackwell,,true,14,13720133,63,101,32,3,2008/3/14,,,4,7,13,6,2,3.16,312,ebook,,0,0,"Agatha M. Beins,Bernard C. Beins",,,,,,12,3,6,"psychology,textbooks"
16474001,1118329414,Aquaculture Pond Fertilization: Impacts of Nutrient Input on Production,9781118329412,,,,ES,2012/4/12,Wiley-Blackwell,,true,6,16794212,2,0,0,0,2012/3/30,,,0,0,0,0,0,0.00,308,ebook,,0,0,,,,Charles C. Mischke,,,2,0,,
16474501,1118516958,Fundamental Analysis and Position Trading: Evolution of a Trader,9781118516959,,,,ES,2012/12/10,Wiley,,true,9,15869198,71,44,11,0,2012/12/10,,,4,4,2,1,0,4.00,320,ebook,,0,0,Thomas N. Bulkowski,,,,,,46,2,5,business
16475001,1422291715,Adrián Beltré,9781422291719,,,,ES,2014/9/29,Mason Crest,,true,3,16475001,1,5,1,1,2012/8/1,,book,1,0,0,0,0,5.00,32,ebook,,1,1,Tania Rodríguez González,,,,,,,0,,college
16475501,1565494113,Advancing Nonprofit Stewardship Through Self-Regulation: Translating Principles Into Practice,9781565494114,,,,ES,2012/3/1,Kumarian Press,,true,3,10311333,5,10,2,2,2011/5/1,,,2,0,0,0,0,5.00,120,ebook,,0,0,Christopher Corbett,,,,,,2,0,,
16476001,1609364899,"Love Finds You in Sunset Beach, Hawaii",9781609364892,,,,ES,2014/5/14,Summerside,,true,5,11349281,1964,3963,922,90,2011/10/1,,book,471,285,141,20,5,4.30,321,ebook,,0,0,Robin Jones Gunn,,,,,,354,21,14,"adult-fiction,chick-lit,christian,christian-fiction,contemporary,fiction,historical-fiction,romance,young-adult"
16476501,1849776814,Crop Genetic Resources as a Global Commons: Challenges in International Law and Governance,9781849776813,,,,ES,2013/1/1,Routledge,,false,6,17121692,0,0,0,0,2012/6/30,,,0,0,0,0,0,0.00,,Unknown Binding,,0,0,,,Michael Halewood,,,,,0,,
16477001,3035300658,Community Politics and the Peace Process in Contemporary Northern Irish Drama,9783035300659,,,,ES,2011/3/3,"Peter Lang Gmbh, Internationaler Verlag Der Wissenschaften",,true,3,18536512,2,4,1,0,2010/12/2,,,0,1,0,0,0,4.00,303,ebook,,0,0,Eva Urban,,,,,,1,0,,"academic,drama,theatre"
16477501,3527644652,"Lithium Ion Rechargeable Batteries: Materials, Technology, and New Applications",9783527644650,,,,ES,2012/1/9,Wiley-Vch,,true,4,16477501,0,0,0,0,2009/1/1,,,0,0,0,0,0,0.00,350,ebook,,0,0,,,,Kazunori Ozawa,,,,0,,
16478001,5510883588,Craigievar Castle,9785510883589,,,,ES,2013/1/19,Book on Demand Ltd.,,false,1,16478001,1,0,0,0,2012/7/19,,,0,0,0,0,0,0.00,90,Paperback,,0,0,"Jesse Russell,Ronald Cohn",,,,,,1,0,,
16478501,5510890908,Lyme Regis,9785510890907,,,,ES,2012/3/26,Book on Demand Ltd.,,false,1,16478501,0,0,0,0,2012/3/26,,,0,0,0,0,0,0.00,96,Paperback,,0,0,"Jesse Russell,Ronald Cohn",,,,,,,0,,
16479001,5510922206,Diamond Bessie,9785510922202,,,,ES,2013/1/4,Book on Demand Ltd.,,false,1,16479001,0,0,0,0,2012/4/12,,,0,0,0,0,0,0.00,92,Paperback,,0,0,,,,"Jesse Russell,Ronald Cohn",,,,0,,
16479501,,Navigating Disaster: Sixteen Essays and a Poem of Despair,978094083344,,,,ES,2012/9/1,,eng,false,2,16479501,26,61,13,2,2012/9/1,Navigating Disaster: Sixteen Essays and a Poem of Despair,book,9,4,0,0,0,4.69,146,Paperback,,12,2,Sheryl St. Germain,,,,,,9,1,1,"essays,memoir,nature"
16480001,,With Love at Christmas,,B00A0SQEPW,,,ES,2012/10/31,Carole Matthews,,true,15,15783224,4145,7367,1774,167,2012/1/1,With love at Christmas,book,820,537,319,64,34,4.15,465,Kindle Edition,,6,0,Carole Matthews,,,,,,1484,39,24,"adult,adult-fiction,chick-lit,christmas,contemporary,fiction,holiday,romance"
16480501,0769228054,"Band Today, Part 1: Baritone (B.C.)",9780769228051,,,,ES,1985/3/1,Alfred Music,,false,1,16480501,0,0,0,0,1985/3/1,,,0,0,0,0,0,0.00,32,Paperback,,0,0,James D. Ployhar,,,,,,,0,,
16481001,0769265448,"Das Neugebor'ne Kindelein: Satb (German Language Edition), Full Score",9780769265445,,,,ES,1985/3/1,Alfred Music,,false,1,16481001,0,0,0,0,1985/3/1,,,0,0,0,0,0,0.00,24,Paperback,,0,0,,,,,,,,0,,
16481501,192119044,The Art of Appreciation (The Appreciation of the Arts #4),,,,,ES,1970/1/1,Oxford University Press,,false,1,16481501,6,7,2,0,1970/1/1,,book,0,1,1,0,0,3.50,296,Paperback,,2,0,Harold Osborne,,,,,,4,0,1,art
16482001,160978247X,Kaplan ACT English Tapdeck,9781609782474,,,,ES,2011/11/1,Kaplan Pre-College Test Prep,,true,1,16482001,0,0,0,0,2011/11/1,,,0,0,0,0,0,0.00,195,ebook,,0,0,Kaplan Inc.,,,,,,,0,,
16482501,6610023166,Evaluation of Library and Information Services,9786610023165,,,,ES,2000/1/7,Taylor & Francis Group,,true,8,10023437,2,0,0,0,2000/1/7,,,0,0,0,0,0,0.00,,ebook,,0,0,John Crawford,,,Sylvia P. Webb,,,1,0,,
16483001,6610036608,Roman Epic,9786610036608,,,,ES,1996/3/1,Taylor & Francis Group,,true,2,16747916,1,0,0,0,1996/3/1,,,0,0,0,0,0,0.00,,ebook,,0,0,,,,A.J. Boyle,,,,0,,
16483501,6610049920,Effective Learning and Teaching in Engineering,9786610049929,,,,ES,2004/8/26,Taylor & Francis Group,,true,3,16748765,0,0,0,0,2004/8/19,,,0,0,0,0,0,0.00,,ebook,,0,0,"Carol Baillie,Ivan Moore",,,,,,,0,,
16484001,6610055270,Women's Rights and Women's Lives in France 1944-1968,9786610055272,,,,ES,1994/4/28,Taylor & Francis Group,,true,7,10737605,3,0,0,0,1994/4/28,,,0,0,0,0,0,0.00,,ebook,,0,0,Claire Duchen,,,,,,2,0,,
16484501,661360254X,Plants We Wear,9786613602541,,,,ES,2008/8/1,Cherry Lake Publishing,,true,7,6846710,2,4,1,1,2008/1/1,,,0,1,0,0,0,4.00,28,ebook,,0,0,Pam Rosenberg,,,,,,,0,,
16485001,661382061X,Globalization and Income Inequality: A European Perspective,9786613820617,,,,ES,2007/7/1,Not Avail,,true,2,16925069,0,0,0,0,2007/7/1,,,0,0,0,0,0,0.00,17,ebook,,0,0,Thomas Harjes,,,,,,,0,,
16485501,661382576X,Oil and Growth in the Republic of Congo,9786613825766,,,,ES,2006/8/1,Not Avail,,true,2,16485501,1,0,0,0,2006/8/1,,,0,0,0,0,0,0.00,41,ebook,,0,0,Rina Bhattacharya,,,,,,1,0,,
16486001,6613830895,The Lender of Last Resort in the European Single Financial Market,9786613830890,,,,ES,2006/5/1,Not Avail,,true,1,16486001,0,0,0,0,2006/5/1,,,0,0,0,0,0,0.00,23,ebook,,0,0,Pedro Gustavo Teixeira,,,,,,,0,,
16486501,6613836826,Differentiating by Student Learning Preferences,9786613836823,,,,ES,2008/6/18,Eye on Education,,true,2,17004970,0,0,0,0,2008/6/18,,,0,0,0,0,0,0.00,185,ebook,,0,0,Joni Turville,,,,,,,0,,
16487001,6613841803,"Chora, Volume Six",9786613841803,,,,ES,2011/6/15,Not Avail,,true,4,11198765,3,5,1,0,2011/6/15,,,1,0,0,0,0,5.00,323,ebook,,0,0,,,,"Alberto Pérez-Gómez,Stephen Parcell",,,2,0,,
16487501,6613847232,A Better World for All: Progress Toward the International Development Goals,9786613847232,,,,ES,2000/6/26,Not Avail,,true,3,16443289,0,0,0,0,2000/6/26,,,0,0,0,0,0,0.00,28,ebook,,0,0,International Monetary Fund,,,,,,,0,,
16488001,6613852252,Developing Successful Diversity Mentoring Programmes: An International Casebook,9786613852250,,,,ES,2012/7/1,Not Avail,,true,5,14793839,2,0,0,0,2012/6/1,,book,0,0,0,0,0,0.00,258,ebook,,0,0,"David Clutterbuck,Kirsten M. Poulsen",,,,,,2,0,,
16488501,0203866010,"Sitte, Hegemann and the Metropolis: Modern Civic Art and International Exchanges",9780203866016,,,,ES,2009/6/1,Routledge,,true,4,17512125,0,0,0,0,2008/11/20,,,0,0,0,0,0,0.00,316,ebook,,0,0,Charles Bohl,,,,,,,0,,
16489001,0736949291,Seeing Yourself Through God's Eyes: A 31-Day Devotional,9780736949293,,,,ES,2012/10/1,Harvest House Publishers,,true,8,2536963,129,183,41,4,2008/9/1,Seeing Yourself Through God's Eyes: A 31-Day Devotional Guide,,27,6,8,0,0,4.46,176,ebook,,0,0,June Hunt,,,,,,42,1,14,christian
16489501,098560252X,Don't Fall Down! Fall Prevention 101 for Older Adults,9780985602529,,,,ES,2013/2/1,Fall Prevention Lady,,true,2,16489501,0,0,0,0,2012/8/10,,,0,0,0,0,0,0.00,70,ebook,,0,0,Kelly Ward,,,,,,,0,,
16490001,1118387317,Reflections of Prague: Journeys Through the 20th Century,9781118387313,,,,ES,2012/8/6,Wiley,,true,5,1186097,57,103,27,5,2006/5/18,Reflections of Prague: Journeys through the 20th century,,4,14,9,0,0,3.81,320,ebook,,0,0,Ivan Margolius,,,,,,23,0,,"autobiography,biography,memoir,non-fiction,religion,research,school"
16490501,1135868921,Roger Sessions: A Biography,9781135868925,,,,ES,2012/8/6,Routledge,,true,6,4560265,2,0,0,0,2007/12/1,Roger Sessions: A Biography,,0,0,0,0,0,0.00,464,ebook,,0,0,Andrea Olmstead,,,,,,1,0,,music
16491001,1139524887,Language Learning and Deafness,9781139524889,,,,ES,2012/8/15,Cambridge University Press,,true,3,9130700,5,5,1,0,1988/1/29,,,1,0,0,0,0,5.00,316,ebook,,0,0,,,,Michael Strong,,,1,0,,language
16491501,1410607607,"History Lessons: Teaching, Learning, and Testing in U.S. High School Classrooms",9781410607607,,,,ES,2003/5/13,Routledge,,true,4,17518885,0,0,0,0,2003/4/1,,,0,0,0,0,0,0.00,232,ebook,,0,0,S G Grant,,,,,,,0,,
16492001,1459241754,How to Ruin a Reputation,9781459241756,,,,ES,2012/10/1,Harlequin Historical,,true,16,13706765,512,710,201,23,2012/1/1,How to Ruin a Reputation,book,34,63,84,16,4,3.53,288,ebook,,1,0,Bronwyn Scott,,,,,,220,8,10,"fiction,harlequin,historical,historical-fiction,novels,regency,romance"
16492501,1607051273,Quick Diamond Quilts & Beyond: 12 Sparkling Projects - Beginner-Friendly Techniques,9781607051275,,,,ES,2010/11/5,C&T Publishing,,true,3,16492501,2,0,0,0,2010/2/1,,,0,0,0,0,0,0.00,112,ebook,,0,0,Jan Krentz,,,,,,,0,,
16493001,162029379X,Unforgettable,9781620293799,,,,ES,2012/4/1,Barbour Publishing,,true,3,1882639,56,49,14,0,2006/4/1,Unforgettable,book,3,4,5,1,1,3.50,176,ebook,,0,0,Janet Lee Barton,,,,,,34,1,,
16493501,1932181768,"The Awakened Leader: One Simple Leadership Style That Works Every Time, Everywhere",9781932181760,,,,ES,2007/5/28,Personhood Press,,true,7,261451,14,20,5,1,2007/5/28,"The Awakened Leader: One Simple Leadership Style That Works Every Time, Everywhere",,3,1,0,0,1,4.00,256,ebook,,0,0,Joan Marques,,,,,,8,0,,non-fiction
16494001,5510706422,Buffalo and Erie County Historical Society,9785510706420,,,,ES,2013/1/22,Book on Demand Ltd.,,false,1,16494001,0,0,0,0,2012/5/10,,,0,0,0,0,0,0.00,88,Paperback,,0,0,"Jesse Russell,Ronald Cohn",,,,,,,0,,
16494501,5510717513,Karur,9785510717518,,,,ES,2013/1/8,Book on Demand Ltd.,,false,1,16494501,1,0,0,0,2012/6/1,,,0,0,0,0,0,0.00,98,Paperback,,0,0,"Jesse Russell,Ronald Cohn",,,,,,1,0,,
16495001,5510727632,Bill Bailey,9785510727630,,,,ES,2013/1/15,Book on Demand Ltd.,,false,1,16495001,0,0,0,0,2012/4/19,,,0,0,0,0,0,0.00,92,Paperback,,0,0,"Jesse Russell,Ronald Cohn",,,,,,,0,,
16495501,5511050601,Malheur River,9785511050607,,,,ES,2013/1/5,Book on Demand Ltd.,,false,1,16495501,99,0,0,0,2012/2/28,,,0,0,0,0,0,0.00,144,Paperback,,0,0,,,,"Jesse Russell,Ronald Cohn",,,34,0,28,
16496001,5511066508,John A. Quitman,9785511066509,,,,ES,2013/1/21,Book on Demand Ltd.,,false,1,16496001,0,0,0,0,2012/6/10,,,0,0,0,0,0,0.00,122,Paperback,,0,0,,,,"Jesse Russell,Ronald Cohn",,,,0,,
16496501,5511083739,Occult,9785511083735,,,,ES,2013/1/16,Book on Demand Ltd.,,false,1,16496501,3,4,1,0,2012/4/6,,,0,1,0,0,0,4.00,86,Paperback,,1,0,,,,"Jesse Russell,Ronald Cohn",,,3,0,,
16497001,5511104620,Nanking (Film),9785511104621,,,,ES,2013/1/28,Book on Demand Ltd.,,false,1,16497001,0,0,0,0,2012/6/20,,,0,0,0,0,0,0.00,126,Paperback,,0,0,,,,"Jesse Russell,Ronald Cohn",,,,0,,
16497501,5511120588,Paul Sauve,9785511120584,,,,ES,2013/1/17,Book on Demand Ltd.,,false,1,16497501,0,0,0,0,2012/6/7,,,0,0,0,0,0,0.00,138,Paperback,,0,0,,,,"Jesse Russell,Ronald Cohn",,,,0,,
16498001,5511916897,Lake District,9785511916897,,,,ES,2013/1/12,Book on Demand Ltd.,,false,1,16498001,0,0,0,0,2012/5/9,,,0,0,0,0,0,0.00,122,Paperback,,0,0,,,,"Jesse Russell,Ronald Cohn",,,,0,,
16498501,6610057389,Land and Economy in Ancient Palestine,9786610057382,,,,ES,1997/5/8,Taylor & Francis Group,,true,10,6118715,5,8,2,0,1997/5/8,Land and Economy In Ancient Palestine,,0,2,0,0,0,4.00,,ebook,,0,0,Jack Pastor,,,,,,2,1,,
16499001,6610064008,English in Urban Classrooms: A Multimodal Perspective on Teaching and Learning,9786610064007,,,,ES,2004/12/11,Taylor & Francis Group,,true,4,212591,11,16,4,1,2004/1/1,English in Urban Classrooms: A Multimodal Perspective on Teaching and Learning,,1,2,1,0,0,4.00,,ebook,,0,0,"Anton Franks,Carey Jewitt,Euan Reid,Gunther Kress,Jill Bourne,John Hardcastle,Ken Jones",,,,,,6,0,,
16499501,661007075X,Effective Speaking: Communicating in Speech,9786610070756,,,,ES,1985/11/7,Taylor & Francis Group,,true,2,16750432,0,0,0,0,1985/11/7,,,0,0,0,0,0,0.00,,ebook,,0,0,C Turk,,,,,,,0,,
16500001,6610075824,The Development of China's Stock Market 1982-2002: Equity Politics and Market Institutions,9786610075829,,,,ES,2003/12/18,Taylor & Francis Group,,true,8,9931292,2,0,0,0,2003/12/18,,,0,0,0,0,0,0.00,,ebook,,0,0,Stephen Green,,,,,,,0,,
16500501,6610094942,Intravenous Immunoglobulin in Dermatology,9786610094943,,,,ES,2002/12/19,Taylor & Francis Group,,true,4,8201768,1,0,0,0,2002/12/19,,,0,0,0,0,0,0.00,,ebook,,0,0,,,,Stephen Jolles,,,1,0,,
16501001,6610102414,The Biology-Chemistry Interface: A Tribute to Koji Nakanishi,9786610102419,,,,ES,1999/7/22,Taylor & Francis Group,,true,6,22766001,1,0,0,0,1999/1/1,,,0,0,0,0,0,0.00,,ebook,,0,0,John K. Snyder,,,Raymond Cooper,,,1,0,,
16501501,6610107610,Pharmacoethics: A Problem-Based Approach,9786610107612,,,,ES,2003/4/29,Taylor & Francis Group,,true,4,3014767,1,0,0,0,2003/4/29,Pharmacoethics: A Problem-based Approach,,0,0,0,0,0,0.00,,ebook,,0,0,"David A. Gettman,Dean Arneson",,,,,,1,0,,
16502001,6610112800,HVAC Control in the New Millennium,9786610112807,,,,ES,2000/12/14,Taylor & Francis Group,,true,3,1504105,0,0,0,0,2000/12/14,HVAC Control in the New Millennium,,0,0,0,0,0,0.00,387,ebook,,0,0,Michael Frank Hordeski,,,,,,,0,,
16502501,6610139733,Currency Convertibility: The Gold Standard and Beyond,9786610139736,,,,ES,1996/5/16,Taylor & Francis Group,,true,4,16502501,0,0,0,0,1996/5/16,,,0,0,0,0,0,0.00,,ebook,,0,0,,,,Jorge Braga de Macedo,,,,0,,
16503001,6610146012,"Cultural Studies: Volume 10, Number 1, January 1996",9786610146017,,,,ES,1996/2/15,Taylor & Francis Group,,true,8,9847130,2,0,0,0,1996/1/1,,book,0,0,0,0,0,0.00,,ebook,,0,0,"Janice A. Radway,Lawrence Grossberg",,,,,,1,0,,
16503501,6610155674,"On the History of Economic Thought: British and American Economic Essays, Volume I",9786610155675,,,,ES,1992/11/5,Taylor & Francis Group,,true,1,16503501,0,0,0,0,1992/11/5,,,0,0,0,0,0,0.00,,ebook,,0,0,A.W. Bob Coats,,,,,,,0,,
16504001,6610167842,"Sandplay in Three Voices: Images, Relationships, the Numinous",9786610167845,,,,ES,2005/2/22,Taylor & Francis Group,,true,8,898226,18,24,6,0,2005/2/1,"Sandplay in Three Voices: Images, Relationships, the Numinous",,2,3,0,1,0,4.00,,ebook,,0,0,Kay Bradway,,,,,,10,0,,"psychology,school"
16504501,6610178615,Critical Thinking: A Concise Guide,9786610178612,,,,ES,2001/11/15,Taylor & Francis Group,,true,1,16504501,1,2,1,0,2001/11/15,,,0,0,0,1,0,2.00,,ebook,,1,0,"Gary Kemp,Tracy Bower",,,,,,,2,,philosophy
16505001,6610198535,A World Beyond Difference,9786610198535,,,,ES,2004/10/20,Blackwell Publishers,,true,2,16757790,0,0,0,0,2004/10/20,,,0,0,0,0,0,0.00,,ebook,,0,0,Ronald Niezen,,,,,,,0,,
16505501,6610215847,"Applied Functional Analysis: Numerical Methods, Wavelet Methods, and Image Processing",9786610215843,,,,ES,2003/9/19,Taylor & Francis Group,,true,4,2047854,4,5,1,0,2003/9/19,,,1,0,0,0,0,5.00,,ebook,,0,0,A.H. Siddiqi,,,,,,1,0,,
16506001,6610232202,Network Security Technologies,9786610232208,,,,ES,2004/10/28,Taylor & Francis Group,,true,7,2818750,3,0,0,0,2003/12/17,Network Security Technologies,book,0,0,0,0,0,0.00,,ebook,,0,0,Kwok T. Fung,,,,,,,0,,
16506501,6610241279,"Liberation Ecologies: Environment, Developememt, Social Movements",9786610241279,,,,ES,2004/8/4,Taylor & Francis Group,,true,18,748628,117,146,36,4,1996/8/8,Liberation Ecologies,,12,15,8,1,0,4.06,,ebook,,0,0,,,,"Michael Watts,Richard Peet",,,57,0,8,anthropology
16507001,6610253978,Introduction to Hypoplasticity,9786610253975,,,,ES,2000/1/1,Taylor & Francis Group,,true,2,16761063,1,0,0,0,2000/1/1,,,0,0,0,0,0,0.00,,ebook,,0,0,D Kolymbas,,,,,,1,0,,
16507501,6610268339,Planing for Diversity: Policy and Planing in a World of Difference,9786610268337,,,,ES,2005/1/1,Taylor & Francis Group,,true,2,16761642,1,0,0,0,2005/1/1,,,0,0,0,0,0,0.00,,ebook,,0,0,Dory Reeves,,,,,,,0,1,
16508001,6610273871,Grief Dreams: How They Help Us Heal After the Death of a Loved One,9786610273874,,,,ES,2005/1/14,John Wiley & Sons,,true,2,16762080,5,11,3,0,2005/1/14,,,1,0,2,0,0,3.67,226,ebook,,0,0,"Ann Back Price,Tina Wray",,,,,,1,0,,
16508501,6610279543,"Learning Rants, Raves, and Reflections",9786610279548,,,,ES,2005/8/19,John Wiley & Sons,,true,1,16508501,0,0,0,0,2005/8/19,,,0,0,0,0,0,0.00,336,ebook,,0,0,Masie,,,Masie Elliott,,,,0,,
16509001,6610288356,Wrox's ASP.Net 2.0 Visual Web Developer 2005 Express Edition Starter Kit,9786610288359,,,,ES,2006/1/3,John Wiley & Sons,,true,4,468205,17,28,7,0,2006/1/1,Wrox's ASP.NET 2.0 Visual Web Developer 2005 Express Edition Starter Kit,,2,3,2,0,0,4.00,314,ebook,,0,0,"Alex Homer,David Sussman",,,,,,1,0,,"non-fiction,technology"
16509501,6610311803,The Credit Market Handbook: Advanced Modeling Issues,9786610311804,,,,ES,2006/2/2,John Wiley & Sons,,true,1,16509501,0,0,0,0,2006/2/2,,,0,0,0,0,0,0.00,254,ebook,,0,0,,,,Gifford Fong,,,,0,,
16510001,6610319871,Environmental Management and Governance: Intergovernmental Approaches to Hazards and Sustainability,9786610319879,,,,ES,1996/8/22,Taylor & Francis Group,,true,5,11191776,0,0,0,0,1996/1/28,,,0,0,0,0,0,0.00,,ebook,,0,0,Peter J. May,,,"D. Ingle Smith,Jennifer Dixon,John W. Handmer,Neil Ericksen,Raymond Burby,Sarah Michaels",,,,0,,
16510501,661032493X,Growing Up with Two Languages: A Practical Guide,9786610324934,,,,ES,1999/8/19,Taylor & Francis Group,,true,30,357808,161,270,75,11,1999/8/19,Growing Up with Two Languages: A Practical Guide,book,12,30,26,5,2,3.60,,ebook,,0,0,"Staffan Andersson,Una Cunningham-Andersson",,,,,,58,4,7,"adult,language,non-fiction,parenting,unfinished"
16511001,6610330042,Rethinking Geopolitics,9786610330041,,,,ES,1998/9/7,Taylor & Francis Group,,true,10,1413142,23,23,6,1,1998/7/9,Rethinking Geopolitics,,1,3,2,0,0,3.83,,ebook,,0,0,,,,"Geroid O Tuathail,Simon Dalby",,,12,0,,"academic,history,politics"
16511501,6610335133,Twentieth Century Actor Training,9786610335138,,,,ES,1999/12/23,Taylor & Francis Group,,true,12,1565322,80,133,34,2,1999/2/1,Twentieth Century Actor Training,,10,15,6,2,1,3.91,,ebook,,0,0,,,,Alison Hodge,,,26,0,2,"non-fiction,theatre"
16512001,6610342210,J.K. Lasser's Winning with Your 401(k),9786610342211,,,,ES,2002/7/1,John Wiley & Sons,,true,6,16768007,1,0,0,0,2001/7/2,,,0,0,0,0,0,0.00,289,ebook,,0,0,Grace W. Weinstein,,,,,,,0,,
16512501,6610348359,"GMP/ISO Quality Audit Manual for Healthcare Manufacturers and Their Suppliers: Volume 1, with Checklists and Software Package",9786610348350,,,,ES,2003/1/1,Informa Healthcare,,true,2,16512501,1,0,0,0,2003/1/1,,,0,0,0,0,0,0.00,448,ebook,,0,0,Leonard Steinborn,,,,,,,0,,
16513001,6610361983,A Companion to the Eighteenth-Century English Novel and Culture,9786610361984,,,,ES,2005/11/10,Blackwell Publishers,,true,3,900430,8,13,3,0,2005/6/1,A Companion to the Eighteenth-Century English Novel and Culture (Blackwell Companions to Literature and Culture),book,1,2,0,0,0,4.33,,ebook,,0,0,,,,"Catherine E. Ingrassia,Paula R. Backscheider",,,3,0,,
16513501,6610367213,Communication and Control in Electric Power Systems: Applications of Parallel and Distributed Processing,9786610367214,,,,ES,2004/7/26,John Wiley & Sons,,true,5,1473552,1,0,0,0,2003/6/19,,,0,0,0,0,0,0.00,557,ebook,,0,0,"Mohammad Shahidehpour,Wang Yaoyu",,,,,,1,0,,
16514001,6610403139,Questioning in the Primary School,9786610403134,,,,ES,2001/4/19,Taylor & Francis Group,,true,10,19836053,7,7,3,1,2001/4/19,,book,0,0,1,2,0,2.33,,ebook,,0,0,"E.C. Wragg,George Brown",,,,,,4,0,,
16514501,661040867X,Nonprofit Essentials: Major Gifts (Afp Fund Development Series),9786610408672,,,,ES,2006/1/1,John Wiley & Sons,,true,1,16514501,1,0,0,0,2006/1/1,,,0,0,0,0,0,0.00,240,ebook,,0,0,Julia Ingraham Walker,,,,,,1,0,,
16515001,6610448868,Simple Tools and Techniques for Enterprise Risk Management,9786610448869,,,,ES,2006/5/1,John Wiley & Sons,,true,2,16775606,2,0,0,0,2006/5/1,,,0,0,0,0,0,0.00,496,ebook,,0,0,R.J. Chapman,,,,,,1,0,,
16515501,661050363X,Principles and Practice of Criminalistics: The Profession of Forensic Science,9786610503636,,,,ES,2001/1/1,CRC Press,,true,6,356828,8,5,2,0,2000/8/29,Principles and Practice of Criminalistics: The Profession of Forensic Science (Protocols in Forensic Science),,0,0,1,1,0,2.50,393,ebook,,0,0,"Keith Inman,Norah Rudin",,,,,,3,0,,
16516001,6610518521,Laser Beam Shaping Applications,9786610518524,,,,ES,2006/1/1,CRC Press,,true,6,28755598,1,0,0,0,2005/7/26,,,0,0,0,0,0,0.00,367,ebook,,0,0,Fred M. Dickey,,,,,,,0,,
16516501,6610536805,Coding and Signal Processing for Magnetic Recording Systems,9786610536801,,,,ES,2005/1/1,CRC Press,,true,5,6917024,3,0,0,0,2004/1/1,,,0,0,0,0,0,0.00,741,ebook,,0,0,Bane Vasic,,,,,,2,0,,
16517001,6610549494,Russian Constitutionalism: Historical and Contemporary Development,9786610549498,,,,ES,2006/2/1,Taylor & Francis Group,,true,7,17482139,0,0,0,0,2006/2/1,,,0,0,0,0,0,0.00,,ebook,,0,0,Andrei Medushevsky,,,,,,,0,,
16517501,6610557047,Electric Power Systems: Analysis and Control,9786610557042,,,,ES,2003/2/7,John Wiley & Sons,,true,3,3415164,1,0,0,0,2003/2/7,,,0,0,0,0,0,0.00,744,ebook,,0,0,Fabio Saccomanno,,,,,,1,0,,
16518001,6610621829,Gems,9786610621828,,,,ES,2006/4/18,Elsevier Science & Technology,,true,1,16518001,0,0,0,0,2006/4/18,,,0,0,0,0,0,0.00,937,ebook,,0,0,,,,M O'Donoghue,,,,0,,
16518501,6610648972,Posttraumatic Stress Disorder. Wiley Concise Guides to Mental Health.,9786610648979,,,,ES,2006/1/1,John Wiley & Sons,,true,2,16518501,0,0,0,0,2006/1/1,,,0,0,0,0,0,0.00,398,ebook,,0,0,"Irving B. Weiner,Lynne Bairstow",,,,,,,0,,
16519001,6610654646,Service Oriented Architecture for Dummies,9786610654642,,,,ES,2007/1/1,John Wiley & Sons,,true,10,223926,157,192,57,5,2006/10/1,Service Oriented Architecture For Dummies (For Dummies (Computer/Tech)),,8,15,25,8,1,3.37,386,ebook,,0,0,Carol Baroudi,,,,,,57,2,7,"non-fiction,reference,school,science,technology"
16519501,6610731802,Media Bias in Reporting Social Research?: The Case of Reviewing Ethnic Inequalities in Education,9786610731800,,,,ES,2006/7/6,Taylor & Francis Group,,true,8,1991100,1,0,0,0,2006/7/6,Media Bias in Reporting Social Research? The case of Reviewing Ethnic Inequalities in Education (Routledge Advances in Sociology),,0,0,0,0,0,0.00,214,ebook,,0,0,Martyn Hammersley,,,,,,1,0,,
16520001,6610743347,Fatty Liver Disease: Nash and Related Disorders,9786610743346,,,,ES,2005/1/1,Blackwell Publishers,,true,1,16520001,0,0,0,0,2005/1/1,,,0,0,0,0,0,0.00,319,ebook,,0,0,,,,"Arthur McCullough,Geoffrey Farrell,Jacob George,Pauline Hall",,,,0,,
16520501,6610822980,Professional Rich Internet Applications: Ajax and Beyond,9786610822980,,,,ES,2007/3/16,John Wiley & Sons,,true,4,520901,12,10,3,0,2007/3/16,Professional Rich Internet Applications: AJAX and Beyond,,1,0,1,1,0,3.33,602,ebook,,0,0,"Dana Moore,Edward Benson,Raymond Budd",,,,,,2,0,,
16521001,661085596X,The Five Literacies of Global Leadership: What Authentic Leaders Know and You Need to Find Out,9786610855964,,,,ES,2007/1/1,John Wiley & Sons,,true,5,921443,32,38,11,2,2007/1/1,The Five Literacies of Global Leadership: What Authentic Leaders Know and You Need to Find Out,,3,3,2,2,1,3.45,386,ebook,,0,0,Richard David Hames,,,,,,12,0,2,"business,leadership,personal-development,philosophy"
16521501,6610918333,The Death of Progressive Education: How Teachers Lost Control of the Classroom,9786610918331,,,,ES,2007/6/29,Taylor & Francis Group,,true,5,3740048,7,2,1,0,2007/6/29,The Death of Progressive Education: How Teachers Lost Control of the Classroom,,0,0,0,1,0,2.00,,ebook,,0,0,Roy Lowe,,,,,,3,0,1,education
16522001,6610974616,Cliffstestprep: Cset; Social Science,9786610974610,,,,ES,2007/1/1,John Wiley & Sons,,true,10,19517702,11,14,4,1,2007/1/1,,book,1,1,1,1,0,3.50,217,ebook,,0,0,"Shana Pate,Tony Napoli",,,,,,,0,3,grad-school
16522501,6611021744,Understanding the Internet: A Clear Guide to Internet Technologies,9786611021740,,,,ES,2000/10/17,Elsevier Science & Technology,,true,2,16522501,0,0,0,0,2000/10/17,,,0,0,0,0,0,0.00,163,ebook,,0,0,Kevin Sullivan,,,,,,,0,,
16523001,6611062998,Introduction to South Pacific Law,9786611062996,,,,ES,2007/7/19,Taylor & Francis Group,,true,3,16821614,0,0,0,0,1999/9/7,,,0,0,0,0,0,0.00,,ebook,,0,0,"Don Paterson,Jennifer Corrin Care",,,,,,,0,,
16523501,661108181X,Research for the Psychotherapist: From Science to Practice,9786611081812,,,,ES,2006/1/1,CRC Press,,true,11,6901869,5,2,1,0,2006/1/1,,,0,0,0,1,0,2.00,298,ebook,,0,0,Jay L. Lebow,,,,,,4,2,,
16524001,6611122435,Crisis Management Planning and Execution,9786611122430,,,,ES,2007/1/1,CRC Press,,true,5,679250,16,8,2,0,2006/12/26,Crisis Management Planning and Execution,,1,0,1,0,0,4.00,527,ebook,,0,0,Edward S. Devlin,,,,,,10,0,2,economics
16524501,6611146733,Practical Guide to Interpretive Near-Infrared Spectroscopy,9786611146733,,,,ES,2008/1/1,CRC Press,,true,4,5612388,5,13,3,0,2007/10/26,,book,2,0,1,0,0,4.33,345,ebook,,0,0,"Jerry Workman Jr.,Lois Weyer",,,,,,2,0,,
16525001,6611214798,Supply Chains and Total Product Systems: A Reader,9786611214791,,,,ES,2006/1/1,Blackwell Publishers,,true,7,7422667,4,5,1,0,2005/11/18,,,1,0,0,0,0,5.00,,ebook,,0,0,,,,"Ed Rhodes,James P. Warren,Ruth Carter",,,,0,2,
16525501,6611260528,"Economics of Distance and Online Learning: Theory, Practice and Research",9786611260521,,,,ES,2008/1/1,Taylor & Francis Group,,true,5,20209102,1,1,1,0,2008/1/1,,,0,0,0,0,1,1.00,,ebook,,0,0,"Santosh Panda,William J. Bramble",,,,,,,0,,
16526001,661131251X,"Companion to Analytic Philosophy, A. Blackwell Companions to Philosophy.",9786611312510,,,,ES,2001/1/1,John Wiley & Sons,,true,6,142673,73,67,15,0,2001/1/1,A Companion to Analytic Philosophy (Blackwell Companions to Philosophy),book,8,6,1,0,0,4.47,509,ebook,,0,0,,,,"A.P. Martinich,Ernest Sosa",,,45,4,,"biography,non-fiction,philosophy,reference"
16526501,6611321160,"Endocrine System in Sports and Exercise. the Encyclopaedia of Sports Medicine, Volume 11.",9786611321161,,,,ES,2005/1/1,John Wiley & Sons,,true,5,1156280,13,0,0,0,2005/1/1,The Endocrine System in Sports and Exercise: Olympic Encyclopaedia of Sports Medicine (The Encyclopaedia of Sports Medicine),,0,0,0,0,0,0.00,645,ebook,,0,0,,,,"Alan D. Rogol,William J. Kraemer",,,11,0,,
16527001,6611381961,Cliffstestprep Regents U.S. History and Government Workbook,9786611381967,,,,ES,2008/8/18,John Wiley & Sons,,true,5,16526963,0,0,0,0,2008/1/1,,,0,0,0,0,0,0.00,239,ebook,,0,0,American BookWorks Corporation,,,,,,,0,,
16527501,6611706895,Reading Primary Sources. Routledge Guides to Using Historical Sources.,9786611706890,,,,ES,2008/7/17,Taylor & Francis Group,,true,2,16878287,1,4,1,0,2008/7/17,,,0,1,0,0,0,4.00,,ebook,,0,0,,,,"Benjamin Ziemann,Miriam Dobson",,,,0,,
16528001,6611766758,Advanced Presentations by Design: Creating Communication That Drives Action,9786611766757,,,,ES,2008/8/20,John Wiley & Sons,,true,14,4684752,163,192,47,6,2008/8/20,Advanced Presentations by Design: Creating Communication that Drives Action,,17,19,9,2,0,4.09,218,ebook,,0,0,Andrew V. Abela,,,,,,88,2,9,"business,health,non-fiction,personal-development"
16528501,6611837655,Commonwealth Caribbean Civil Procedure. Commonwealth Caribbean Law Series.,9786611837655,,,,ES,2008/8/15,Taylor & Francis Group,,true,17,21233552,7,4,1,0,2006/4/1,,,0,1,0,0,0,4.00,,ebook,,0,0,"Gilbert Kodilinye,Vanessa Kodilinye",,,,,,4,0,,
16529001,661190106X,Gothic Shakespeares. Accents on Shakespeare.,9786611901066,,,,ES,2008/12/1,Taylor & Francis Group,,true,9,7491769,25,40,9,1,2008/12/1,,,4,5,0,0,0,4.44,,ebook,,0,0,,,,"Dale Townshend,John Drakakis",,,8,0,1,gothic
16529501,6611947086,Anomalous Transport: Foundations and Applications,9786611947088,,,,ES,2008/9/8,Wiley Vch,,true,3,16529501,0,0,0,0,2008/9/8,,,0,0,0,0,0,0.00,609,ebook,,0,0,,,,"Günter Radons,Igor M. Sokolov,Rainer Klages",,,,0,,
16530001,661201671X,Edwin and John,9786612016714,,,,ES,2009/3/13,Taylor & Francis Group,,true,9,7757230,10,5,1,0,2009/3/13,,,1,0,0,0,0,5.00,300,ebook,,0,0,James T. Sears,,,,,,6,1,,"history,non-fiction"
16530501,6612064862,The Jewish-Arab City: Spatio-Politics in a Mixed Community,9786612064869,,,,ES,2009/3/15,Taylor & Francis Group,,true,8,17269486,4,0,0,0,2009/1/1,,,0,0,0,0,0,0.00,,ebook,,0,0,Haim Yacobi,,,,,,3,0,1,
16531001,6612112794,Network Science: Theory and Applications,9786612112799,,,,ES,2009/3/25,John Wiley & Sons,,true,7,6576985,23,12,4,0,2009/3/11,Network Science: Theory and Applications,,0,2,0,2,0,3.00,523,ebook,,0,0,Theodore G. Lewis,,,,,,12,0,3,"grad-school,non-fiction,science"
16531501,6612122633,Insurance for Dummies,9786612122637,,,,ES,2009/5/11,John Wiley & Sons,,true,8,1577953,261,249,68,9,2001/2/5,Insurance for Dummies,book,12,27,25,2,2,3.66,387,ebook,,0,0,Jack Hungelmann,,,,,,135,1,31,"business,non-fiction"
16532001,6612139838,Silicon Chemistry: From the Atom to Extended Systems,9786612139833,,,,ES,2007/12/19,John Wiley & Sons,,true,6,16823364,0,0,0,0,2003/11/7,,,0,0,0,0,0,0.00,506,ebook,,0,0,,,,"Peter Jutzi,Ulrich Schubert",,,,0,,
16532501,6612234954,Migrant Men: Critical Studies of Masculinities and the Migration Experience,9786612234958,,,,ES,2009/7/1,Taylor & Francis Group,,true,7,10241305,0,0,0,0,2009/7/1,,,0,0,0,0,0,0.00,227,ebook,,0,0,,,,Mike Donaldson,,,,0,,
16533001,6612283602,Contemporary North Korea: A Guide to Economic and Political Developments,9786612283604,,,,ES,2009/8/13,Taylor & Francis Group,,true,8,8727116,0,0,0,0,2009/8/1,,,0,0,0,0,0,0.00,598,ebook,,0,0,Ian Jeffries,,,,,,,0,,
16533501,6612303441,Genes for Plant Abiotic Stress,9786612303449,,,,ES,2009/9/17,John Wiley & Sons,,true,4,7239229,0,0,0,0,2009/9/17,,,0,0,0,0,0,0.00,345,ebook,,0,0,,,,"Andrew J. Wood,Matthew A. Jenks",,,,0,,
16534001,6612313870,"Materials & Equipment/Whitewares: Ceramic Engineering and Science Proceedings, Volume 23, Issue 2",9786612313875,,,,ES,2009/9/28,John Wiley & Sons,,true,2,16534001,0,0,0,0,2009/9/28,,,0,0,0,0,0,0.00,116,ebook,,0,0,William M. Carty,,,,,,,0,,
16534501,661232208X,Persuasive Imagery: A Consumer Response Perspective,9786612322082,,,,ES,2003/2/1,Taylor & Francis Group,,true,1,16534501,0,0,0,0,2003/2/1,,,0,0,0,0,0,0.00,436,ebook,,0,0,,,,M. Scott Linda,,,,0,,
16535001,6612329203,Leading Teams Revised Edition: Management Extra,9786612329203,,,,ES,2009/2/13,Elsevier Science & Technology,,true,1,16535001,0,0,0,0,2009/2/13,,,0,0,0,0,0,0.00,125,ebook,,0,0,Elearn,,,,,,,0,,
16535501,6612348003,Evolution of Hydrothermal Ecosystems on Earth (and Mars),9786612348006,,,,ES,1996/12/24,John Wiley & Sons,,true,3,16535501,0,0,0,0,1996/12/24,,,0,0,0,0,0,0.00,347,ebook,,0,0,CIBA Foundation,,,,,,,0,,
16536001,6612371005,"Professional Development with Web APIs: Google, Ebay, Amazon.Com, Mappoint, Fedex",9786612371004,,,,ES,2005/4/1,John Wiley & Sons,,true,5,1602607,16,3,2,0,2005/4/1,"Professional Development with Web APIs : Google, eBay, Amazon.com, MapPoint, FedEx",,0,0,0,1,1,1.50,328,ebook,,0,0,Denise M. Gosnell,,,,,,6,0,,
16536501,6612376600,"Contesting Moralities: Science, Identity, Conflict",9786612376603,,,,ES,2005/7/18,Taylor & Francis Group,,true,6,17515905,0,0,0,0,2005/5/1,,,0,0,0,0,0,0.00,217,ebook,,0,0,Nannekke Redclift,,,,,,,0,,
16537001,6612443251,Simple Formal Logic: With Common-Sense Symbolic Techniques,9786612443251,,,,ES,2009/12/16,Taylor & Francis Group,,true,8,8255734,14,18,5,1,2009/12/1,,,1,3,0,0,1,3.60,360,ebook,,0,0,Arnold vander Nat,,,,,,8,1,-2,
16537501,6612482931,Teaching as Leadership: The Highly Effective Teacher's Guide to Closing the Achievement Gap,9786612482939,,,,ES,2010/1/19,John Wiley & Sons,,true,9,7027642,786,1148,320,23,2010/1/1,,book,60,120,100,28,12,3.59,353,ebook,,0,0,Steven Farr,,,,,,190,6,38,"academic,business,education,leadership,non-fiction,personal-development,school,teaching"
16538001,6612549297,"Handbook of Jealousy: Theory, Research, and Multidisciplinary Approaches",9786612549298,,,,ES,2010/3/2,John Wiley & Sons,,true,8,8734416,17,10,2,0,2010/1/1,,,2,0,0,0,0,5.00,598,ebook,,0,0,,,,"Maria Legerstee,Sybil L. Hart",,,12,0,,"philosophy,psychology"
16538501,6612575972,"Kosovo, Intervention and Statebuilding: The International Community and the Transition to Independence",9786612575976,,,,ES,2010/1/14,Taylor & Francis Group,,true,4,16936485,1,4,1,0,2010/1/14,,,0,1,0,0,0,4.00,222,ebook,,0,0,,,,Aidan Hehir,,,,0,,
16539001,6612629169,Thinking Chinese Translation: A Course in Translation Method Chinese to English,9786612629167,,,,ES,2010/6/15,Taylor & Francis Group,,true,9,7601758,25,40,10,0,2010/5/27,,,3,5,1,1,0,4.00,235,ebook,,0,0,"Liu Tin-Kun,Valerie Pellatt",,,,,,10,0,2,
16539501,6612683236,Bulk Nanostructured Materials,9786612683237,,,,ES,2009/6/10,John Wiley & Sons,,true,3,16940424,0,0,0,0,2009/6/10,,,0,0,0,0,0,0.00,738,ebook,,0,0,,,,"M.J. Zehetbauer,Yuntian Theodore Zhu",,,,0,,
16540001,6612688351,"The Nonprofit Marketing Guide: High-Impact, Low-Cost Ways to Build Support for Your Good Cause",9786612688355,,,,ES,2010/4/29,John Wiley & Sons,,true,7,8288322,391,582,147,16,2010/4/29,,,51,55,26,14,1,3.96,258,ebook,,0,0,Kivi Leroux Miller,,,,,,165,8,25,"business,non-fiction,reference,self-help,textbooks"
16540501,6612728760,Couples Therapy Homework Planner,9786612728761,,,,ES,2010/7/30,John Wiley & Sons,,true,8,9519549,33,79,20,0,2010/7/23,,,9,4,4,3,0,3.95,255,ebook,,0,0,"Bill O'Hanlon,Gary M. Schultheis,Steffanie Alexander O'Hanlon",,,,,,4,1,,
16541001,6612777443,Journalism and Democracy: An Evaluation of the Political Public Sphere,9786612777448,,,,ES,1999/11/25,Taylor & Francis Group,,true,9,1570305,15,25,9,0,1999/11/25,Journalism and Democracy: An Evaluation of the Political Public Sphere,,0,3,1,5,0,2.78,217,ebook,,0,0,Brian McNair,,,,,,4,0,,
16541501,6612816481,Fracture and Damage of Concrete and Rock - Fdcr-2,9786612816482,,,,ES,1993/4/22,Spons Architecture Price Book,,true,5,20225153,0,0,0,0,1993/7/14,,,0,0,0,0,0,0.00,691,ebook,,0,0,,,,Hans Peter Rossmanith,,,,0,,
16542001,6612886013,"Culture, Institutions, and Development: New Insights Into an Old Debate",9786612886010,,,,ES,2010/9/9,Taylor & Francis Group,,true,3,16952805,1,0,0,0,2010/9/9,,,0,0,0,0,0,0.00,289,ebook,,0,0,,,,"Jean-Philippe Platteau,Robert Peccoud",,,1,0,,
16542501,6612929707,Studies in Perception and Action IX: Fourteenth International Conference on Perception and Action,9786612929700,,,,ES,2007/7/3,Taylor & Francis Group,,true,3,16955429,0,0,0,0,2007/7/3,,,0,0,0,0,0,0.00,266,ebook,,0,0,,,,"Kevin Shockley,Michael A. Riley,Sarah Cummins-Sebree",,,,0,,
16543001,6613024848,Clinical Trials Audit Preparation,9786613024848,,,,ES,2011/3/1,John Wiley & Sons,,true,1,16543001,0,0,0,0,2011/3/1,,,0,0,0,0,0,0.00,271,ebook,,0,0,Vera Mihajlovic- Madzarevic,,,,,,,0,,
16543501,6613038806,Global Japanization?: The Transnational Transformation of the Labour Process,9786613038807,,,,ES,2010/9/7,Routledge,,true,11,3993338,2,0,0,0,1994/12/1,Global Japanization: The Transnational Transformation of the Labour Process (Critical Perspectives on Work and Organization),,0,0,0,0,0,0.00,410,ebook,,0,0,,,,"Chris Smith,Tony Elger",,,2,0,,
16544001,6613045594,Comprehensive Planning for Safe Learning Environments,9786613045591,,,,ES,2010/1/1,Routledge,,true,8,7236536,3,0,0,0,2009/12/4,,,0,0,0,0,0,0.00,373,ebook,,0,0,"Amy Plog,Melissa A. Reeves",,,,,,1,0,,psychology
16544501,6613104248,Explaining Pakistan's Foreign Policy,9786613104243,,,,ES,2011/3/16,Routledge,,true,2,16544501,3,0,0,0,2011/3/16,,,0,0,0,0,0,0.00,256,ebook,,0,0,Aparna Pande,,,,,,3,0,,
16545001,6613175838,The Big Jump: Lindbergh and the Great Atlantic Air Race,9786613175830,,,,ES,2011/6/24,John Wiley & Sons,,true,8,13408429,17,18,5,1,2011/1/1,,book,0,3,2,0,0,3.60,337,ebook,,0,0,Richard Bak,,,,,,9,0,1,"american,history,travel"
16545501,6613239437,Characterization of Impurities and Degradants Using Mass Spectrometry,9786613239433,,,,ES,2011/8/4,John Wiley & Sons,,true,4,16980008,0,0,0,0,2011/1/1,,,0,0,0,0,0,0.00,486,ebook,,0,0,,,,"Birendra N. Pramanik,Guodong Chen,Mike S. Lee",,,,0,,
16546001,6613274011,Sequential Estimation,9786613274014,,,,ES,2011/9/9,Milliken,,true,4,16983229,0,0,0,0,1997/2/28,,,0,0,0,0,0,0.00,503,ebook,,0,0,"Malay Ghosh,Nitis Mukhopadhyay,Pranab Kumar Sen",,,,,,,0,,
16546501,6613311790,R Companion to Linear Statistical Models,9786613311795,,,,ES,2011/10/20,Milliken,,true,2,16986233,0,0,0,0,2011/10/20,,,0,0,0,0,0,0.00,366,ebook,,0,0,Christopher Hay-Jahans,,,,,,,0,,
16547001,6613373028,Developing Language and Literacy: Effective Intervention in the Early Years,9786613373021,,,,ES,2011/1/6,John Wiley & Sons,,true,7,9619910,5,6,2,1,2011/1/6,,,0,1,0,1,0,3.00,192,ebook,,0,0,"Charles Hulme,Claudine Bowyer-Crane,Fiona J. Duff,Julia M. Carroll,Margaret J. Snowling",,,,,,2,0,1,
16547501,6613404802,Chern on Dispute Boards,9786613404800,,,,ES,2011/12/16,John Wiley & Sons,,true,2,16547501,0,0,0,0,2011/12/16,,,0,0,0,0,0,0.00,448,ebook,,0,0,Barch Chern,,,,,,,0,,
16548001,6613434833,Interpreting Art in Museums and Galleries,9786613434838,,,,ES,2011/12/12,Routledge,,true,8,17544407,10,8,2,0,2011/1/1,,,0,2,0,0,0,4.00,216,ebook,,0,0,Christopher Whitehead,,,,,,8,0,,
16548501,6613459372,Living Over the Store: Architecture and Local Urban Life,9786613459374,,,,ES,2012/1/20,Routledge,,true,9,13716850,21,8,2,0,2012/1/1,,,0,2,0,0,0,4.00,297,ebook,,0,0,Howard Davis,,,,,,14,0,2,
16549001,6613526223,Electrical Power Cable Engineering,9786613526229,,,,ES,2011/12/19,Not Avail,,true,2,16753916,0,0,0,0,2011/12/19,,,0,0,0,0,0,0.00,451,ebook,,0,0,William Thue,,,,,,,0,,
16549501,6613620998,Here's the Pitch,9786613620996,,,,ES,2012/1/31,John Wiley & Sons,,true,2,16787647,0,0,0,0,2012/1/31,,,0,0,0,0,0,0.00,225,ebook,,0,0,Martin Soorjoo,,,,,,,0,,
16550001,6613641685,A Short History of Writing Instruction: From Ancient Greece to Contemporary America,9786613641687,,,,ES,2012/5/4,Routledge,,true,8,1398367,79,113,34,7,1995/1/1,A Short History of Writing Instruction: From Ancient Greece To Modern America,,5,12,9,5,3,3.32,321,ebook,,0,0,,,,James J. Murphy,,,19,3,2,"academic,education,grad-school,historical,non-fiction,teaching,textbooks,writing"
16550501,6613653748,The Economics of Education (Rle Edu D),9786613653741,,,,ES,2012/5/4,Routledge,,true,11,16794270,10,8,2,1,2012/1/19,,,0,2,0,0,0,4.00,145,ebook,,0,0,John Sheehan,,,,,,6,0,,
16551001,6613676373,Common Errors in Statistics (and How to Avoid Them),9786613676375,,,,ES,2012/6/6,John Wiley & Sons,,true,31,3415209,100,89,25,0,2003/1/1,Common Errors in Statistics (and How to Avoid Them),,4,10,8,2,1,3.56,352,ebook,,0,0,"James W. Hardin,Phillip I. Good",,,,,,51,1,4,"non-fiction,psychology,science"
16551501,0061188565,Courting Trouble,9780061188565,,,,ES,2006/10/3,HarperCollins Publishers,,true,44,84826,9996,20134,5319,360,2002/5/22,Courting Trouble,book,1238,2153,1540,324,64,3.79,432,ebook,,0,0,Lisa Scottoline,,,,,,2314,26,170,"abuse,action,adult,adult-fiction,contemporary,crime,drama,fiction,humor,murder-mystery,mystery,mystery-thriller,survival,suspense,thriller"
16552001,0080554903,"Advances in Atomic, Molecular, and Optical Physics, Volume 55",9780080554907,,,,ES,2014/5/14,Academic Press,,true,4,16552001,0,0,0,0,2007/1/1,,,0,0,0,0,0,0.00,498,ebook,,0,0,Ennio Arimondo,,,"Chun C. Lin,Paul R. Berman",,,,0,,
16552501,008057677X,"Advances in Electronics and Electron Physics, Volume 16",9780080576770,,,,ES,2014/5/14,Academic Press,eng,true,2,16552501,0,0,0,0,1962/1/28,,book,0,0,0,0,0,0.00,671,ebook,,0,0,Ladislaus Laszlo Marton,,,,,,,0,,
16553001,0080584292,"Current Topics in Developmental Biology, Volume 6",9780080584294,,,,ES,2014/5/14,Academic Press,,true,3,16553001,0,0,0,0,1971/12/1,,book,0,0,0,0,0,0.00,257,ebook,,0,0,"A.A. Moscona,Alberto Monroy",,,,,,,0,,
16553501,0080862292,"Progress in Brain Research, Volume 104: Neuropeptides in the Spinal Cord",9780080862293,,,,ES,1995/10/30,Elsevier Science & Technology,,true,3,16984515,0,0,0,0,1995/10/1,,book,0,0,0,0,0,0.00,,ebook,,0,0,,,,"F. Nyberg,Hari Shanker Sharma,Z. Wiesenfeld-Hallin",,,,0,,
16554001,0080874215,System Theory: A Hilbert Space Approach,9780080874210,,,,ES,2014/5/14,Academic Press,,true,3,16882817,0,0,0,0,1982/1/1,,book,0,0,0,0,0,0.00,327,ebook,,0,0,"Avraham Feintuch,Richard Saeks",,,,,,,0,,
16554501,0123814650,Information Visualization: Perception for Design,9780123814654,,,,ES,2012/5/1,Morgan Kaufmann Publishers,,true,11,1408452,753,583,145,9,2000/1/1,Information Visualization: Perception for Design (Interactive Technologies),book,47,65,25,5,3,4.02,537,ebook,,0,0,Colin Ware,,,,,,468,13,24,"academic,business,non-fiction,psychology,reference,research,science,technology"
16555001,0312299478,Woman's Way,9780312299477,,,,ES,2000/6/1,Palgrave MacMillan,,true,1,16555001,0,0,0,0,2000/6/1,,,0,0,0,0,0,0.00,272,ebook,,0,0,"Patricia Ranft,Ranft",,,,,,,0,,
16555501,1849836671,Two Little Girls in Blue,9781849836678,,,,ES,2007/1/1,Simon & Schuster,eng,false,81,154423,37347,93400,24249,1338,2006/1/1,Two Little Girls in Blue,book,7126,8556,6730,1519,318,3.85,322,Paperback,,14,2,Mary Higgins Clark,,,,,,5825,57,462,"adult,adult-fiction,contemporary,crime,drama,family,fiction,murder-mystery,mystery,mystery-thriller,novels,paranormal,romance,suspense,thriller"
16556001,0702048011,Illustrated Dictionary of Podiatry and Foot Science E-Book,9780702048012,,,,ES,2009/7/30,Churchill Livingstone,,true,2,16556001,2,0,0,0,2009/7/30,,,0,0,0,0,0,0.00,446,ebook,,0,0,Jean Mooney,,,,,,1,0,1,
16556501,0753529122,Unknown Territory,9780753529126,,,,ES,2010/9/30,Virgin Digital,,true,3,4206345,10,2,1,1,2003/5/1,Unknown Territory (Black Lace),book,0,0,0,1,0,2.00,288,ebook,,0,0,Annie O'Neill,,,,,,3,1,,"erotica,romance"
16557001,0786870826,Jesus CEO: Using Ancient Wisdom for Visionary Leadership,9780786870820,,,,ES,2001/10/1,Hyperion,,true,20,162815,1857,2973,748,73,1995/1/5,Jesus CEO : Using Ancient Wisdom for Visionary Leadership,book,297,234,139,57,21,3.97,318,ebook,,0,0,Laurie Beth Jones,,,,,,683,9,98,"business,christian,christianity,education,faith,inspirational,leadership,non-fiction,personal-development,religion,self-help,spirituality"
16557501,0857897217,Rin Tin Tin: The Life and Legend of the World's Most Famous Dog,9780857897213,,,,ES,2014/5/27,Atlantic Books (UK),,true,20,11238914,10007,13461,3864,862,2011/9/27,Rin Tin Tin: The Life And The Legend,book,624,1299,1373,458,110,3.48,385,ebook,,0,0,Susan Orlean,,,,,,1001,67,205,"adult,american,american-history,animals,biography,biography-memoir,fiction,film,historical,history,memoir,movies,nature,non-fiction,novels,war"
16558001,1118146883,Dead Biker: Inside the Violent World of the Mexican Drug Cartels,9781118146880,,,,ES,2012/2/8,John Wiley & Sons,,true,10,13348175,39,57,16,4,2012/2/3,,,5,3,5,2,1,3.56,288,ebook,,0,0,Jerry Langton,,,,,,18,1,1,non-fiction
16558501,1401386598,Trace Evidence: A Novel,9781401386597,,,,ES,2005/8/3,Hyperion,,true,21,58864,880,1360,377,57,2005/1/1,Trace Evidence,book,63,152,119,37,6,3.61,,ebook,,0,0,Elizabeth Becka,,,,,,348,8,3,"crime,fiction,mystery,mystery-thriller,suspense,thriller,true-crime"
16559001,1401398901,Foolish/Unfoolish: Reflections on Love,9781401398903,,,,ES,2003/11/1,Hyperion,,true,10,561156,113,146,41,7,2002/11/1,Foolish/Unfoolish: Reflections on Love,,12,12,7,7,3,3.56,,ebook,,0,0,Ashanti,,,,,,52,2,,"poetry,teen"
16559501,1408171090,El Clasico: Barcelona V Real Madrid: Football's Greatest Rivalry,9781408171097,,,,ES,2012/8/2,Bloomsbury Publishing,eng,true,6,16051489,495,990,234,16,2012/1/1,,book,110,79,35,9,1,4.23,256,ebook,,0,0,Richard   Fitzpatrick,,,,,,245,1,15,"history,non-fiction,sports"
16560001,1409073378,Doctor Who: Wooden Heart,9781409073376,,,,ES,2010/8/3,BBC Digital,,true,11,678071,3519,4971,1329,74,2007/4/19,Doctor Who: Wooden Heart,book,377,386,432,112,22,3.74,256,ebook,,1,0,Martin Day,,,,,,1766,16,9,"action,adult,adventure,aliens,fantasy,fiction,novels,science,science-fiction,time-travel,young-adult"
16560501,1414121458,"Practical Generosity: How to Choose Between Spending, Saving and Giving",9781414121451,,,,ES,2012/3/1,Winepress Publishing,,true,1,16560501,0,0,0,0,2012/3/24,,,0,0,0,0,0,0.00,176,ebook,,0,0,Shane Enete,,,,,,,0,,
16561001,1437723578,Small Animal Clinical Pharmacology and Therapeutics - E-Book,9781437723571,,,,ES,2011/7/25,Saunders,,true,3,16602584,0,0,0,0,2000/10/1,,,0,0,0,0,0,0.00,1348,ebook,,0,0,Dawn Merton Boothe,,,,,,,0,,
16561501,1446417379,Great Lives: As heard on Radio 4,9781446417379,,,,ES,2011/9/1,BBC Digital,,true,2,16561501,9,20,5,0,2011/9/1,,,1,3,1,0,0,4.00,432,ebook,,4,0,Karen Farrington,,,,,,3,1,1,
16562001,1446485897,"Novel 11, Book 18",9781446485897,,,,ES,2011/7/31,Vintage Digital,,true,22,3284100,910,1407,376,42,1992/1/1,"Ellevte roman, bok atten",book,83,158,97,31,7,3.74,224,ebook,,0,0,Dag Solstad,,,,,,423,11,13,"contemporary,fiction,literary-fiction,literature,novels"
16562501,1448114276,Burning Elvis,9781448114276,,,,ES,2011/11/30,Vintage Digital,,true,4,3244606,57,111,30,2,2000/6/1,Burning Elvis,book,7,11,9,2,1,3.70,240,ebook,,0,0,John Burnside,,,,,,16,0,2,"fiction,short-stories"
16563001,1448147042,"The 7 Day Parent Coach: Halve the stress, double your energy and become a great parent",9781448147045,,,,ES,2012/9/30,Ebury Digital,,true,4,13657162,14,19,5,0,2005/6/2,,,2,1,1,1,0,3.80,304,ebook,,0,0,Lorraine Thomas,,,,,,6,0,4,
16563501,1459702824,Where Dreams Have Gone,9781459702820,,,,ES,1997/10/1,Dundurn,,true,2,16786164,0,0,0,0,1997/1/1,,,0,0,0,0,0,0.00,216,ebook,,0,0,Norma Harrs,,,,,,,0,,
16564001,1475942443,Saharan Safari: We Took Our VW Camper on a Freighter to Morocco 1969-70 This Is the Story of Our Adventures for Ten Months. Our Only Help Came from Our Research and Guide Books Purchased in New York and Casablanca.,9781475942446,,,,ES,2012/8/14,iUniverse,,true,3,19791798,1,0,0,0,2012/8/14,,,0,0,0,0,0,0.00,,ebook,,0,0,"Emma Selig Jones,Ted Jones",,,,,,1,0,,
16564501,1598292498,Reduction of a Ship's Magnetic Field Signatures,9781598292497,,,,ES,2008/10/8,Morgan & Claypool,,true,1,16564501,0,0,0,0,2008/10/8,,,0,0,0,0,0,0.00,68,ebook,,0,0,John Holmes,,,,,,,0,,
16565001,1608455718,Statistics Is Easy! 2nd Edition,9781608455713,,,,ES,2010/6/6,Morgan & Claypool,,true,1,16565001,0,0,0,0,2010/6/6,,,0,0,0,0,0,0.00,174,ebook,,0,0,"Dennis E. Shasha,Manda Wilson",,,,,,,0,,
16565501,1770977783,Oranges in the Dark,9781770977785,,,,ES,2012/8/1,FriesenPress,,true,3,16565501,0,0,0,0,2012/8/22,,,0,0,0,0,0,0.00,,ebook,,0,0,Royce J Smith,,,,,,,0,,
16566001,1848877781,White Ghost Girls,9781848877788,,,,ES,2010/5/1,Atlantic Books (UK),,true,3,76422,1850,3092,957,139,2006/1/5,White Ghost Girls,book,102,272,374,163,46,3.23,140,ebook,,1,0,Alice Greenway,,,,,,679,16,,"adult,adult-fiction,contemporary,cultural,drama,family,fiction,historical,historical-fiction,literary-fiction,literature"
16566501,193314968X,Cottonmouth Kisses,9781933149684,,,,ES,2000/3/1,Manic D Press,,true,4,537066,734,491,120,16,2000/1/1,Cottonmouth Kisses,,59,29,20,8,4,4.09,160,ebook,,0,0,Clint Catalyst,,,,,,586,5,3,"feminism,fiction,gay,gothic,lgbt,memoir,mental-health,poetry,queer,reference,short-stories"
16567001,2294718879,Guide AP - Auxiliaire de puériculture,9782294718878,,,,ES,2012/1/30,Elsevier Masson,fre,true,1,16567001,0,0,0,0,2011/12/12,,book,0,0,0,0,0,0.00,608,ebook,,0,0,Jacqueline Gassier,,,,,,,0,,
16567501,343759088X,Vetbasics Verhaltensmedizin Und -Therapie Bei Hund Und Katzevetbasics Verhaltensmedizin Und -Therapie Bei Hund Und Katzevetbasics Verhaltensmedizin Und -Therapie Bei Hund Und Katzevetbasics Verhaltensmedizin Und -Therapie Bei Hund Und Katzevetbasics Ve...,9783437590887,,,,ES,2012/1/24,Fischer Gustav Verlag GmbH & Co. KG,,true,2,19399505,0,0,0,0,2012/1/3,,,0,0,0,0,0,0.00,152,ebook,,0,0,Barbara Schneider,,,,,,,0,,
16568001,8376095609,Chirurgia Sabistona. Tom 2,9788376095608,,,,ES,2012/2/24,Elsevier Urban & Partner,,true,1,16568001,2,0,0,0,2012/2/24,,book,0,0,0,0,0,0.00,400,ebook,,0,0,Courtney M. Townsend Jr.,,,,,,1,0,1,
16568501,1415945586,Capitol Conspiracy,9781415945582,,,,ES,2008/1/29,Books on Tape,,false,14,1182952,1158,2318,594,57,2008/1/1,Capitol Conspiracy,book,182,229,135,39,9,3.90,,Audio,,0,0,William Bernhardt,,,,,,280,10,21,"fiction,historical-fiction,mystery,mystery-thriller,suspense,thriller"
16569001,6610223092,Towards a Democratic Viability: The Bolivian Experience,9786610223091,,,,ES,2001/3/13,Palgrave MacMillan,,true,3,19729858,1,0,0,0,2001/3/13,,,0,0,0,0,0,0.00,,ebook,,0,0,,,,"John Crabtree,Laurence Whitehead",,,1,0,,
16569501,6610426686,"Reclaiming Theodicy: Reflections on Suffering, Compassion and Spiritual Transformation",9786610426683,,,,ES,2005/9/15,Palgrave MacMillan,,true,5,674659,5,5,1,0,2005/1/1,"Reclaiming Theodicy: Reflections on Suffering, Compassion and Spiritual Transformation (Library of Philosophy and Religion)",,1,0,0,0,0,5.00,,ebook,,0,0,Michael Stoeber,,,,,,3,0,,
16570001,6610514275,"Fictions of British Decadence: High Art, Popular Writing and the Fin de Siecle. Palgrave Studies in Nineteenth-Century Writing and Culture",9786610514274,,,,ES,2006/4/21,Palgrave MacMillan,,true,4,821198,39,33,8,0,2006/6/13,"Fictions of British Decadence: High Art, Popular Writing and the Fin De Siecle (Palgrave Studies in Nineteenth-Century Writing and Culture)",,3,3,2,0,0,4.12,233,ebook,,0,0,Kirsten MacLeod,,,,,,28,2,,"art,history,non-fiction,research"
16570501,6610824401,The Liberal Polity: An Inquiry Into the Logic of Civil Association,9786610824403,,,,ES,2006/7/28,Palgrave MacMillan,,true,4,2531147,2,4,1,0,2006/7/28,The Liberal Polity: An Inquiry into the Logic of Civil Association,,0,1,0,0,0,4.00,253,ebook,,0,0,Craig L. Carr,,,,,,1,0,,
16571001,6611361081,Taijiquan and the Search for the Little Old Chinese Man: Understanding Identity Through Martial Arts.,9786611361082,,,,ES,2006/11/14,Palgrave MacMillan,,true,4,887362,26,25,6,0,2006/11/14,Taijiquan and the Search for the Little Old Chinese Man: Understanding Identity through Martial Arts,,1,5,0,0,0,4.17,,ebook,,0,0,Adam Frank,,,,,,18,0,,
16571501,6611367667,The Fall of Milosevic: The October 5th Revolution,9786611367664,,,,ES,2003/4/1,Palgrave MacMillan,,true,5,2465031,11,24,7,1,2003/4/1,The Fall of Milosevic: The October 5th Revolution,,1,1,5,0,0,3.43,,ebook,,0,0,"Dragan Bujosevic,Ivan Radovanović",,,,,,2,0,,non-fiction
16572001,6611844562,The Construction of Minority Identities in France and Britain,9786611844561,,,,ES,2007/11/9,Palgrave MacMillan,,true,5,5022081,2,0,0,0,2007/11/9,The Construction of Minority Identities in France and Britain,,0,0,0,0,0,0.00,,ebook,,0,0,,,,"Gino Raymond,Tariq Modood",,,,0,,
16572501,6612260041,Flix Guattari,9786612260049,,,,ES,2008/11/5,Palgrave MacMillan,,true,1,16572501,0,0,0,0,2008/11/5,,,0,0,0,0,0,0.00,188,ebook,,0,0,F Berardi Bifo,,,,,,,0,,
16573001,6612507527,Get Real: Documentary Theatre Past and Present,9786612507526,,,,ES,2009/4/8,Palgrave MacMillan,,true,5,12270364,21,42,10,0,2009/4/8,,book,3,6,1,0,0,4.20,256,ebook,,0,0,"Alison Forsyth,Chris Megson",,,,,,9,0,1,theatre
16573501,6612662484,"Alsace to the Alsatians: Visions and Divisions of Alsatian Regionalism, 1870-1939",9786612662485,,,,ES,2010/3/15,Berghahn Books,,true,2,16573501,0,0,0,0,2010/3/8,,,0,0,0,0,0,0.00,254,ebook,,0,0,Christopher J. Fischer,,,,,,,0,,
16574001,6612786000,Business Accounting Basics,9786612786006,,,,ES,2010/7/8,Pearson Education UK,,true,1,16574001,2,0,0,0,2010/7/8,,,0,0,0,0,0,0.00,328,ebook,,0,0,Wood Frank,,,,,,2,0,,
16574501,6612983779,Brilliant Life Coach,9786612983771,,,,ES,2010/10/27,Pearson Education,,true,2,16959166,1,3,1,0,2010/10/27,,,0,0,1,0,0,3.00,192,ebook,,0,0,Annie Lionnet,,,,,,,0,,
16575001,6613028118,Cinema and the Swastika: The International Expansion of Third Reich Cinema,9786613028112,,,,ES,2010/11/17,Palgrave MacMillan,,true,2,16962279,0,0,0,0,2010/11/17,,,0,0,0,0,0,0.00,384,ebook,,0,0,,,,"David Welch,Roel Vande Winkel",,,,0,,
16575501,6613173312,Quantitative Methods for Business,9786613173317,,,,ES,2011/3/30,FT Press,,true,8,12313388,41,50,13,0,2007/1/1,,book,5,2,5,1,0,3.85,624,ebook,,0,0,Donald Waters,,,,,,22,0,5,textbooks
16576001,6613183210,Globalization and the Politics of Resistance,9786613183217,,,,ES,2000/4/7,Palgrave MacMillan,,true,1,16576001,1,0,0,0,2000/4/7,,,0,0,0,0,0,0.00,352,ebook,,0,0,,,,K Gills Barry,,,,0,,
16576501,6613191817,Sexual Politics in Indonesia,9786613191816,,,,ES,2002/5/22,Palgrave MacMillan,,true,3,1864439,31,26,6,0,2002/5/22,Sexual Politics in Indonesia,,4,0,2,0,0,4.33,408,ebook,,0,0,Saskia E. Wieringa,,,,,,21,0,1,non-fiction
16577001,6613360945,England After the Great Recession: Tracking the Political and Cultural Consequences of the Crisis,9786613360946,,,,ES,2011/12/30,Not Avail,,true,5,16990742,0,0,0,0,2011/12/12,,,0,0,0,0,0,0.00,232,ebook,,0,0,Peter W. Preston,,,,,,,0,,
16577501,6613657239,What Is Masculinity?,9786613657237,,,,ES,2011/6/14,Not Avail,,true,6,13169388,28,15,4,0,2011/6/14,,book,0,3,1,0,0,3.75,477,ebook,,0,0,,,,"John H. Arnold,Sean Brady",,,18,0,2,
16578001,661385901X,Understanding Philosophy of Science,9786613859013,,,,ES,2012/8/6,Not Avail,,true,18,168222,657,764,200,21,2001/12/20,Understanding Philosophy of Science,book,45,91,51,9,4,3.82,298,ebook,,0,0,James Ladyman,,,,,,353,13,37,"non-fiction,philosophy,science,textbooks,unfinished"
16578501,6613865176,United Republic of Tanzania: Second Review Under the Policy Support Instrument - Staff Report; Staff Statement; Press Release on the Executive Board Discussion; And Statement by the Executive Director for Tanzania,9786613865175,,,,ES,2008/1/11,Not Avail,,true,1,16578501,0,0,0,0,2008/1/11,,,0,0,0,0,0,0.00,78,ebook,,0,0,International Monetary Fund,,,,,,,0,,
16579001,6613870137,"Uruguay: Second Review Under the Stand-By Arrangement, Requests for Modification, Waiver of Nonobservance and Applicability of Performance Criteria, and Extension of Repurchase Expectations in the Credit Tranches",9786613870131,,,,ES,2006/3/24,Not Avail,,true,1,16579001,0,0,0,0,2006/3/24,,,0,0,0,0,0,0.00,85,ebook,,0,0,International Monetary Fund,,,,,,,0,,
16579501,6613875082,Republic of Serbia: Financial Sector Assessment Program Update - Technical Note on Insurance Sector,9786613875082,,,,ES,2010/5/27,Not Avail,,true,1,16579501,0,0,0,0,2010/5/27,,,0,0,0,0,0,0.00,30,ebook,,0,0,International Monetary Fund,,,,,,,0,,
16580001,6613879983,Indonesia: Selected Issues,9786613879981,,,,ES,2010/9/16,Not Avail,,true,9,16324308,0,0,0,0,2002/7/29,,,0,0,0,0,0,0.00,62,ebook,,0,0,International Monetary Fund,,,,,,,0,,
16580501,0007489919,Sutton,9780007489916,,,,ES,2012/9/1,HarperCollins Publishers,,false,28,13624683,17582,32446,8537,1010,2012/1/1,Sutton,book,2033,3618,2216,491,179,3.80,352,Paperback,,2,1,J.R. Moehringer,,,,,,3149,85,,"adult,adult-fiction,american,american-history,biography,contemporary,crime,cultural,drama,fiction,historical,historical-fiction,history,literature,mystery,non-fiction,novels,true-crime"
16581001,0080510590,Macrotransport Processes,9780080510590,,,,ES,2014/12/2,Butterworth-Heinemann,,true,1,16581001,0,0,0,0,1993/8/17,,,0,0,0,0,0,0.00,741,ebook,,0,0,"David Edwards,Howard Brenner",,,,,,,0,,
16581501,0080536255,"Metabolic and Degenerative Diseases of the Central Nervous System: Pathology, Biochemistry, and Genetics",9780080536255,,,,ES,1995/9/28,Academic Press,,true,2,16581501,0,0,0,0,1995/9/28,,,0,0,0,0,0,0.00,873,ebook,,0,0,"Henry Urich,Jorge Cervos-Navarro",,,,,,,0,,
16582001,0080573533,Quicktime for Java: A Developer Reference,9780080573533,,,,ES,1999/7/1,Morgan Kaufmann Publishers,,true,1,16582001,0,0,0,0,1999/7/14,,,0,0,0,0,0,0.00,655,ebook,,0,0,"Apple Computer Inc,Tom Maremaa,William Stewart",,,,,,,0,,
16582501,0080881661,"Methods in Enzymology, Volume 48: Enzyme Structure Part F",9780080881669,,,,ES,1978/3/1,Academic Press,,true,2,16582501,0,0,0,0,1978/1/1,,book,0,0,0,0,0,0.00,521,ebook,,0,0,Nathan O. Kaplan,,C.H.W. Hirs,,,,,0,,
16583001,0080913350,Robot Control 2003: 7th Ifac Symposium - Syroco 2003 - Part of Ifac,9780080913353,,,,ES,2004/4/1,Pergamon,,true,1,16583001,0,0,0,0,2004/4/3,,,0,0,0,0,0,0.00,618,ebook,,0,0,,,,"Ignacy Duleba,Jerzy Z. Sasiadek",,,,0,,
16583501,0080923976,Lasers and Optical Fibers in Medicine,9780080923970,,,,ES,1993/10/1,Academic Press,,true,3,4592405,4,0,0,0,1993/1/1,,,0,0,0,0,0,0.00,317,ebook,,0,0,Abraham Katzir,,,,,,3,0,,
16584001,0080933394,Handbook of Macroeconomics,9780080933399,,,,ES,1999/12/1,North-Holland,,true,6,16583761,2,0,0,0,1999/1/1,,,0,0,0,0,0,0.00,,ebook,,0,0,,,,"John Brian Taylor,Michael Woodford",,,2,0,,
16584501,0080953298,Modern Fourier Transform Infrared Spectroscopy,9780080953298,,,,ES,2001/10/1,Elsevier Science & Technology,,true,2,8010594,0,0,0,0,2001/1/1,,,0,0,0,0,0,0.00,376,ebook,,0,0,"Alfred A. Christy,V.G. Gregoriou,Yukihiro Ozaki",,,,,,,0,,
16585001,012384942X,Fundamentals of Ashrae Standard 62.1 - Ventilation and Acceptable Indoor Air Quality: Fundamentals of Ashrae Standard 62.1,9780123849427,,,,ES,2008/5/1,Elsevier Science & Technology,,true,2,16585001,2,0,0,0,2008/5/5,,,0,0,0,0,0,0.00,,ebook,,0,0,Hoy Bohanan,,,,,,,0,1,
16585501,0123984793,Genome Evolution of Photosynthetic Bacteria,9780123984791,,,,ES,2013/6/1,Academic Press,,true,3,17810732,0,0,0,0,2013/3/8,,,0,0,0,0,0,0.00,296,ebook,,0,0,,,Tom J Beatty,,,,,0,,
16586001,031300983X,Gadi Mirrabooka: Australian Aboriginal Tales from the Dreaming,9780313009839,,,,ES,2001/1/1,Libraries Unlimited,,true,4,680572,52,84,21,4,2001/1/1,Gadi Mirrabooka: Australian Aboriginal Tales from the Dreaming,book,9,5,5,2,0,4.00,167,ebook,,0,0,"Francis Firebrace Jones,June Barker,Pauline E. McLeod",,,Helen F. McKay,,,25,1,1,"fiction,juvenile,non-fiction,religion"
16586501,0313034249,The Boers in East Africa: Ethnicity and Identity,9780313034244,,,,ES,1998/10/28,Praeger,,true,4,4926103,1,0,0,0,1998/1/1,The Boers in East Africa: Ethnicity and Identity,,0,0,0,0,0,0.00,224,ebook,,0,0,Brian M. Du Toit,,,,,,1,0,,
16587001,0313072639,"American Indian and African American People, Communities, and Interactions: An Annotated Bibliography",9780313072635,,,,ES,2004/6/30,Praeger,,true,4,2969300,4,5,1,0,2004/6/30,,,1,0,0,0,0,5.00,288,ebook,,0,0,Lisa Bier,,,,,,2,0,,
16587501,0313095620,The Systematic Search for Entrepreneurial Discoveries,9780313095627,,,,ES,2002/7/1,Praeger Cloth B & C Titles,,true,4,6299737,0,0,0,0,2002/6/30,The Systematic Search for Entrepreneurial Discoveries,,0,0,0,0,0,0.00,256,ebook,,0,0,James O. Fiet,,,,,,,0,,
16588001,0313367965,Alcohol Problem Intervention in the Workplace: Employee Assistance Programs and Strategic Alternatives,9780313367960,,,,ES,1990/7/24,Praeger,,true,3,4179010,0,0,0,0,1990/7/24,Alcohol Problem Intervention in the Workplace: Employee Assistance Programs and Strategic Alternatives,,0,0,0,0,0,0.00,432,ebook,,0,0,Paul M. Roman,,,,,,,0,,
16588501,0313386110,"Covert Relationship: American Foreign Policy, Intelligence, and the Iran-Iraq War, 1980-1988: American Foreign Policy, Intelligence, and the Iran-Iraq War, 1980-1988",9780313386114,,,,ES,2010/8/19,Praeger,,true,3,11217572,20,15,4,0,2010/8/19,,,0,3,1,0,0,3.75,291,ebook,,0,0,Bryan R. Gibson,,,,,,14,0,1,history
16589001,0313397694,Health Care Reform and Disparities,9780313397691,,,,ES,2012/6/1,Praeger,eng,false,4,16589001,9,5,1,0,2012/1/1,,book,1,0,0,0,0,5.00,,Unknown Binding,,1,0,Toni P. Miles,,,,,,7,0,,
16589501,0323078621,Anesthesia Secrets,9780323078627,,,,ES,2005/11/1,Mosby,,true,8,1047152,108,176,43,3,1997/1/1,Anesthesia Secrets: with STUDENT CONSULT Access (Secrets),,18,12,12,1,0,4.09,592,ebook,,0,0,James Duke,,,,,,39,0,12,health
16590001,0444563326,The Role of Catalysis for the Sustainable Production of Bio-Fuels and Bio-Chemicals,9780444563323,,,,ES,2013/5/1,Elsevier Science & Technology,,true,3,17071326,1,3,1,0,2013/3/19,,,0,0,1,0,0,3.00,607,ebook,,0,0,,,,"Angelos Lappas,Kostas Triantafyllidis,M. St. Cker",,,,0,,
16590501,0470127201,Building Web Sites All-In-One Desk Reference for Dummies,9780470127209,,,,ES,2007/2/3,For Dummies,,true,6,990808,60,66,19,1,2007/1/1,Building Web Sites All-in-One Desk Reference For Dummies (For Dummies (Computer/Tech)),book,2,7,8,2,0,3.47,768,ebook,,0,0,"Claudia Snell,Doug Sahlin",,,,,,23,1,2,"business,non-fiction,reference,technology"
16591001,0470257202,"""does Wednesday Mean Mom's House or Dad's?"" Parenting Together While Living Apart",9780470257203,,,,ES,2008/3/31,Wiley,,true,1,16591001,2,3,1,1,2008/3/31,,,0,0,1,0,0,3.00,224,ebook,,1,1,"Lisa DaNae Dayley,Marc J. Ackerman",,,,,,1,0,,
16591501,0471431419,Unified Optical Scanning Technology,9780471431411,,,,ES,2005/2/25,Wiley-Interscience,,true,6,16591501,0,0,0,0,2001/2/15,,,0,0,0,0,0,0.00,185,ebook,,0,0,Leo Beiser,,,,,,,0,,
16592001,0471689432,Getting Rich Your Own Way: Achieve All Your Financial Goals Faster Than You Ever Thought Possible,9780471689430,,,,ES,2004/10/8,Wiley,,true,11,555266,710,572,149,20,2004/1/1,Getting Rich Your Own Way: Achieve All Your Financial Goals Faster Than You Ever Thought Possible,book,49,47,38,10,5,3.84,304,ebook,,0,0,Brian Tracy,,,,,,463,6,34,"business,non-fiction,personal-development,self-help"
16592501,0471784141,"Security Controls for Sarbanes-Oxley Section 404 It Compliance: Authorization, Authentication, and Access",9780471784142,,,,ES,2005/10/10,Wiley,,true,5,1547879,9,10,3,0,2005/10/1,"Security Controls for Sarbanes-Oxley Section 404 IT Compliance: Authorization, Authentication, and Access",,0,1,2,0,0,3.33,312,ebook,,0,0,Dennis C. Brewer,,,,,,1,2,,
16593001,0596154658,Fbml Essentials: Facebook Markup Language Fundamentals,9780596154653,,,,ES,2008/7/22,O'Reilly Media,,true,5,3382024,48,66,19,4,2008/7/22,FBML Essentials,,6,3,6,2,2,3.47,188,ebook,,0,0,Jesse Stay,,,,,,11,1,1,
16593501,0596807481,The Myths of Security: What the Computer Security Industry Doesn't Want You to Know,9780596807481,,,,ES,2009/6/16,O'Reilly Media,,true,5,5430012,204,233,73,15,2009/3/15,The Myths of Security: What the Computer Security Industry Doesn't Want You to Know,,9,15,33,13,3,3.19,264,ebook,,0,0,John Viega,,,,,,104,10,5,"business,economics,non-fiction,science,self-help,technology"
16594001,070203973X,Mental Health Care for People with Learning Disabilities E-Book,9780702039737,,,,ES,2004/4/5,Churchill Livingstone,,true,2,8629236,0,0,0,0,2004/4/5,,,0,0,0,0,0,0.00,224,ebook,,0,0,"Helena Priest,Michael Gibbs",,,,,,,0,,
16594501,0729579611,Marshall & Ruedy's on Call: Principles & Protocols: Australian Version,9780729579612,,,,ES,2011/12/1,Saunders Australia,,true,8,16178072,20,51,11,0,2007/6/1,,book,7,4,0,0,0,4.64,701,ebook,,0,0,"Anthony F.T. Brown,Mike Cadogan,Tony Celenza",,,,,,5,0,3,medical
16595001,0735655340,Microsoft(r) Visual C#(r) 2005 Step by Step,9780735655348,,,,ES,2005/10/1,Microsoft Press,,true,7,270148,145,178,51,7,2005/10/12,Microsoft  Visual C#  2005 Step by Step (Step By Step (Microsoft)),book,10,15,17,8,1,3.49,592,ebook,,0,0,John Sharp,,,,,,48,1,4,"language,non-fiction,reference"
16595501,0739142542,Conditional Press Influence in Politics,9780739142547,,,,ES,2009/8/4,Lexington Books,,true,2,16931006,0,0,0,0,2008/5/19,,,0,0,0,0,0,0.00,100,ebook,,0,0,Adam J. Schiffer,,,,,,,0,,
16596001,075247829X,"Dynamite, Treason & Plot: Terrorism in Victorian & Edwardian London",9780752478296,,,,ES,2014/5/27,History Press (SC),,true,4,12945881,26,21,6,4,2011/11/30,,,1,2,2,1,0,3.50,101,ebook,,0,0,Simon Webb,,,,,,18,1,,"history,non-fiction,research"
16596501,0764523953,CliffsQuickReview U.S. History II,9780764523953,,,,ES,1999/10/25,Cliffs Notes,,true,2,1029462,21,34,9,0,1999/10/25,U.S. History II (Cliffs Quick Review),book,2,3,4,0,0,3.78,208,ebook,,0,0,"Abraham Hoffman,Paul Soifer",,,,,,5,0,,non-fiction
16597001,0787973602,Building the Bridge as You Walk on It: A Guide for Leading Change,9780787973605,,,,ES,2004/3/29,Jossey-Bass,,true,8,83676,523,753,201,17,2004/3/29,Building the Bridge As You Walk On It: A Guide for Leading Change,,47,82,49,20,3,3.75,256,ebook,,0,0,Robert E. Quinn,,,,,,233,10,21,"art,business,leadership,non-fiction,personal-development,reference"
16597501,0810881292,A Biographical Encyclopedia of Scientists and Inventors in American Film and TV Si,9780810881297,,,,ES,2011/9/15,Scarecrow Press,,true,3,12494317,2,3,1,0,2011/9/15,,,0,0,1,0,0,3.00,342,ebook,,0,0,A. Bowdoin Van Riper,,,,,,,0,1,
16598001,0822070588,Cliffsnotes on Cervantes' Don Quixote,9780822070580,,,,ES,1999/3/17,Cliffs Notes,,true,4,3842,64,80,22,2,1999/3/3,,book,7,6,5,2,2,3.64,96,ebook,,0,0,Marianne Sturman,,,,,,16,0,9,"classics,literature,school"
16598501,0857026348,The New Careers: Individual Action and Economic Change,9780857026347,,,,ES,1999/7/1,Sage Publications (CA),,true,6,17176584,0,0,0,0,1999/1/1,,,0,0,0,0,0,0.00,192,ebook,,0,0,"Judith K. Pringle,Kerr Inkson,Michael Arthur",,,,,,,0,,
16599001,,Carthage a Visit to the Ruins,,,,,ES,1987/1/1,Ceres Productions - Tunis,eng,false,1,16599001,1,0,0,0,1987/1/1,,book,0,0,0,0,0,0.00,83,Paperback,,0,0,"Abdelmajid Ennabli,Hédi Slim",,,,,,1,0,,
16599501,1118352483,Photoshop Lightroom 4 FAQs,9781118352489,,,,ES,2012/8/29,Wiley,,true,2,16350208,2,0,0,0,2012/8/16,,,0,0,0,0,0,0.00,384,ebook,,0,0,Stan Sholik,,,,,,2,0,,
16600001,1400204380,"Dear Deb: A Woman with Cancer, a Friend with Secrets, and the Letters That Became Their Miracle",9781400204380,,,,ES,2012/10/8,Thomas Nelson,,true,8,14287148,469,607,146,39,2012/10/9,,book,69,42,25,9,1,4.16,240,ebook,,1,1,Margaret Terry,,,,,,291,9,12,"biography,christian,contemporary,fiction,memoir,non-fiction"
16600501,141144311X,The Tyranny of the Dark,9781411443112,,,,ES,2011/3/1,Barnes & Noble,eng,true,26,774825,26,29,9,2,1905/1/1,The Tyranny Of The Dark,book,1,3,2,3,0,3.22,466,ebook,,1,0,Hamlin Garland,,,,,,15,1,,fiction
16601001,1411454049,The Story of King Alfred (Barnes & Noble Digital Library),9781411454040,,,,ES,2011/5/1,Barnes & Noble,,true,9,12538696,6,7,2,2,1901/1/1,,book,0,1,1,0,0,3.50,196,ebook,,0,0,Walter Besant,,,,,,2,1,,history
16601501,1411460758,The Mechanistic Principle and the Non-Mechanical (Barnes & Noble Digital Library),9781411460751,,,,ES,2011/6/1,Barnes & Noble,,true,10,16601501,0,0,0,0,2011/6/28,,,0,0,0,0,0,0.00,136,ebook,,0,0,Paul Carus,,,,,,,0,,
16602001,1411467787,Discourse on the Origin of Inequality,9781411467781,,,,ES,2012/3/1,Barnes & Noble,eng,true,263,22472,26421,43730,11417,334,1755/1/1,Discours sur l'origine et les fondements de l'inégalité parmi les hommes,book,3472,3896,2973,791,285,3.83,192,Nook,,0,0,Jean-Jacques Rousseau,,,,,,12387,32,426,"academic,anthropology,classics,college,economics,education,essays,france,history,literature,non-fiction,philosophy,politics,reference,school,science,sociology"
16602501,141331502X,The Complete Guide to Selling a Business,9781413315028,,,,ES,2007/10/1,NOLO,,true,6,1310926,23,16,4,0,2007/10/17,The Complete Guide to Selling a Business (Book with CD-Rom),,1,2,1,0,0,4.00,496,ebook,,0,0,Fred S. Steingold,,,,,,11,0,3,
16603001,142334409X,"Arctic Gold (Deep Black, #7)",9781423344094,,,,ES,2009/2/3,Brilliance Audio,,false,2,4188721,1001,1891,478,21,2009/2/3,Deep Black: Arctic Gold,book,139,202,116,19,2,3.96,,Audio,,0,0,"Stephen Coonts,William H. Keith Jr.",,,,,,319,9,11,"action,adventure,crime,fiction,mystery,suspense,technology,thriller"
16603501,1437720668,Sleep Medicine Secrets E-Book,9781437720662,,,,ES,2004/7/13,Hanley & Belfus,,true,2,1203979,1,5,1,0,2004/6/3,Sleep Medicine Secrets,,1,0,0,0,0,5.00,300,ebook,,0,0,Damien R. Stevens,,,,,,,0,,
16604001,144220558X,Lives and Times: Individuals and Issues in American History: To 1877,9781442205581,,,,ES,2010/5/16,Rowman & Littlefield Publishers,,true,5,8268403,3,5,1,0,2010/5/16,,book,1,0,0,0,0,5.00,344,ebook,,0,0,"Blaine T. Browne,Robert C. Cottrell",,,,,,2,0,,
16604501,1446205495,An Introduction to Early Childhood Studies,9781446205495,,,,ES,2009/5/1,Sage Publications (CA),,true,11,7399991,9,24,5,0,2004/10/18,,,4,1,0,0,0,4.80,320,ebook,,0,0,,,,"Nigel Thomas,Trisha Maynard",,,2,0,,
16605001,1446224953,Cultures and Globalization: Conflicts and Tensions,9781446224953,,,,ES,2007/3/27,Sage Publications Ltd,,true,4,16605001,3,6,2,0,2007/3/27,,,0,1,0,1,0,3.00,664,ebook,,2,0,,,,"Helmut K. Anheier,Yudhishthir Raj Isar",,,1,0,,
16605501,1446230104,Improving Public Management,9781446230107,,,,ES,1990/12/18,Sage Publications (CA),,true,3,16605501,1,0,0,0,1987/11/1,,,0,0,0,0,0,0.00,272,ebook,,0,0,"Les Metcalfe,Sue Richards",,,,,,1,0,,
16606001,1446235289,Reflective Practice in Geography Teaching,9781446235287,,,,ES,2000/12/1,Sage Publications (CA),,true,6,2501296,2,3,1,0,2000/1/1,Reflective Practice in Geography Teaching,,0,0,1,0,0,3.00,320,ebook,,0,0,,,,Ashley Kent,,,,0,,
16606501,1446240460,Women's Health: Psychological and Social Perspectives,9781446240465,,,,ES,1998/6/1,Sage Publications (CA),,true,3,16606501,1,0,0,0,1998/6/24,,,0,0,0,0,0,0.00,256,ebook,,0,0,Christina Lee,,,,,,,0,,
16607001,1446246051,The Sage Handbook of Organizational Research Methods,9781446246054,,,,ES,2009/5/1,Sage Publications (CA),,true,3,7104309,2,4,1,0,2009/1/1,,book,0,1,0,0,0,4.00,776,ebook,,0,0,,,,"Alan Bryman,David A. Buchanan",,,,0,,
16607501,1446264866,Effective School Leadership: Responding to Change,9781446264867,,,,ES,1998/9/1,Sage Publications (CA),,true,6,2079969,6,7,2,0,1998/1/1,Effective School Leadership: Responding to Change,,0,1,1,0,0,3.50,192,ebook,,0,0,,,,John MacBeath,,,3,0,,
16608001,144932181X,"Sharepoint 2010 at Work: Tricks, Traps, and Bold Opinions",9781449321819,,,,ES,2012/2/8,O'Reilly Media,,true,5,16608001,4,4,1,1,2012/1/1,,,0,1,0,0,0,4.00,268,ebook,,1,1,"Alexander Bautz,Dessie Lunsford,Eric Alexander,Jim Bob Howard,Kerri Abraham,Laura Rogers,Marc D. Anderson,Mark Miller,Peter Allen,Sadalit Van Buren,Waldek Mastykarz",,,,,,2,0,,
16608501,1452206325,"Language and Literacy in Inquiry-Based Science Classrooms, Grades 3-8",9781452206325,,,,ES,2010/9/7,Corwin Publishers,,true,7,8908933,9,16,4,1,2010/9/7,,,1,2,1,0,0,4.00,168,ebook,,0,0,"Linda L. Lamme,Rose M Pringle,Zhihui Fang",,,,,,3,1,2,education
16609001,1452211604,Trainsmart: Effective Trainings Every Time,9781452211602,,,,ES,2007/7/20,Corwin Publishers,,true,6,9988969,16,32,8,1,2001/2/1,,,4,1,2,1,0,4.00,160,ebook,,0,0,,,,Rich Allen,,,6,1,,education
16609501,145222109X,Radical Media: Rebellious Communication and Social Movements,9781452221090,,,,ES,2000/8/18,"Sage Publications, Inc",,true,7,1051343,73,115,29,1,1983/12/1,Radical Media: Rebellious Communication and Social Movements,,6,16,7,0,0,3.97,440,ebook,,0,0,John D.H. Downing,,,,,,5,0,,"history,school,sociology"
16610001,145223695X,Getting in: How Not to Apply to Medical School,9781452236957,,,,ES,1999/10/22,"Sage Publications, Inc",,true,4,6719366,2,9,2,0,1999/10/1,,,1,1,0,0,0,4.50,160,ebook,,0,0,Paul Jung,,,,,,,0,,
16610501,145224703X,Organizational Learning,9781452247038,,,,ES,1995/10/1,Sage Publications (CA),,true,3,779313,7,0,0,0,1995/10/27,Organizational Learning (Organization Science),,0,0,0,0,0,0.00,632,ebook,,0,0,,,,"Lee S Sproull,Michael D. Cohen",,,4,1,,
16611001,1452252076,Families in Later Life: Connections and Transitions,9781452252070,,,,ES,2001/1/1,Sage Publications (CA),,true,2,1555350,6,7,2,1,2001/1/22,Families in Later Life: Connections and Transitions,,0,1,1,0,0,3.50,344,ebook,,1,0,"Alexis J. Walker,Diana L. White,Lori McGraw,Margaret Manoogian-O'Dell",,,,,,,0,,fiction
16611501,1452263221,Handbook of Families and Health: Interdisciplinary Perspectives,9781452263229,,,,ES,2005/6/22,"Sage Publications, Inc",,true,3,16611501,0,0,0,0,2005/6/22,,,0,0,0,0,0,0.00,544,ebook,,0,0,,,,"D. Russell Crane,Elaine S. Marshall",,,,0,,
16612001,145570413X,Certification and Core Review for Neonatal Intensive Care Nursing,9781455704132,,,,ES,2012/9/6,Saunders,eng,true,11,1294981,81,138,31,2,2007/3/29,Certification and Core Review for Neonatal Intensive Care Nursing,book,17,11,3,0,0,4.45,168,ebook,,1,0,American Association of Critical-Care Nurses,,,Robin L. Watson,,,7,0,10,
16612501,1455747408,"Advances in Respiratory Care of the Newborn, an Issue of Clinics in Perinatology",9781455747405,,,,ES,2012/10/1,Saunders,eng,true,1,16612501,1,0,0,0,2012/9/28,,book,0,0,0,0,0,0.00,240,ebook,,0,0,"Judy L. Aschner,Richard A. Polin",,,,,,1,0,,
16613001,1457114046,Expert Resumes for Teachers and Educators,9781457114045,,,,ES,2014/9/16,Jist Publishing,,true,12,825064,45,74,18,2,2001/8/1,Expert Resumes For Teachers And Educators (Expert Resumes),,8,4,6,0,0,4.11,336,ebook,,0,0,"Louise M. Kursmark,Wendy S. Enelow",,,,,,15,0,3,"business,reference"
16613501,1461630622,Seder Olam: The Rabbinic View of Biblical Chronology,9781461630623,,,,ES,1998/10/1,Jason Aronson,,true,2,21219633,2,0,0,0,1998/10/1,,,0,0,0,0,0,0.00,292,ebook,,0,0,Seder Olam Rabbah,,,Heinrich W. Guggenheimer,,,2,0,,
16614001,1461663865,Heetunka's Harvest: A Tale of the Plains Indians,9781461663867,,,,ES,1998/10/1,Roberts Rinehart Publishers,,true,6,2062452,25,40,12,4,1994/9/1,Heetunka's Harvest: A Tale of the Plains Indians,,1,5,4,1,1,3.33,32,ebook,,0,0,Jennifer Berry Jones,,,,,,7,0,,"animals,childrens,cultural,family,picture-books"
16614501,1464501513,The Iron Dragon: The Courageous Story of Lee Chin,9781464501517,,,,ES,2012/9/1,Enslow Publishers,,true,5,10215629,11,20,6,2,2010/9/1,,,2,0,2,2,0,3.33,160,ebook,,0,0,Bonnie Pryor,,,,,,5,2,,historical-fiction
16615001,1567207499,"The Modern Defense Industry: Political, Economic, and Technological Issues",9781567207491,,,,ES,2009/10/15,Praeger,eng,true,2,6813660,21,29,8,1,2009/1/1,,book,2,3,2,0,1,3.62,388,ebook,,0,0,Richard A. Bitzinger,,,,,,14,0,,"business,non-fiction"
16615501,1591363179,Microsoft Access 2010: Level 1,9781591363170,,,,ES,1900/1/1,Labyrinth Learning,,false,1,16615501,1,4,1,0,1900/1/1,,,0,1,0,0,0,4.00,171,Spiral-bound,,1,0,Pamela R Toliver,,,,,,,0,,
16616001,1598842382,"Encyclopedia of the U.S. Government and the Environment: History, Policy, and Politics: History, Policy, and Politics",9781598842388,,,,ES,2010/12/21,ABC-CLIO,,true,1,16616001,0,0,0,0,2010/12/21,,,0,0,0,0,0,0.00,874,ebook,,0,0,Matthew J. Lindstrom,,,,,,,0,,
16616501,1602796947,How Did They Build That? School,9781602796942,,,,ES,2009/8/1,Cherry Lake Publishing,,true,6,12291888,0,0,0,0,2009/1/1,,,0,0,0,0,0,0.00,24,ebook,,0,0,Matt Mullins,,,,,,,0,,
16617001,1602916705,Franklin Delano Roosevelt Teacher's Resource Guide,9781602916708,,,,ES,2008/9/1,Saddleback Educational Publishing,,true,1,16617001,0,0,0,0,2008/9/1,,,0,0,0,0,0,0.00,16,ebook,,0,0,,,,Saddleback Educational Publishing,,,,0,,
16617501,1608458733,The Garbage Crisis: A Global Challenge for Egineers,9781608458738,,,,ES,2013/1/1,Morgan & Claypool,,true,1,16617501,2,0,0,0,2013/1/1,,,0,0,0,0,0,0.00,155,ebook,,0,0,"Randika Jayasinghe,Toni Smythe",,,,,,2,0,,non-fiction
16618001,1611172217,Understanding Colum McCann,9781611172218,,,,ES,2012/8/24,University of South Carolina Press,,true,5,9076092,26,3,1,0,2010/12/20,,,0,0,1,0,0,3.00,256,ebook,,0,0,John Cusatis,,,,,,23,0,,
16618501,1612114229,Italy,9781612114224,,,,ES,2010/8/1,Bellwether Media,,true,3,14526666,14,23,6,1,2010/8/1,,,3,0,2,1,0,3.83,25,ebook,,0,0,,,Walter Simmons,,,,3,3,,non-fiction
16619001,1612476295,Sea Disasters,9781612476292,,,,ES,2012/9/1,"Saddleback Educational Publishing, Inc.",,true,4,15100939,6,8,2,0,2012/9/1,,,0,2,0,0,0,4.00,92,ebook,,0,0,Ann Weil,,,,,,,0,1,
16619501,1742194680,The Spinifex Quiz Book,9781742194684,,,,ES,1993/9/1,Spinifex Press,,true,5,7647336,4,3,1,0,1993/1/1,,book,0,0,1,0,0,3.00,113,ebook,,0,0,Susan Hawthorne,,,,,,,0,,"feminism,non-fiction"
16620001,1844277569,All-Age Lectionary Services Year B,9781844277568,,,,ES,2011/6/1,Scripture Union (UK),,true,2,16620001,0,0,0,0,2011/1/1,,,0,0,0,0,0,0.00,320,ebook,,0,0,,,,Tricia Williams,,,,0,,
16620501,1848034873,Practice Psychometric Tests: How to Familiarise Yourself with Genuine Recruitment Tests and Get the Job You Want,9781848034877,,,,ES,2014/5/14,How to Books,,true,2,21210844,5,3,1,0,2005/1/28,,,0,0,1,0,0,3.00,203,ebook,,0,0,Andrea Shavick,,,,,,2,0,,
16621001,1849205272,Understanding the Sociology of Health: An Introduction,9781849205276,,,,ES,2008/1/15,Sage Publications (CA),,true,7,15004399,18,28,7,1,2008/1/15,,,3,1,3,0,0,4.00,320,ebook,,0,0,"Anne-Marie Barry,Chris Yuill",,,,,,7,0,1,
16621501,1903071593,Crater's Edge: A Family's Epic Journey Through Wartime Russia,9781903071595,,,,ES,2014/5/14,Bene Factum Publishing Ltd,,true,6,22370649,17,40,10,3,2010/5/1,,book,3,4,3,0,0,4.00,214,ebook,,0,0,"Michał Giedroyć,Norman Davies",,,,,,4,1,,"history,non-fiction"
16622001,193765432X,Diesel Fuel Makes Me Cry,9781937654320,,,,ES,2012/1/1,Intermedia Publishing Group,,false,1,16622001,0,0,0,0,2012/1/1,,,0,0,0,0,0,0.00,140,Paperback,,0,0,Don Birchfield,,,,,,,0,,
16622501,3437592564,Leitfaden H Usliche Pflege,9783437592560,,,,ES,2008/8/15,Fischer Gustav Verlag GmbH & Co. KG,,true,1,16622501,0,0,0,0,2008/8/15,,,0,0,0,0,0,0.00,640,ebook,,0,0,,,,"Ariane Herrmann,Heike Palte",,,,0,,
16623001,5511996807,USS Berberry (1864),9785511996806,,,,ES,2013/1/18,Book on Demand Ltd.,,false,1,16623001,0,0,0,0,2012/7/21,,,0,0,0,0,0,0.00,84,Paperback,,0,0,,,,"Jesse Russell,Ronald Cohn",,,,0,,
16623501,5512011324,Waltraut Haas,9785512011324,,,,ES,2013/1/28,Book on Demand Ltd.,,false,1,16623501,0,0,0,0,2012/1/21,,,0,0,0,0,0,0.00,106,Paperback,,0,0,,,,"Jesse Russell,Ronald Cohn",,,,0,,
16624001,551202549X,Xenophidia,9785512025499,,,,ES,2013/1/28,Book on Demand Ltd.,,false,1,16624001,0,0,0,0,2012/3/6,,,0,0,0,0,0,0.00,104,Paperback,,0,0,,,,"Jesse Russell,Ronald Cohn",,,,0,,
16624501,5512039199,Venezia Park Historic District,9785512039199,,,,ES,2013/1/14,Book on Demand Ltd.,,false,1,16624501,0,0,0,0,2012/3/28,,,0,0,0,0,0,0.00,82,Paperback,,0,0,,,,"Jesse Russell,Ronald Cohn",,,,0,,
16625001,5512053175,Ugo Fano,9785512053171,,,,ES,2013/1/24,Book on Demand Ltd.,,false,1,16625001,0,0,0,0,2012/5/3,,,0,0,0,0,0,0.00,110,Paperback,,0,0,,,,"Jesse Russell,Ronald Cohn",,,,0,,
16625501,5512067877,Raigarh,9785512067871,,,,ES,2013/1/26,Book on Demand Ltd.,,false,1,16625501,0,0,0,0,2012/3/19,,,0,0,0,0,0,0.00,98,Paperback,,0,0,,,,"Jesse Russell,Ronald Cohn",,,,0,,
16626001,5512082515,Jund Filastin,9785512082515,,,,ES,2013/1/10,Book on Demand Ltd.,,false,1,16626001,0,0,0,0,2012/1/14,,,0,0,0,0,0,0.00,84,Paperback,,0,0,,,,"Jesse Russell,Ronald Cohn",,,,0,,
16626501,5512098004,Official Guide of the Railways,9785512098004,,,,ES,2012/3/15,Book on Demand Ltd.,,false,1,16626501,0,0,0,0,2012/3/15,,,0,0,0,0,0,0.00,138,Paperback,,0,0,,,,"Jesse Russell,Ronald Cohn",,,,0,,
16627001,5512112155,Logical Security,9785512112151,,,,ES,2013/1/27,Book on Demand Ltd.,,false,1,16627001,0,0,0,0,2012/2/28,,,0,0,0,0,0,0.00,154,Paperback,,0,0,,,,"Jesse Russell,Ronald Cohn",,,,0,,
16627501,5512432923,Runbook,9785512432921,,,,ES,2013/1/19,Book on Demand Ltd.,,false,1,16627501,0,0,0,0,2012/7/17,,,0,0,0,0,0,0.00,152,Paperback,,0,0,,,,"Jesse Russell,Ronald Cohn",,,,0,,
16628001,5512460382,Pacific Publishing Company,9785512460382,,,,ES,2013/1/19,Book on Demand Ltd.,,false,1,16628001,0,0,0,0,2012/3/13,,,0,0,0,0,0,0.00,142,Paperback,,0,0,,,,"Jesse Russell,Ronald Cohn",,,,0,,
16628501,5512493523,Walk to Guangzhou,9785512493526,,,,ES,2013/1/9,Book on Demand Ltd.,,false,1,16628501,0,0,0,0,2012/2/3,,,0,0,0,0,0,0.00,96,Paperback,,0,0,,,,"Jesse Russell,Ronald Cohn",,,,0,,
16629001,5512516515,Mirabilis Laevis,9785512516515,,,,ES,2013/1/7,Book on Demand Ltd.,,false,1,16629001,0,0,0,0,2012/3/8,,,0,0,0,0,0,0.00,150,Paperback,,0,0,,,,"Jesse Russell,Ronald Cohn",,,,0,,
16629501,5512530526,Victoria Koblenko,9785512530528,,,,ES,2013/1/21,Book on Demand Ltd.,,false,1,16629501,0,0,0,0,2012/3/30,,,0,0,0,0,0,0.00,150,Paperback,,0,0,,,,"Jesse Russell,Ronald Cohn",,,,0,,
16630001,5512607588,Lisa Ryder,9785512607589,,,,ES,2013/1/18,Book on Demand Ltd.,,false,1,16630001,0,0,0,0,2012/6/9,,,0,0,0,0,0,0.00,174,Paperback,,0,0,,,,"Jesse Russell,Ronald Cohn",,,,0,,
16630501,5512620886,Friedrich Bogislav Von Tauentzien,9785512620885,,,,ES,2013/1/31,Book on Demand Ltd.,,false,1,16630501,0,0,0,0,2012/7/22,,,0,0,0,0,0,0.00,150,Paperback,,0,0,,,,"Jesse Russell,Ronald Cohn",,,,0,,
16631001,5512633821,Ktvx,9785512633823,,,,ES,2013/1/12,Book on Demand Ltd.,,false,1,16631001,0,0,0,0,2012/5/1,,,0,0,0,0,0,0.00,86,Paperback,,0,0,,,,"Jesse Russell,Ronald Cohn",,,,0,,
16631501,5512646974,Carter Doctrine,9785512646977,,,,ES,2013/1/23,Book on Demand Ltd.,,false,1,16631501,0,0,0,0,2012/6/13,,,0,0,0,0,0,0.00,126,Paperback,,0,0,,,,"Jesse Russell,Ronald Cohn",,,,0,,
16632001,5512660098,Abelian Von Neumann Algebra,9785512660096,,,,ES,2013/1/22,Book on Demand Ltd.,,false,1,16632001,1,0,0,0,2012/5/23,,,0,0,0,0,0,0.00,132,Paperback,,0,0,,,,"Jesse Russell,Ronald Cohn",,,1,0,,
16632501,5512672789,"Henry Jermyn, 1st Earl of St Albans",9785512672785,,,,ES,2013/1/28,Book on Demand Ltd.,,false,1,16632501,0,0,0,0,2012/5/7,,,0,0,0,0,0,0.00,132,Paperback,,0,0,,,,"Jesse Russell,Ronald Cohn",,,,0,,
16633001,5512686623,Matthew Holness,9785512686621,,,,ES,2013/1/23,Book on Demand Ltd.,,false,1,16633001,0,0,0,0,2012/1/3,,,0,0,0,0,0,0.00,94,Paperback,,0,0,,,,"Jesse Russell,Ronald Cohn",,,,0,,
16633501,5512701363,Acn Inc.,9785512701362,,,,ES,2013/1/21,Book on Demand Ltd.,,false,1,16633501,0,0,0,0,2012/2/29,,,0,0,0,0,0,0.00,86,Paperback,,0,0,,,,"Jesse Russell,Ronald Cohn",,,,0,,
16634001,5512715321,Julian Mateos,9785512715321,,,,ES,2013/1/27,Book on Demand Ltd.,,false,1,16634001,0,0,0,0,2012/1/3,,,0,0,0,0,0,0.00,154,Paperback,,0,0,,,,"Jesse Russell,Ronald Cohn",,,,0,,
16634501,5512728180,Coppermine Expedition of 1819 1822,9785512728185,,,,ES,2013/1/16,Book on Demand Ltd.,,false,1,16634501,1,0,0,0,2012/2/9,,,0,0,0,0,0,0.00,134,Paperback,,0,0,,,,"Jesse Russell,Ronald Cohn",,,1,0,,
16635001,5512741012,Maccabi Petah Tikva F.C.,9785512741016,,,,ES,2013/1/10,Book on Demand Ltd.,,false,1,16635001,0,0,0,0,2012/2/26,,,0,0,0,0,0,0.00,78,Paperback,,0,0,,,,"Jesse Russell,Ronald Cohn",,,,0,,
16635501,5512821628,"Rammuka, Voru County",9785512821626,,,,ES,2013/1/10,Book on Demand Ltd.,,false,1,16635501,0,0,0,0,2012/2/27,,,0,0,0,0,0,0.00,92,Paperback,,0,0,,,,"Jesse Russell,Ronald Cohn",,,,0,,
16636001,8178299569,Urban Women in Contemporary India: A Reader,9788178299563,,,,ES,2007/4/4,Sage Publications (CA),,true,4,6896062,7,8,3,0,2007/1/1,,,0,0,2,1,0,2.67,372,ebook,,0,0,,,,Rehana Ghadially,,,3,0,1,
16636501,9004235302,Kokugaku in Meiji-Period Japan: The Modern Transformation of 'National Learning' and the Formation of Scholarly Societies,9789004235304,,,,ES,2012/9/19,Global Oriental,,false,1,16636501,0,0,0,0,2012/9/15,,,0,0,0,0,0,0.00,314,Hardcover,,0,0,Michael Wachutka,,,,,,,0,,
16637001,0307933547,A Man in Full,9780307933546,,,,ES,2010/11/9,Books on Tape,,false,60,86172,23529,57624,15089,850,1998/11/1,A Man in Full,book,3977,6003,3798,1022,289,3.82,,Audio,,0,0,Tom Wolfe,,,,,,5539,35,414,"adult-fiction,american,business,classics,contemporary,drama,fiction,historical-fiction,humor,leadership,literary-fiction,literature,non-fiction,novels,philosophy,politics,realistic-fiction,unfinished"
16637501,0739360612,Marc Brown's Arthur Anniversary Collection: Arthur's Mystery Envelope; Arthur Makes the Team; Arthur Accused!; Arthur and the Lost Diary,9780739360613,,,,ES,2008/3/11,Books on Tape,eng,false,3,1039286,28,53,13,2,2001/2/27,Marc Brown's Arthur Anniversary Collection: Arthur's Mystery Envelope; Arthur Makes the Team; Arthur Accused!; Arthur and the Lost Diary,book,6,4,2,0,1,4.08,,Audio Cassette,,1,1,Marc Brown,,,,,,15,0,,"childrens,short-stories"
16638001,141593942X,Nefertiti,9781415939420,,,,ES,2007/7/31,Books on Tape,,false,53,481446,78064,126033,30977,2431,2007/1/1,Nefertiti,book,11758,11684,5824,1324,387,4.07,,Audiobook,,0,0,Michelle Moran,,,,,,42715,86,713,"adult,adult-fiction,biography,cultural,drama,family,fiction,historical,historical-fiction,history,mythology,non-fiction,novels,politics,religion,romance,young-adult"
16638501,1433237881,The Vision of Leon Walras,9781433237881,,,,ES,2006/4/4,Knowledge Products,,true,1,16638501,5,10,2,0,2006/4/4,,,2,0,0,0,0,5.00,,ebook,,2,0,Donald Walker,,,,,,2,0,,philosophy
16639001,1455102741,Octopussy and the Living Daylights,9781455102747,,,,ES,2010/7/2,Blackstone Audiobooks,,false,75,3765,12949,22135,6235,340,1966/6/23,Octopussy and The Living Daylights,book,1056,2100,2377,622,80,3.55,,Audio,,0,0,Ian Fleming,,,,,,4683,35,153,"action,adult,adventure,british-literature,classics,crime,detective,fiction,literature,movies,mystery,mystery-thriller,novels,short-stories,suspense,thriller"
16639501,1464006423,"Believing the Lie (Inspector Lynley, #17)",9781464006425,,,,ES,2012/1/10,Recorded Books,eng,false,46,11737276,19875,43289,11417,1538,2012/1/1,Believing the Lie,book,3017,4380,2937,790,293,3.79,23,Audiobook,,9,3,Elizabeth  George,,,,,Davina Porter,5224,49,598,"adult,adult-fiction,contemporary,crime,detective,drama,fiction,murder-mystery,mystery,mystery-thriller,novels,suspense,thriller"
16640001,6610538786,"Cognitive Humanistic Therapy: Buddhism, Christianity and Being Fully Human",9786610538782,,,,ES,2004/4/18,Sage Publications (CA),,true,7,6137360,15,19,4,0,2004/1/1,"Cognitive Humanistic Therapy: Buddhism, Christianity and Being Fully Human",,3,1,0,0,0,4.75,263,ebook,,0,0,Richard Nelson-Jones,,,,,,11,0,,
16640501,6611361944,Child Protection: An Introduction,9786611361945,,,,ES,2003/1/1,Sage Publications (CA),,true,10,1772612,16,33,7,0,2003/1/1,Child Protection: An Introduction,,5,2,0,0,0,4.71,264,ebook,,0,0,Chris Beckett,,,,,,4,0,,politics
16641001,6612387149,Introduction to Philosophy of Art,9786612387142,,,,ES,2003/9/25,Cambridge University Press,,true,14,885788,86,103,32,2,2003/1/1,An Introduction to the Philosophy of Art (Cambridge Introductions to Philosophy),book,3,8,15,5,1,3.22,297,ebook,,0,0,Richard T. Eldridge,,,,,,30,1,9,"art,philosophy"
16641501,6612395222,Human Impact on Weather Climate 2ed,9786612395222,,,,ES,2007/2/1,Cambridge University Press,,true,11,8102249,13,6,2,0,1991/11/30,Human Impacts on Weather and Climate,,0,1,0,1,0,3.00,331,ebook,,0,0,"Roger A. Pielke Sr.,William R. Cotton",,,,,,5,0,2,
16642001,6612623780,Race and Criminal Justice,9786612623783,,,,ES,2008/12/18,Sage Publications (CA),,true,1,16642001,0,0,0,0,2008/12/18,,,0,0,0,0,0,0.00,235,ebook,,0,0,Bhui Hindpal Singh,,,,,,,0,,
16642501,6612966629,Field and Laboratory Methods in Primatology,9786612966620,,,,ES,2011/2/28,Cambridge University Press,,true,8,948668,40,19,5,0,2003/1/1,Field and Laboratory Methods in Primatology: A Practical Guide,,2,0,3,0,0,3.80,457,ebook,,0,0,Deborah J. Curtis,,,Joanna M Setchell,,,23,1,2,
16643001,6613329878,Geological Fluid Dynamics: Sub-Surface Flow and Reactions,9786613329875,,,,ES,2009/2/19,Milliken,,true,3,16987862,0,0,0,0,2009/2/19,,,0,0,0,0,0,0.00,298,ebook,,0,0,Owen M Phillips,,,,,,,0,,
16643501,6613887242,Plato's Erotic World,9786613887245,,,,ES,2012/7/31,Not Avail,,true,2,17007524,0,0,0,0,2012/7/31,,,0,0,0,0,0,0.00,256,ebook,,0,0,Jill Gordon,,,,,,,0,,
16644001,0203079981,"Culture, Religion and Conflict in Muslim Southeast Asia: Negotiating Tense Pluralisms",9780203079980,,,,ES,2013/1/1,Routledge,,false,2,16644001,0,0,0,0,2012/12/1,,,0,0,0,0,0,0.00,,Unknown Binding,,0,0,,,Joseph A. Camilleri,,,,,0,,
16644501,0470126930,"Business Process Outsourcing: Process, Strategies, and Contracts",9780470126936,,,,ES,2007/3/22,Wiley,,true,6,866716,8,15,4,0,1999/11/1,"Business Process Outsourcing: Process, Strategies, and Contracts",,1,1,2,0,0,3.75,584,ebook,,0,0,"Barbara Murphy Melby,John K. Halvey",,,,,,2,0,2,
16645001,0470594837,Frommer's Florida 2010,9780470594834,,,,ES,2009/12/15,Frommer's,,true,5,7127300,14,43,11,2,2009/1/1,,book,5,2,2,2,0,3.91,672,ebook,,0,0,Lesley Abravanel,,,,,,,1,,"non-fiction,travel"
16645501,0471791490,"Frommer's Florence, Tuscany & Umbria",9780471791492,,,,ES,2006/4/12,Frommer's,,true,16,13837930,32,70,19,4,2006/1/1,"Frommer's Florence, Tuscany & Umbria (Frommer's Complete)",book,6,4,6,3,0,3.68,501,ebook,,0,0,John Moretti,,,,,,7,0,,"non-fiction,reference,travel"
16646001,0764529579,Frommer's New Orleans 2002,9780764529573,,,,ES,2002/4/26,Frommer's,,true,2,6065728,2,3,1,0,2001/11/1,"Frommer's 2002 New Orleans (Frommer's New Orleans, 2002)",book,0,0,1,0,0,3.00,320,ebook,,0,0,Mary Herczog,,,,,,,1,,
16646501,0876594445,Real Classroom Makeovers: Practical Ideas for Early Childhood Classrooms,9780876594445,,,,ES,2012/9/1,Gryphon House Inc.,,false,6,13236820,10,22,5,1,2012/6/1,,,3,1,1,0,0,4.40,160,Unknown Binding,,0,0,"Pam Evanshen,Rebecca Isbell",,,,,,5,0,,"education,teaching"
16647001,1118043472,"Nuclear Energy Encyclopedia: Science, Technology, and Applications",9781118043479,,,,ES,2011/6/24,Wiley,,true,5,13060465,2,0,0,0,2011/6/24,,,0,0,0,0,0,0.00,448,ebook,,0,0,,,Steven Krivit,"Jay H. Lehr,Thomas B. Kingery III",,,2,0,,
16647501,1118095847,ACT for Dummies,9781118095843,,,,ES,2011/11/29,For Dummies,,true,16,11357654,31,50,13,2,2011/11/16,,,4,5,3,0,1,3.85,528,ebook,,0,0,"Lisa Zimmer Hatch,Scott A. Hatch",,,,,,14,0,2,school
16648001,1118194411,"Theodore Roosevelt National Park, North Dekota: Frommer's Shortcuts",9781118194416,,,,ES,2012/4/2,Frommer's,,true,3,16648000,0,0,0,0,2012/4/2,,,0,0,0,0,0,0.00,29,ebook,,0,0,Frommer's,,,,,,,0,,
16648501,1118251857,"AARP Badlands National Park and the Black Hills, South Dakota: Shortcuts",9781118251850,,,,ES,2012/11/14,Frommer's,,true,3,16648501,0,0,0,0,2012/5/14,,,0,0,0,0,0,0.00,,ebook,,0,0,Frommer's,,,,,,,0,,
16649001,1118342992,"Marketing in the Age of Google, Revised and Updated: Your Online Strategy Is Your Business Strategy",9781118342992,,,,ES,2012/3/30,Wiley,,true,18,7714891,993,1367,349,24,2010/4/15,,book,109,133,80,23,4,3.92,272,ebook,,0,0,Vanessa Fox,,,,,,86,10,38,"business,non-fiction,research,technology"
16649501,1119979838,Principles of Communications Networks and Systems,9781119979838,,,,ES,2011/9/13,Wiley,,true,7,13720292,7,8,2,0,2011/1/1,,,1,0,1,0,0,4.00,800,ebook,,0,0,,,,"Michele Zorzi,Nevio Benvenuto",,,4,0,,
16650001,1400844711,The Two Yvonnes: Poems,9781400844715,,,,ES,2012/9/30,Princeton University Press,,true,3,17009252,24,56,14,1,2012/10/1,,,4,7,2,1,0,4.00,80,ebook,,2,0,Jessica Greenbaum,,,,,,9,0,1,poetry
16650501,1446905306,Religious Studies. Christianity and Islam,9781446905302,,,,ES,2012/10/1,Pearson Education,,false,1,16650501,10,18,7,0,2012/10/1,,,0,2,1,3,1,2.57,117,Paperback,,7,0,Tanya Hill,,,,,,2,0,,
16651001,1590208838,Yellow Emperor's Cure,9781590208830,,,,ES,2011/10/1,Overlook,,true,11,13060133,387,540,175,26,2011/1/1,The Yellow Emperor's Cure,book,16,41,71,36,11,3.09,320,ebook,,0,0,Kunal Basu,,,,,,157,1,16,"drama,fiction,historical,historical-fiction,medical,novels,relationships,travel,war"
16651501,1602703841,Discovering Tyrannosaurus Rex,9781602703841,,,,ES,2008/1/1,Looking Glass Library,,true,3,5540872,2,3,1,0,2008/1/1,Discovering Tyrannosaurus Rex (Dinosaur Digs),book,0,0,1,0,0,3.00,33,ebook,,0,0,Rena Korb,,,,,,,0,,animals
16652001,1604539143,Randolph Caldecott: Renowned British Illustrator,9781604539141,,,,ES,2009/8/1,Essential Library,eng,true,3,7838788,2,3,1,0,2009/8/15,,book,0,0,1,0,0,3.00,114,ebook,,0,0,Rebecca Rowell,,,,,,1,3,,non-fiction
16652501,1616133562,John McCain: POW & Statesman,9781616133566,,,,ES,2010/1/1,Essential Library,,true,3,10142372,3,4,1,0,2010/1/1,,book,0,1,0,0,0,4.00,114,ebook,,0,0,Tom Robinson,,,,,,2,0,,
16653001,1616413042,Icarus eBook,9781616413040,,,,ES,2008/1/1,Short Tales,,true,2,16653001,0,0,0,0,2008/1/1,,,0,0,0,0,0,0.00,34,ebook,,0,0,Dan Mishkin,,,,,,,0,,
16653501,1617144274,Eaten by a Shark,9781617144271,,,,ES,2010/1/1,ABDO & Daughters,,true,3,11411334,10,18,4,0,2010/1/1,,book,3,0,1,0,0,4.50,34,ebook,,0,0,Sue L. Hamilton,,,,,,5,0,,
16654001,1617581925,Skate + Board=skateboard,9781617581922,,,,ES,2004/1/1,SandCastle,,true,3,3831620,2,4,1,0,2003/9/1,"Skate + Board = Skateboard (Rondeau, Amanda, Compound Words.)",book,0,1,0,0,0,4.00,26,ebook,,0,0,Amanda Rondeau,,,,,,,0,,
16654501,1617588121,Henry Ford: Manufacturing Mogul: Manufacturing Mogul,9781617588129,,,,ES,2010/8/1,Essential Library,,true,3,12478956,4,9,2,1,2010/9/1,,book,1,1,0,0,0,4.50,114,ebook,,0,0,M.J. York,,,,,,,0,,
16655001,1781090122,The People of Forever Are Not Afraid,9781781090121,,,,ES,2012/9/20,Hogarth,,false,47,13274154,6605,6853,2150,351,2012/1/1,The People of Forever Are Not Afraid,book,264,572,764,403,147,3.19,320,Paperback,,2,1,Shani Boianjiu,,,,,,3947,41,109,"adult,contemporary,cultural,drama,fiction,historical,historical-fiction,history,literary-fiction,literature,modern,non-fiction,novels,unfinished,war,young-adult"
16655501,1907241361,Creating and Thinking Critically,9781907241369,,,,ES,2012/10/1,Practical Pre-School Books,,false,1,16655501,1,1,1,0,2012/10/1,,,0,0,0,0,1,1.00,64,Paperback,,1,0,Di Chilvers,,,,,,1,0,,
16656001,3527641920,"Porous Silicon in Practice: Preparation, Characterization and Applications",9783527641925,,,,ES,2012/1/9,Wiley-Vch,,true,4,17151597,0,0,0,0,2012/1/9,,,0,0,0,0,0,0.00,262,ebook,,0,0,M J Sailor,,,,,,,0,,
16656501,5513110660,List of High Schools in Texas,9785513110668,,,,ES,2013/1/25,Book on Demand Ltd.,,false,1,16656501,0,0,0,0,2012/2/2,,,0,0,0,0,0,0.00,168,Paperback,,0,0,,,,"Jesse Russell,Ronald Cohn",,,,0,,
16657001,5513118742,List of United Kingdom Locations: Bur-Bz,9785513118749,,,,ES,2013/1/24,Book on Demand Ltd.,,false,1,16657001,0,0,0,0,2012/3/23,,,0,0,0,0,0,0.00,90,Paperback,,0,0,,,,"Jesse Russell,Ronald Cohn",,,,0,,
16657501,551312680X,List of Places in Delaware,9785513126805,,,,ES,2013/1/10,Book on Demand Ltd.,,false,1,16657501,0,0,0,0,2012/1/16,,,0,0,0,0,0,0.00,148,Paperback,,0,0,,,,"Jesse Russell,Ronald Cohn",,,,0,,
16658001,5513134756,List of Masonic Buildings in the United States,9785513134756,,,,ES,2013/1/6,Book on Demand Ltd.,,false,1,16658001,0,0,0,0,2012/7/17,,,0,0,0,0,0,0.00,82,Paperback,,0,0,,,,"Jesse Russell,Ronald Cohn",,,,0,,
16658501,5513142880,2011 Libyan Civil War,9785513142881,,,,ES,2013/1/10,Book on Demand Ltd.,,false,1,16658501,2,0,0,0,2012/2/20,,,0,0,0,0,0,0.00,110,Paperback,,0,0,,,,"Jesse Russell,Ronald Cohn",,,2,0,,
16659001,551326269X,List of People Who Were Beheaded,9785513262695,,,,ES,2013/1/2,Book on Demand Ltd.,,false,1,16659001,0,0,0,0,2012/2/9,,,0,0,0,0,0,0.00,154,Paperback,,0,0,,,,"Jesse Russell,Ronald Cohn",,,,0,,
16659501,5513270587,List of Compositions by Gustav Holst,9785513270584,,,,ES,2013/1/22,Book on Demand Ltd.,,false,1,16659501,0,0,0,0,2012/5/12,,,0,0,0,0,0,0.00,94,Paperback,,0,0,,,,"Jesse Russell,Ronald Cohn",,,,0,,
16660001,5513278731,Byzantine Army,9785513278733,,,,ES,2012/3/1,Book on Demand Ltd.,,false,1,16660001,0,0,0,0,2012/3/1,,,0,0,0,0,0,0.00,78,Paperback,,0,0,,,,"Jesse Russell,Ronald Cohn",,,,0,,
16660501,5513286467,Edinburgh Trams,9785513286462,,,,ES,2012/1/23,Book on Demand Ltd.,,false,1,16660501,0,0,0,0,2012/1/23,,,0,0,0,0,0,0.00,150,Paperback,,0,0,,,,"Jesse Russell,Ronald Cohn",,,,0,,
16661001,5513294133,Nuwaubian Nation,9785513294139,,,,ES,2012/8/16,Book on Demand Ltd.,,false,1,16661001,0,0,0,0,2012/8/16,,,0,0,0,0,0,0.00,82,Paperback,,0,0,,,,"Jesse Russell,Ronald Cohn",,,,0,,
16661501,5513302640,Foreign Relations of Finland,9785513302643,,,,ES,2013/1/20,Book on Demand Ltd.,,false,1,16661501,0,0,0,0,2012/7/1,,,0,0,0,0,0,0.00,90,Paperback,,0,0,,,,"Jesse Russell,Ronald Cohn",,,,0,,
16662001,5513309947,2009 Atlanta Braves Season,9785513309949,,,,ES,2013/1/25,Book on Demand Ltd.,,false,1,16662001,0,0,0,0,2012/5/2,,,0,0,0,0,0,0.00,138,Paperback,,0,0,,,,"Jesse Russell,Ronald Cohn",,,,0,,
16662501,5513319462,Recovery (Eminem Album),9785513319467,,,,ES,2012/8/17,Book on Demand Ltd.,,false,1,16662501,1,0,0,0,2012/8/17,,,0,0,0,0,0,0.00,68,Paperback,,0,0,,,,"Jesse Russell,Ronald Cohn",,,1,0,,
16663001,5513327627,Conventional PCI,9785513327622,,,,ES,2013/1/11,Book on Demand Ltd.,,false,1,16663001,0,0,0,0,2012/2/6,,,0,0,0,0,0,0.00,174,Paperback,,0,0,,,,"Jesse Russell,Ronald Cohn",,,,0,,
16663501,5513335689,List of Plants by Common Name (Sonoran Desert),9785513335689,,,,ES,2013/1/5,Book on Demand Ltd.,,false,1,16663501,1,0,0,0,2012/3/6,,,0,0,0,0,0,0.00,168,Paperback,,0,0,,,,"Jesse Russell,Ronald Cohn",,,1,0,,
16664001,5513502119,"Peter, Paul and Mary",9785513502111,,,,ES,2012/2/16,Book on Demand Ltd.,,false,1,16664001,0,0,0,0,2012/2/16,,,0,0,0,0,0,0.00,134,Paperback,,0,0,,,,"Jesse Russell,Ronald Cohn",,,,0,,
16664501,9185657123,"Festung Posen: V. 1: ""Bastion an Der Wache""",9789185657124,,,,ES,2012/9/1,Leandoer and Eckholm,,false,1,16664501,0,0,0,0,2012/9/1,,,0,0,0,0,0,0.00,,Hardcover,,0,0,Eric Linderholm,,,,,,,0,,
16665001,0470944447,Las Vegas for Dummies,9780470944448,,,,ES,2010/11/22,For Dummies,,true,6,9020991,24,50,13,1,2010/10/26,,,4,4,4,1,0,3.85,336,ebook,,0,0,Rick Garman,,,,,,7,0,,travel
16665501,1118191544,"Botswana, South Africa: Frommer's Shortcuts",9781118191545,,,,ES,2012/4/3,Frommer's,,true,3,16346445,0,0,0,0,2011/12/6,,,0,0,0,0,0,0.00,92,ebook,,0,0,Frommer's,,,,,,,0,,
16666001,6611064621,"Database Systems: A Practical Approach to Design, Implementation, and Management. International Computer Science Series",9786611064624,,,,ES,2005/1/1,Pearson Education UK,,true,6,788690,139,152,44,1,1999/12/23,"Database Systems: A Practical Approach to Design, Implementation, and Management (3rd Edition)",book,10,9,18,5,2,3.45,1424,ebook,,1,0,"Carolyn Begg,Thomas Connolly",,,,,,63,2,4,"grad-school,technology,textbooks"
16666501,6612701935,International Relations Today: Concepts and Applications,9786612701931,,,,ES,2010/1/1,Milliken,,true,3,16941805,25,11,3,0,2010/1/1,,,2,0,0,0,1,3.67,320,ebook,,1,0,Aneek Chatterjee,,,,,,18,0,2,
16667001,6613895121,The Ecology of the Spoken Word: Amazonian Storytelling and Shamanism Among the Napo Runa,9786613895127,,,,ES,2012/2/9,Not Avail,,true,4,23829432,1,0,0,0,2012/2/9,,,0,0,0,0,0,0.00,265,ebook,,0,0,"Edith Felicia Calapucha-Tapuy,Michael A. Uzendoski",,,,,,1,0,,
16667501,6613900249,Managing Privacy Through Accountability,9786613900241,,,,ES,2012/8/13,Not Avail,,true,5,16667501,5,7,2,0,2012/8/13,,,0,1,1,0,0,3.50,309,ebook,,2,0,,,,"Carla Ilten,Daniel Guagnin,Daniel Neyland,Hector Postigo,Inga Kroener,Leon Hempel",,,3,0,,politics
16668001,0547540442,"Hubert's Freaks: The Rare-Book Dealer, the Times Square Talker, and the Lost Photos of Diane Arbus",9780547540443,,,,ES,2009/4/15,Mariner Books,,true,6,2282482,606,1039,288,63,2008/4/1,"Hubert's Freaks: The Rare-Book Dealer, the Times Square Talker, and the Lost Photos of Diane Arbus",book,51,114,87,31,5,3.61,288,ebook,,0,0,Gregory Gibson,,,,,,233,6,2,"american-history,americana,art,biography,fiction,history,non-fiction"
16668501,0821389483,Financing Africa's Cities: The Imperative of Local Investment,9780821389485,,,,ES,2012/7/1,World Bank Publications,,true,2,13796332,1,5,1,1,2012/6/15,,,1,0,0,0,0,5.00,378,ebook,,0,0,Thierry Paulais,,,,,,,0,,"business,economics"
16669001,1118474899,ABC of Resuscitation,9781118474891,,,,ES,2012/11/21,Bmj Publishing Group,,true,6,15928565,2,0,0,0,2012/11/12,,,0,0,0,0,0,0.00,128,ebook,,0,0,,,,Jasmeet Soar,,,2,0,,
16669501,1441262377,No Woman So Fair,9781441262370,,,,ES,2003/5/1,Bethany House Publishers,,true,6,359538,602,1292,299,15,2003/1/1,No Woman So Fair,book,160,83,49,6,1,4.32,,ebook,,0,0,Gilbert Morris,,,,,,184,7,19,"adult,christian,christian-fiction,fiction,historical-fiction"
16670001,1555817165,Molecular Genetics of Bacteria,9781555817169,,,,ES,2014/9/16,ASM Press,,true,7,1176268,207,223,54,1,1997/5/1,Molecular Genetics of Bacteria,book,23,16,14,1,0,4.13,732,ebook,,0,0,,,Larry Snyder,,,,117,0,8,"college,education,non-fiction,reference,school,science,textbooks"
16670501,1612781403,Praying Constantly: Bringing Your Faith to Life,9781612781402,,,,ES,2010/9/24,Our Sunday Visitor,,true,4,9434546,57,125,27,1,2010/1/1,,,19,6,2,0,0,4.63,160,ebook,,0,0,Benedict J. Groeschel,,,,,,22,2,,"religion,theology"
16671001,1847657923,From Village School to Global Brand: Changing the World Through Education,9781847657923,,,,ES,2012/6/14,Profile Books(GB),,true,3,13236789,52,44,12,2,2012/6/14,,,5,1,4,1,1,3.67,383,ebook,,0,0,James Tooley,,,,,,36,1,1,history
16671501,3834943940,Integrierte Informationsverarbeitung 1: Operative Systeme in der Industrie,9783834943941,,,,ES,2012/8/21,Springer Gabler,ger,false,3,10351919,1,0,0,0,1997/1/1,,book,0,0,0,0,0,0.00,388,Paperback,,0,0,Peter  Mertens,,,,,,,0,,
16672001,0869701568,Konferensie Delegitimering En Legitimering Van 'n Rewolusionere Beweging,9780869701560,,,,ES,1983/1/1,Not Avail,,false,1,16672001,0,0,0,0,1983/1/1,,,0,0,0,0,0,0.00,55,Unknown Binding,,0,0,,,Margaret Hough,,,,,0,,
16672501,6613902225,Still Practicing,9786613902221,,,,ES,2012/8/21,Routledge,,true,9,14839939,25,38,8,3,2012/4/6,,,6,2,0,0,0,4.75,238,ebook,,0,0,Sandra Buechler,,,,,,14,0,1,non-fiction
16673001,6613908789,Undocumented Secrets of MATLAB-Java Programming,9786613908780,,,,ES,2011/12/5,Not Avail,,true,5,14617467,13,14,3,1,2011/12/5,,,2,1,0,0,0,4.67,680,ebook,,0,0,Yair M. Altman,,,,,,1,0,,
16673501,0273774174,Optoelectronics & Photonics: Principles & Practices,9780273774174,,,,ES,2012/10/1,Pearson Education,eng,false,6,663665,216,114,34,4,2001/2/2,Optoelectronics and Photonics: Principles and Practices,book,6,12,8,4,4,3.35,544,Paperback,,4,0,Safa O. Kasap,,,,,,146,0,7,reference
16674001,0702248444,American Stories: Tales of Hope and Anger,9780702248443,,,,ES,2012/10/1,University of Queensland Pr (Australia),,true,6,15755512,25,41,10,0,2012/1/1,American Stories,book,5,3,1,0,1,4.10,300,ebook,,0,0,Michael Brissenden,,,,,,8,0,1,non-fiction
16674501,098364067X,Every Breath I Take: Surviving and Thriving with Cystic Fibrosis,9780983640677,,,,ES,2013/5/2,Business Ghost Books,eng,false,2,19391652,282,181,41,11,2012/11/7,Every Breath I Take,book,23,13,4,1,0,4.41,74,Hardcover,,6,0,Claire Wineland,,,,,,204,3,14,non-fiction
16675001,1400275482,Leaders Distinguish Themselves During Tough Times: Lesson 15 from Leadership Gold,9781400275489,,,,ES,2012/8/1,Thomas Nelson,,true,2,16675001,5,0,0,0,2012/8/28,,,0,0,0,0,0,0.00,9,ebook,,0,0,John C. Maxwell,,,,,,4,0,,
16675501,1449300944,Junos Enterprise Switching: A Practical Guide to Junos Switches and Certification,9781449300944,,,,ES,2009/7/16,O'Reilly Media,,true,4,6692214,33,71,19,2,2009/7/16,JUNOS Enterprise Switching,,4,9,4,1,1,3.74,752,ebook,,0,0,"Doug Marschke,Harry Reynolds",,,,,,9,2,1,non-fiction
16676001,1472201558,Honest,9781472201553,,,,ES,2012/9/1,Headline,,false,8,16047537,684,1216,310,27,2012/9/1,,book,126,80,69,24,11,3.92,,Hardcover,,4,0,Tulisa Contostavlos,,,,,,275,7,21,"autobiography,biography,non-fiction"
16676501,1606942409,Rivers,9781606942406,,,,ES,2007/8/1,Rourke Educational Media,eng,true,2,16676501,0,0,0,0,2007/8/1,,book,0,0,0,0,0,0.00,32,ebook,,0,0,Sandy Sepehri,,,,,,,0,,
16677001,161236781X,Barcos! (Boats!) Barcos! (Boats!),9781612367811,,,,ES,2011/3/1,Rourke Educational Media,,true,8,13246621,14,23,9,1,2008/8/1,,,1,1,2,3,2,2.56,10,ebook,,0,0,Charles Reasoner,,,,,,1,0,,juvenile
16677501,1617411612,Trees: Earth's Lungs Trees: Earth's Lungs,9781617411618,,,,ES,2010/8/1,Rourke Educational Media,,true,4,23092080,0,0,0,0,2010/8/1,,,0,0,0,0,0,0.00,24,ebook,,0,0,Barbara Webb,,,,,,,0,,
16678001,1781507953,History of the King's Regiment (Liverpool) 1914-1919 Volume II,9781781507957,,,,ES,2012/9/3,Naval and Military Press,,true,1,16678001,0,0,0,0,2012/9/3,,,0,0,0,0,0,0.00,268,ebook,,0,0,Everard Wyrall,,,,,,,0,,
16678501,3035100993,Lehren Und Lernen in Deutschsprachigen Grenzregionen,9783035100990,,,,ES,2011/1/14,"Peter Lang Gmbh, Internationaler Verlag Der Wissenschaften",,true,3,18535614,0,0,0,0,2010/12/2,,,0,0,0,0,0,0.00,227,ebook,,0,0,,,,Anémone Geiger-Jaillet,,,,0,,
16679001,3631366140,Mnemotechnik Und Medialitaet: Walter Benjamins Poetik Des Autobiographischen,9783631366141,,,,ES,2001/3/27,"Peter Lang Gmbh, Internationaler Verlag Der Wissenschaften",,false,1,16679001,0,0,0,0,2001/3/27,,,0,0,0,0,0,0.00,266,Paperback,,0,0,Markus Steinmayr,,,,,,,0,,
16679501,3642322778,"Graphs, Networks and Algorithms",9783642322778,,,,ES,2012/11/9,Springer,,false,7,2156624,30,27,7,0,2003/5/28,"Graphs, Networks and Algorithms (Algorithms and Computation in Mathematics)",,2,3,1,1,0,3.86,676,Hardcover,,2,0,Dieter Jungnickel,,,,,,15,0,4,
16680001,3653008891,Schreiben in Unterrichtswerken: Eine Qualitative Studie Uber Die Modellierung Der Textsorte Bericht in Ausgewahlten Unterrichtswerken Sowie Den Einsatz Im Unterricht,9783653008890,,,,ES,2011/8/30,"Peter Lang Gmbh, Internationaler Verlag Der Wissenschaften",,true,2,16680001,0,0,0,0,2011/5/20,,,0,0,0,0,0,0.00,330,ebook,,0,0,Henriette Hoppe,,,,,,,0,,
16680501,5512458507,Patriarch Athenagoras I of Constantinople,9785512458501,,,,ES,2012/3/24,Book on Demand Ltd.,,false,1,16680501,0,0,0,0,2012/3/24,,,0,0,0,0,0,0.00,92,Paperback,,0,0,,,,"Jesse Russell,Ronald Cohn",,,,0,,
16681001,8480172916,Indaomitas Al Sol: Cinco Poetas Cubanas de Nueva York,9788480172912,,,,ES,2011/1/1,Editorial Betania,,false,1,16681001,0,0,0,0,2011/1/1,,,0,0,0,0,0,0.00,143,Hardcover,,0,0,,,Felipe Lázaro,,,,,0,,
16681501,0756619815,Arctic and Antarctic (DK Eye Wonder),9780756619817,,,,ES,2006/7/1,DK Publishing (Dorling Kindersley),eng,false,3,6373667,34,63,17,2,2006/1/1,Arctic and Antarctic (Eye Wonder),book,4,6,5,2,0,3.71,48,Library Binding,,0,0,Lorrie Mack,,,,,,7,3,1,"animals,childrens,non-fiction,picture-books,science"
16682001,1415923116,Beyond Reason: Using Emotions as You Negotiate,9781415923115,,,,ES,2005/10/25,Books on Tape,,false,21,16471,2500,2868,736,52,2005/1/1,Beyond Reason: Using Emotions as You Negotiate,book,217,274,202,38,5,3.90,,Audio CD,,0,0,"Daniel Shapiro,Roger Fisher",,,,,,533,10,131,"business,education,leadership,non-fiction,personal-development,politics,psychology,relationships,school,science,self-help"
16682501,661200472X,The Specter of Salem: Remembering the Witch Trials in Nineteenth-Century America,9786612004728,,,,ES,2009/2/1,University of Chicago Press,,true,7,3474753,142,67,17,2,2008/1/1,The Specter of Salem: Remembering the Witch Trials in Nineteenth-Century America,book,8,3,3,3,0,3.94,238,ebook,,0,0,Gretchen A. Adams,,,,,,108,5,3,"american-history,historical,history,non-fiction,politics,witches"
16683001,6612977787,Courage to Dissent: Atlanta and the Long History of the Civil Rights Movement,9786612977787,,,,ES,2011/1/12,"Oxford University Press, USA",,true,6,9756186,182,139,35,2,2011/1/12,,book,14,11,6,3,1,3.97,608,ebook,,0,0,Tomiko Brown-Nagin,,,,,,121,5,4,"american-history,biography,family,grad-school,history,memoir,non-fiction,politics"
16683501,6613670138,Bigfoot!,9786613670137,,,,ES,,PowerKids Press,,true,6,14499865,19,20,5,0,2012/8/15,,,3,0,1,1,0,4.00,26,ebook,,0,0,Steven Roberts,,,,,,8,1,,"magic,supernatural"
16684001,6613689483,Progressive Consumption Taxation,9786613689481,,,,ES,2012/5/11,American Enterprise Institute Press,,true,2,16684001,1,0,0,0,2012/5/11,,,0,0,0,0,0,0.00,224,ebook,,0,0,"Alan D. Viard,Robert Carroll",,,,,,1,0,,
16684501,6613916447,Phts for Dummies,9786613916440,,,,ES,2012/9/6,Not Avail,,true,8,17891697,16,31,8,0,2010/12/28,,book,4,1,2,0,1,3.88,451,ebook,,0,0,Barbara Obermeier,,,,,,6,1,1,
16685001,6613921521,The Prime-Time Presidency: The West Wing and U.S. Nationalism,9786613921529,,,,ES,2006/1/27,Not Avail,,true,7,1520661,38,46,13,1,2006/1/1,The Prime-Time Presidency: The West Wing and U.S. Nationalism,,1,6,5,1,0,3.54,247,ebook,,0,0,"Shawn J. Parry-Giles,Trevor Parry-Giles",,,,,,8,0,2,politics
16685501,0470670517,Practical Transfusion Medicine,9780470670514,,,,ES,2013/4/29,Wiley-Blackwell,,false,24,959867,3,0,0,0,2001/2/15,Practical Transfusion Medicine,,0,0,0,0,0,0.00,549,Hardcover,,0,0,,,,Michael F. Murphy,,,2,0,,
16686001,085432934X,Monsters of the Id. David Cotterrell,9780854329342,,,,ES,2012/7/6,John Hansard Gallery University,,false,1,16686001,0,0,0,0,2012/8/1,,,0,0,0,0,0,0.00,34,Paperback,,0,0,David Cotterrell,,,,,,,0,,
16686501,1118533526,"Refining the Focus on Faculty Diversity in Postsecondary Institutions: New Directions for Institutional Research, Number 155",9781118533529,,,,ES,2012/10/26,Jossey-Bass,,true,6,19738746,0,0,0,0,2012/10/24,,,0,0,0,0,0,0.00,120,ebook,,0,0,,,,Yonghong Jade Xu,,,,0,,
16687001,1440235279,Gun Digest's Learning Combat Shooting Concealed Carry Handgun Training,9781440235276,,,,ES,2012/8/1,Gun Digest Books,eng,true,1,16687001,2,0,0,0,2012/8/1,Gun Digest's Learning Combat Shooting Concealed Carry Handgun Training,book,0,0,0,0,0,0.00,87,ebook,,0,0,Massad Ayoob,,,,,,2,0,,
16687501,1464510342,Rats: Cool Pets!,9781464510342,,,,ES,2012/1/1,Enslow Publishers,,false,6,13779358,4,8,2,0,2012/1/1,,,1,0,1,0,0,4.00,48,Unknown Binding,,0,0,Alvin Silverstein,,,,,,,0,,science
16688001,1614582882,Good Morning...God,9781614582885,,,,ES,1990/11/1,New Leaf Publishing Group,,true,2,16688001,7,5,1,0,1990/7/1,,,1,0,0,0,0,5.00,150,ebook,,1,0,Pamela Steinke,,,,,,4,0,1,
16688501,185022241X,Swings and Roundabouts,9781850222415,,,,ES,2012/10/1,Truran,,false,1,16688501,10,34,8,1,2012/10/1,,,4,2,2,0,0,4.25,280,Paperback,,8,1,Debby Fowler,,,,,,,0,,
16689001,3437590502,Arbeitsbuch Zu Mensch Korper Krankheit & Biologie Anatomie Physiologie,9783437590504,,,,ES,2014/7/12,Fischer Gustav Verlag GmbH & Co. KG,,true,3,16689001,0,0,0,0,2011/6/23,,,0,0,0,0,0,0.00,160,ebook,,0,0,Barbara Groos,,,,,,,0,,
16689501,8376095676,Periodontologia,9788376095677,,,,ES,2011/1/1,Elsevier Urban & Partner,,true,1,16689501,0,0,0,0,2011/1/1,,,0,0,0,0,0,0.00,436,ebook,,0,0,B M Eley,,,,,,,0,,
16690001,8836624006,Maurizio Nannucci: There Is Another Way of Looking at Things,9788836624003,,,,ES,2012/9/1,Silvana Editoriale,,false,1,16690001,1,0,0,0,2012/9/1,,,0,0,0,0,0,0.00,,Paperback,,0,0,Maurizio Nannucci,,,,,,1,0,,
16690501,661392444X,Cement-Based Materials for Nuclear Waste Storage,9786613924445,,,,ES,2012/1/1,Not Avail,,true,1,16690501,0,0,0,0,2012/1/1,,,0,0,0,0,0,0.00,266,ebook,,0,0,"Bart Florence,Cau-Di-Coumes Cline,Frizon Fabien,Lorente Sylvie",,,,,,,0,,
16691001,6613931446,Detection of Signals in Noise,9786613931443,,,,ES,1995/5/2,Not Avail,,true,4,809597,8,0,0,0,1995/1/1,"Detection of Signals in Noise, Second Edition",book,0,0,0,0,0,0.00,512,ebook,,0,0,"Anthony D. Whalen,Robert N. McDonough",,,,,,5,1,,
16691501,0321904923,"Estimating Software-Intensive Systems: Projects, Products, and Processes (Paperback)",9780321904928,,,,ES,2012/12/10,Addison-Wesley Professional,,false,4,8235713,20,20,5,0,2005/4/1,,,2,1,2,0,0,4.00,944,Paperback,,2,0,Richard D. Stutzke,,,,,,10,0,1,
16692001,0736933174,Moving Forward After Divorce: Practical Steps to * Healing Your Hurts * Finding Fresh Perspective * Managing Your New Life,9780736933179,,,,ES,2006/8/1,Harvest House Publishers,,true,3,839460,43,92,23,0,2006/8/1,Moving Forward After Divorce: Practical Steps to * Healing Your Hurts * Finding Fresh Perspective * Managing Your New Life,,10,6,5,1,1,4.00,240,ebook,,0,0,"David Frisbie,Lisa Frisbie",,,,,,14,0,1,"christian,philosophy,relationships"
16692501,098348161X,The V Society: The True Story of Rebel Virgin-Girls: A Memoir,9780983481614,,,,ES,2012/1/1,30ad Media,,false,4,17791583,20,22,5,0,2012/1/1,,,3,1,1,0,0,4.40,422,Unknown Binding,,0,0,Adele Berry,,,,,,12,1,,
16693501,1459245326,"The Soldier's Newfound Family (Texas Twins, #5)",9781459245327,,,,ES,2012/11/1,Love Inspired,,true,10,15736974,576,1047,258,24,2012/10/16,The Soldier's Newfound Family ,book,94,104,45,11,4,4.06,224,ebook,,3,0,Kathryn Springer,,,,,,37,11,20,"christian,christian-fiction,christmas,contemporary,fiction,romance"
16694001,1602682127,"Preschool Theme Boxes, Grade Pk",9781602682122,,,,ES,2012/9/1,Key Education,,false,1,16694001,0,0,0,0,2012/9/1,,,0,0,0,0,0,0.00,160,Hardcover,,0,0,"Kelly Gunzenhauser,Melissa Fisch",,,,,,,0,,
16694501,1844088928,Henry James: His Women and His Art by Lyndall Gordon,9781844088928,,,,ES,2012/11/1,Virago Press (UK),eng,false,6,2813489,127,165,41,6,1998/10/15,A Private Life of Henry James: Two Women & His Art,book,16,14,8,2,1,4.02,528,Paperback,,1,0,Lyndall Gordon,,,,,,52,3,2,"biography,literature,non-fiction"
16695001,3110266806,Predigten 1790-1808,9783110266801,,,,ES,2013/10/14,de Gruyter,,true,1,16695001,0,0,0,0,2013/3/15,,,0,0,0,0,0,0.00,1274,ebook,,0,0,,,,Günter Meckenstock,,,,0,,
16695501,5510584688,Croup,9785510584684,,,,ES,2012/9/13,Book on Demand Ltd.,,false,1,16695501,0,0,0,0,2012/9/13,,,0,0,0,0,0,0.00,118,Paperback,,0,0,,,,"Jesse Russell,Ronald Cohn",,,,0,,
16696001,5510679336,Tupolev Tu-85,9785510679335,,,,ES,2012/4/28,Book on Demand Ltd.,,false,1,16696001,0,0,0,0,2012/4/28,,,0,0,0,0,0,0.00,110,Paperback,,0,0,,,,"Jesse Russell,Ronald Cohn",,,,0,,
16696501,5510751894,Hal 9000,9785510751895,,,,ES,2012/4/15,Book on Demand Ltd.,,false,1,16696501,0,0,0,0,2012/4/15,,,0,0,0,0,0,0.00,142,Paperback,,0,0,,,,"Jesse Russell,Ronald Cohn",,,,0,,
16697001,5510818123,The Invisible Woman,9785510818123,,,,ES,2012/9/5,Book on Demand Ltd.,,false,1,16697001,0,0,0,0,2012/9/5,,,0,0,0,0,0,0.00,148,Paperback,,0,0,,,,"Jesse Russell,Ronald Cohn",,,,0,,
16697501,5510978465,Spanish Renaissance,9785510978469,,,,ES,2012/7/17,Book on Demand Ltd.,,false,1,16697501,1,0,0,0,2012/7/17,,,0,0,0,0,0,0.00,154,Paperback,,0,0,,,,"Jesse Russell,Ronald Cohn",,,1,0,,
16698001,8449026814,Pintura Catalana del Barroc: L'Auge Col]leccionista I L'Ofici de Pintor Al Segle XVII,9788449026812,,,,ES,2012/1/1,Universitat de Barcelona Servei de Publicacions,,false,6,16698000,1,0,0,0,2012/1/1,,,0,0,0,0,0,0.00,518,Hardcover,,0,0,Santi Torras Tillao,,,,,,1,0,,
16698501,6613933503,Zeit Heilt Nicht Alle Wunden,9786613933508,,,,ES,2012/9/12,Not Avail,,true,1,16698501,0,0,0,0,2012/9/12,,,0,0,0,0,0,0.00,226,ebook,,0,0,,,,"Annette Streeck-Fischer,Ibrahim Zkan,Ulrich Sachsse",,,,0,,
16699001,6613938645,"Vitamins and Hormones, Volume 90: Adiponectin",9786613938640,,,,ES,2012/11/5,Not Avail,,true,5,16699001,1,3,1,0,2012/9/10,,book,0,0,1,0,0,3.00,475,ebook,,1,0,,,,Gerald Litwack,,,1,0,,
16699501,6613943681,Arthur H. Westing,9786613943682,,,,ES,2013/1/1,Not Avail,,true,1,16699501,0,0,0,0,2013/1/1,,,0,0,0,0,0,0.00,154,ebook,,0,0,H Westing Arthur,,,,,,,0,,
16700001,0071813012,"The Big Book of Team Coaching Games: Quick, Effective Activities to Energize, Motivate, and Guide Your Team to Success",9780071813013,,,,ES,2013/7/19,McGraw-Hill Education,,true,4,16700001,42,28,8,1,2013/1/1,,,1,4,2,0,1,3.50,224,ebook,,4,1,"Mary Scannell,Mike Mulvihill",,,,,,20,0,9,adult
16700501,0784476845,Water Control Gates: Guidelines for Inspection and Evaluation,9780784476840,,,,ES,2012/8/1,American Society of Civil Engineers,,true,2,16700501,0,0,0,0,2012/9/1,,,0,0,0,0,0,0.00,406,ebook,,0,0,,,U.S. Government,,,,,0,,
16701001,0957372175,Standards for Acidifers: Principles for the Use of Organic Acids in Animal Nutrition,9780957372177,,,,ES,2011/11/1,Anytime Publishing Services,,false,1,16701001,0,0,0,0,2011/11/7,,,0,0,0,0,0,0.00,134,Paperback,,0,0,,,,Christian Lückstädt,,,,0,,
16701501,1134741480,How the Japanese Learn to Work,9781134741489,,,,ES,2012/10/2,Routledge,,true,10,8328823,2,0,0,0,1989/12/13,,,0,0,0,0,0,0.00,216,ebook,,0,0,"Mari Sako,Ronald Dore",,,,,,1,0,,"non-fiction,sociology"
16702001,1409416992,"The Pilgrimage of Arnold Von Harff, Knight: From Cologne Through Italy, Syria, Egypt, Arabia, Ethiopia, Nubia, Palestine, Turkey, France, and Spain, Which He Accomplished in the Years 1496 to 1499",9781409416999,,,,ES,2014/5/14,Ashgate Publishing,,true,4,16702001,6,8,2,0,2011/6/1,,,1,0,1,0,0,4.00,363,ebook,,2,0,,,,Malcolm Letts,,,2,0,1,history
16702501,1446271544,Principles of School Leadership,9781446271544,,,,ES,2012/11/13,Sage Publications Ltd,,true,5,14468271,4,3,1,0,2012/11/1,,,0,0,1,0,0,3.00,264,ebook,,0,0,,,,Mark Brundrett,,,2,0,,reference
16703001,1461412285,Glasses and Glass Ceramics for Medical Applications,9781461412281,,,,ES,2012/1/1,Springer,,true,1,16703001,0,0,0,0,2012/1/1,,,0,0,0,0,0,0.00,,ebook,,0,0,Emad Elmeliegy,,,,,,,0,,
16703501,1608182967,The Story of the Carolina Panthers,9781608182961,,,,ES,2013/9/1,Creative Paperbacks,,false,1,16703501,5,0,0,0,2013/9/1,,,0,0,0,0,0,0.00,48,Hardcover,,0,0,Nate Frisch,,,,,,2,0,1,
16704001,1848828004,Robotic Urologic Surgery,9781848828001,,,,ES,2012/1/1,Springerverlag London Limited,,true,3,16990198,0,0,0,0,2007/1/1,,,0,0,0,0,0,0.00,532,ebook,,0,0,Vipul R Patel,,,,,,,0,,
16704501,1908885114,The Man Who Wouldn't Stand Up,9781908885111,,,,ES,2014/9/1,Cargo Publishing,eng,false,6,16704501,4676,1426,403,182,2012/10/1,,book,67,158,114,53,11,3.54,345,Paperback,,348,164,Jacob M. Appel,,,,,,4216,56,9,"comedy,contemporary,crime,fiction,humor,novels,realistic-fiction,social-issues"
16705001,3642218075,The Economics of Bank Bankruptcy Law,9783642218071,,,,ES,2012/1/1,Springer Publishing Company,,true,2,16705001,0,0,0,0,2011/9/20,,,0,0,0,0,0,0.00,,ebook,,0,0,Matej Marin?,,,,,,,0,,
16705501,5510542489,Rolls-Royce R,9785510542486,,,,ES,2012/7/31,Book on Demand Ltd.,,false,1,16705501,0,0,0,0,2012/7/31,,,0,0,0,0,0,0.00,156,Paperback,,0,0,,,,"Jesse Russell,Ronald Cohn",,,,0,,
16706001,5510589957,Drosera Anglica,9785510589955,,,,ES,2012/8/25,Book on Demand Ltd.,,false,1,16706001,0,0,0,0,2012/8/25,,,0,0,0,0,0,0.00,100,Paperback,,0,0,,,,"Jesse Russell,Ronald Cohn",,,,0,,
16706501,551062339X,Battle of Kham Duc,9785510623390,,,,ES,2012/7/2,Book on Demand Ltd.,,false,1,16706501,0,0,0,0,2012/7/2,,,0,0,0,0,0,0.00,92,Paperback,,0,0,,,,"Jesse Russell,Ronald Cohn",,,,0,,
16707001,5510665033,Teddy Sheean,9785510665031,,,,ES,2012/1/1,Book on Demand Ltd.,,false,1,16707001,0,0,0,0,2012/1/1,,,0,0,0,0,0,0.00,80,Paperback,,0,0,,,,"Jesse Russell,Ronald Cohn",,,,0,,
16707501,551070313X,Hong Kong Stadium,9785510703139,,,,ES,2012/8/18,Book on Demand Ltd.,,false,1,16707501,0,0,0,0,2012/8/18,,,0,0,0,0,0,0.00,128,Paperback,,0,0,,,,"Jesse Russell,Ronald Cohn",,,,0,,
16708001,551090691X,The Brady Kids,9785510906912,,,,ES,2012/2/10,Book on Demand Ltd.,,false,1,16708001,0,0,0,0,2012/2/10,,,0,0,0,0,0,0.00,152,Paperback,,0,0,,,,"Jesse Russell,Ronald Cohn",,,,0,,
16708501,5510964146,The Bold Ones: The New Doctors,9785510964141,,,,ES,2012/4/3,Book on Demand Ltd.,,false,1,16708501,0,0,0,0,2012/4/3,,,0,0,0,0,0,0.00,166,Paperback,,0,0,,,,"Jesse Russell,Ronald Cohn",,,,0,,
16709001,5511083356,Radio Propagation,9785511083353,,,,ES,2012/2/27,Book on Demand Ltd.,,false,1,16709001,0,0,0,0,2012/2/27,,,0,0,0,0,0,0.00,158,Paperback,,0,0,,,,"Jesse Russell,Ronald Cohn",,,,0,,
16709501,5511154830,Polyester,9785511154831,,,,ES,2012/3/7,Book on Demand Ltd.,,false,1,16709501,0,0,0,0,2012/3/7,,,0,0,0,0,0,0.00,104,Paperback,,0,0,,,,"Jesse Russell,Ronald Cohn",,,,0,,
16710001,551122880X,NASDAQ Composite,9785511228808,,,,ES,2012/3/2,Book on Demand Ltd.,,false,1,16710001,1,0,0,0,2012/3/2,,,0,0,0,0,0,0.00,114,Paperback,,0,0,,,,"Jesse Russell,Ronald Cohn",,,1,0,,
16710501,5511291218,Susan Oliver,9785511291215,,,,ES,2012/6/1,Book on Demand Ltd.,,false,1,16710501,0,0,0,0,2012/6/1,,,0,0,0,0,0,0.00,148,Paperback,,0,0,,,,"Jesse Russell,Ronald Cohn",,,,0,,
16711001,5511342971,Trifluoromethyl,9785511342979,,,,ES,2012/7/17,Book on Demand Ltd.,,false,1,16711001,0,0,0,0,2012/7/17,,,0,0,0,0,0,0.00,144,Paperback,,0,0,,,,"Jesse Russell,Ronald Cohn",,,,0,,
16711501,5511375462,Silver Chloride,9785511375465,,,,ES,2012/2/14,Book on Demand Ltd.,,false,1,16711501,0,0,0,0,2012/2/14,,,0,0,0,0,0,0.00,160,Paperback,,0,0,,,,"Jesse Russell,Ronald Cohn",,,,0,,
16712001,5511432245,XIE Xide,9785511432243,,,,ES,2012/6/15,Book on Demand Ltd.,,false,1,16712001,0,0,0,0,2012/6/15,,,0,0,0,0,0,0.00,170,Paperback,,0,0,,,,"Jesse Russell,Ronald Cohn",,,,0,,
16712501,5511733369,USS Ochlockonee (Aog-33),9785511733364,,,,ES,2012/9/28,Book on Demand Ltd.,,false,1,16712501,0,0,0,0,2012/9/28,,,0,0,0,0,0,0.00,280,Paperback,,0,0,,,,"Jesse Russell,Ronald Cohn",,,,0,,
16713001,5511754625,Ode Records,9785511754628,,,,ES,2012/9/3,Book on Demand Ltd.,,false,1,16713001,0,0,0,0,2012/9/3,,,0,0,0,0,0,0.00,146,Paperback,,0,0,,,,"Jesse Russell,Ronald Cohn",,,,0,,
16713501,606555071X,Opere,9786065550711,,,,ES,2011/1/1,Academia Romaana Fundatia Nationala Pentru Stiinta Si Arta,rum,false,1,16713501,2,5,1,0,2011/1/1,,book,1,0,0,0,0,5.00,1354,Hardcover,,1,0,Ion Budai-Deleanu,,,,,,1,0,,
16714001,9400727275,Mechanisms,9789400727274,,,,ES,2012/1/1,Springer Science+Business Media,,true,1,16714001,0,0,0,0,2012/1/1,,,0,0,0,0,0,0.00,,ebook,,0,0,Erwinchristian Lovasz,,,,,,,0,,
16714501,6611099867,Africa Development Indicators 2007: Spreading and Sustaining Growth in Africa,9786611099862,,,,ES,2008/1/1,World Bank Group,,true,2,4335948,0,0,0,0,2008/1/1,Africa Development Indicators 2007 : Spreading and Sustaining Growth in Africa (African Development Indicators) (African Development Indicators),,0,0,0,0,0,0.00,179,ebook,,0,0,World Bank Group,,,,,,,0,,
16715001,6613835188,Migration in Britain,9786613835185,,,,ES,2012/5/12,Not Avail,,true,2,17004824,1,0,0,0,2012/5/12,,,0,0,0,0,0,0.00,212,ebook,,0,0,T Fielding,,,,,,1,0,,
16715501,6613952281,"Biblical Studies, Theology, Religion and Philosophy",9786613952288,,,,ES,2012/9/28,Not Avail,,true,4,16698293,6,0,0,0,2012/6/28,,,0,0,0,0,0,0.00,616,ebook,,0,0,,,,James N. Amanze,,,4,0,,
16716001,6613957410,Introduction to Architecture,9786613957412,,,,ES,2012/9/20,Not Avail,,true,11,15025688,497,335,80,0,2012/9/20,,book,36,31,7,4,2,4.19,432,ebook,,0,0,"Francis D.K. Ching,James F. Eckler",,,,,,369,2,21,"art,non-fiction"
16716501,6613962392,Karl Marx and the Intellectual Origins of Dialectical Materialism,9786613962393,,,,ES,1996/10/25,Not Avail,,true,6,17012921,17,15,3,1,1996/1/1,,,3,0,0,0,0,5.00,429,ebook,,0,0,James D. White,,,,,,14,0,,
16717001,6613967351,German Writers and the Politics of Culture,9786613967350,,,,ES,2003/12/9,Not Avail,,true,2,17013412,0,0,0,0,2003/12/9,,,0,0,0,0,0,0.00,285,ebook,,0,0,"Andrew Plowman,Paul Cooke",,,,,,,0,,
16717501,007170129X,Logic Demystified,9780071701297,,,,ES,2010/11/14,McGraw-Hill Education,,true,4,10061695,44,21,5,0,2010/10/24,,,2,2,1,0,0,4.20,368,ebook,,1,0,"Stan Gibilisco,Tony Boutelle",,,,,,26,1,5,"education,non-fiction,philosophy,textbooks"
16718001,0071799699,"The Tab Guide to DIY Welding: Hands-On Projects for Hobbyists, Handymen, and Artists",9780071799690,,,,ES,2013/5/6,McGraw-Hill Education Tab,,true,1,16718001,0,0,0,0,2013/4/22,,,0,0,0,0,0,0.00,368,ebook,,0,0,Jackson Morley,,,,,,,0,,
16718501,0511075731,Frobenius Algebras and 2-D Topological Quantum Field Theories,9780511075735,,,,ES,2005/2/2,Cambridge University Press,,true,6,931393,13,27,6,0,2003/12/4,Frobenius Algebras and 2-D Topological Quantum Field Theories (London Mathematical Society Student Texts),,4,1,1,0,0,4.50,254,ebook,,0,0,Joachim Kock,,,,,,5,0,,
16719001,0857155970,Rules of Arrest,9780857155979,,,,ES,2011/7/1,Total-E-Bound Publishing,,true,2,16719001,6,6,2,1,2011/7/11,,,0,0,2,0,0,3.00,45,ebook,,1,0,Aurora Rose Lynn,,,,,,4,0,,
16719501,111857091X,Red Hat Enterprise Linux 6 Administration: Real World Skills for Red Hat Administrators,9781118570913,,,,ES,2013/1/23,Sybex,,true,7,17082395,51,63,18,1,2013/1/1,,,5,3,7,2,1,3.50,672,ebook,,0,0,Sander van Vugt,,,,,,22,1,7,
16720001,1455771791,"Geriatric Emergency Medicine, an Issue of Clinics in Geriatric Medicine, E-Book",9781455771790,,,,ES,2012/11/12,Elsevier,,true,2,16720001,0,0,0,0,2012/11/12,,book,0,0,0,0,0,0.00,344,ebook,,0,0,Christopher R. Carpenter,,,,,,,0,,
16720501,1597846201,Reflections of the Divine,9781597846202,,,,ES,2008/2/1,Tughra Books,,true,4,1421472,11,15,3,0,2002/1/1,Reflections of the Divine (Humanity's Encounter with the Divine series),,3,0,0,0,0,5.00,134,ebook,,0,0,Bediüzzaman Said Nursî,,,,,,4,0,1,
16721001,1782341536,Let It Go: The Memoirs of Dame Stephanie Shirley,9781782341536,,,,ES,2017/3/27,Auk Authors,,true,6,16120348,679,898,221,36,2012/10/1,,book,76,98,34,11,2,4.06,322,ebook,,32,10,"Richard Askwith,Stephanie Shirley",,,,,,357,7,26,"biography,biography-memoir,business,family,feminism,leadership,memoir,non-fiction,science,self-help,technology"
16721501,1936740281,The Art of Living Joyfully: How to be Happier Every Day of the Year,9781936740284,,,,ES,2012/10/9,Viva Editions,,true,3,13584717,370,87,24,7,2012/9/11,,book,7,6,7,3,1,3.62,156,ebook,,0,0,Allen Klein,,,,,,312,4,14,"non-fiction,psychology,self-help"
16722001,5510966564,Charles Rogers (Actor),9785510966565,,,,ES,2012/2/6,Book on Demand Ltd.,,false,1,16722001,0,0,0,0,2012/2/6,,,0,0,0,0,0,0.00,162,Paperback,,0,0,,,,"Jesse Russell,Ronald Cohn",,,,0,,
16722501,5510994851,Fred Willard,9785510994858,,,,ES,2012/6/19,Book on Demand Ltd.,,false,1,16722501,0,0,0,0,2012/6/19,,,0,0,0,0,0,0.00,156,Paperback,,0,0,,,,"Jesse Russell,Ronald Cohn",,,,0,,
16723001,551142689X,Xiaogang Station,9785511426891,,,,ES,2012/1/30,Book on Demand Ltd.,,false,1,16723001,0,0,0,0,2012/1/30,,,0,0,0,0,0,0.00,196,Paperback,,0,0,,,,"Jesse Russell,Ronald Cohn",,,,0,,
16723501,551145706X,Klibc,9785511457062,,,,ES,2012/3/2,Book on Demand Ltd.,,false,1,16723501,0,0,0,0,2012/3/2,,,0,0,0,0,0,0.00,136,Paperback,,0,0,,,,"Jesse Russell,Ronald Cohn",,,,0,,
16724001,5511575453,Prairie Spirit Trail State Park,9785511575452,,,,ES,2012/6/25,Book on Demand Ltd.,,false,1,16724001,0,0,0,0,2012/6/25,,,0,0,0,0,0,0.00,122,Paperback,,0,0,,,,"Jesse Russell,Ronald Cohn",,,,0,,
16724501,5511611395,Yerres,9785511611396,,,,ES,2012/2/29,Book on Demand Ltd.,,false,1,16724501,0,0,0,0,2012/2/29,,,0,0,0,0,0,0.00,196,Paperback,,0,0,,,,"Jesse Russell,Ronald Cohn",,,,0,,
16725001,5511628220,Ner 66 Aerolite,9785511628226,,,,ES,2012/4/21,Book on Demand Ltd.,,false,1,16725001,2,0,0,0,2012/4/21,,,0,0,0,0,0,0.00,120,Paperback,,0,0,,,,"Jesse Russell,Ronald Cohn",,,2,0,,
16725501,5511645613,Hmas Coonawarra,9785511645612,,,,ES,2012/4/12,Book on Demand Ltd.,,false,1,16725501,0,0,0,0,2012/4/12,,,0,0,0,0,0,0.00,198,Paperback,,0,0,,,,"Jesse Russell,Ronald Cohn",,,,0,,
16726001,5511665118,Robert A. Bryan,9785511665115,,,,ES,2012/3/24,Book on Demand Ltd.,,false,1,16726001,0,0,0,0,2012/3/24,,,0,0,0,0,0,0.00,106,Paperback,,0,0,,,,"Jesse Russell,Ronald Cohn",,,,0,,
16726501,5512047809,Nodal,9785512047804,,,,ES,2012/2/9,Book on Demand Ltd.,,false,1,16726501,0,0,0,0,2012/2/9,,,0,0,0,0,0,0.00,220,Paperback,,0,0,,,,"Jesse Russell,Ronald Cohn",,,,0,,
16727001,5512069381,"Wojciechow, Gmina Przedborz",9785512069387,,,,ES,2012/5/21,Book on Demand Ltd.,,false,1,16727001,0,0,0,0,2012/5/21,,,0,0,0,0,0,0.00,152,Paperback,,0,0,,,,"Jesse Russell,Ronald Cohn",,,,0,,
16727501,5512092537,Naboukor,9785512092538,,,,ES,2012/2/25,Book on Demand Ltd.,,false,1,16727501,0,0,0,0,2012/2/25,,,0,0,0,0,0,0.00,74,Paperback,,0,0,,,,"Jesse Russell,Ronald Cohn",,,,0,,
16728001,5512113917,Multiswap,9785512113912,,,,ES,2012/7/5,Book on Demand Ltd.,,false,1,16728001,0,0,0,0,2012/7/5,,,0,0,0,0,0,0.00,194,Paperback,,0,0,,,,"Jesse Russell,Ronald Cohn",,,,0,,
16728501,5512136321,Raja Ka Rampur,9785512136324,,,,ES,2012/9/8,Book on Demand Ltd.,,false,1,16728501,0,0,0,0,2012/9/8,,,0,0,0,0,0,0.00,102,Paperback,,0,0,,,,"Jesse Russell,Ronald Cohn",,,,0,,
16729001,5512160540,"Yakima, Washington",9785512160541,,,,ES,2012/1/15,Book on Demand Ltd.,,false,1,16729001,0,0,0,0,2012/1/15,,,0,0,0,0,0,0.00,170,Paperback,,0,0,,,,"Jesse Russell,Ronald Cohn",,,,0,,
16729501,551218248X,1927 Yugoslav Football Championship,9785512182482,,,,ES,2012/8/31,Book on Demand Ltd.,,false,1,16729501,0,0,0,0,2012/8/31,,,0,0,0,0,0,0.00,158,Paperback,,0,0,,,,"Jesse Russell,Ronald Cohn",,,,0,,
16730001,5512204858,Medical Implant Communication Service,9785512204856,,,,ES,2012/3/14,Book on Demand Ltd.,,false,1,16730001,0,0,0,0,2012/3/14,,,0,0,0,0,0,0.00,124,Paperback,,0,0,,,,"Jesse Russell,Ronald Cohn",,,,0,,
16730501,5512226967,Spoke,9785512226964,,,,ES,2012/2/17,Book on Demand Ltd.,,false,1,16730501,0,0,0,0,2012/2/17,,,0,0,0,0,0,0.00,110,Paperback,,0,0,,,,"Jesse Russell,Ronald Cohn",,,,0,,
16731001,5512250264,Ton Pattinama,9785512250266,,,,ES,2012/9/2,Book on Demand Ltd.,,false,1,16731001,0,0,0,0,2012/9/2,,,0,0,0,0,0,0.00,104,Paperback,,0,0,,,,"Jesse Russell,Ronald Cohn",,,,0,,
16731501,5512273906,BMW Sauber F1.08,9785512273906,,,,ES,2012/4/1,Book on Demand Ltd.,,false,1,16731501,0,0,0,0,2012/4/1,,,0,0,0,0,0,0.00,70,Paperback,,0,0,,,,"Jesse Russell,Ronald Cohn",,,,0,,
16732001,551229847X,X Toolkit Intrinsics,9785512298473,,,,ES,2012/7/25,Book on Demand Ltd.,,false,1,16732001,0,0,0,0,2012/7/25,,,0,0,0,0,0,0.00,156,Paperback,,0,0,,,,"Jesse Russell,Ronald Cohn",,,,0,,
16732501,5512322389,Entertainment One,9785512322383,,,,ES,2012/1/13,Book on Demand Ltd.,,false,1,16732501,0,0,0,0,2012/1/13,,,0,0,0,0,0,0.00,162,Paperback,,0,0,,,,"Jesse Russell,Ronald Cohn",,,,0,,
16733001,551234384X,Robert Nighthawk,9785512343845,,,,ES,2012/8/11,Book on Demand Ltd.,,false,1,16733001,0,0,0,0,2012/8/11,,,0,0,0,0,0,0.00,136,Paperback,,0,0,,,,"Jesse Russell,Ronald Cohn",,,,0,,
16733501,5512366394,Song 4 Mutya (Out of Control),9785512366394,,,,ES,2012/9/19,Book on Demand Ltd.,,false,1,16733501,0,0,0,0,2012/9/19,,,0,0,0,0,0,0.00,96,Paperback,,0,0,,,,"Jesse Russell,Ronald Cohn",,,,0,,
16734001,5512388665,Tonicity,9785512388662,,,,ES,2012/1/1,Book on Demand Ltd.,,false,1,16734001,0,0,0,0,2012/1/1,,,0,0,0,0,0,0.00,148,Paperback,,0,0,,,,"Jesse Russell,Ronald Cohn",,,,0,,
16734501,5512409824,Warren Bullock,9785512409824,,,,ES,2012/6/19,Book on Demand Ltd.,,false,1,16734501,0,0,0,0,2012/6/19,,,0,0,0,0,0,0.00,160,Paperback,,0,0,,,,"Jesse Russell,Ronald Cohn",,,,0,,
16735001,5512432214,Samsung Sgh-G800,9785512432211,,,,ES,2012/4/25,Book on Demand Ltd.,,false,1,16735001,0,0,0,0,2012/4/25,,,0,0,0,0,0,0.00,204,Paperback,,0,0,,,,"Jesse Russell,Ronald Cohn",,,,0,,
16735501,5512449419,Scorpion Man,9785512449417,,,,ES,2012/8/14,Book on Demand Ltd.,,false,1,16735501,0,0,0,0,2012/8/14,,,0,0,0,0,0,0.00,152,Paperback,,0,0,,,,"Jesse Russell,Ronald Cohn",,,,0,,
16736001,5512493566,United Nations Office for Project Services,9785512493564,,,,ES,2013/1/13,Book on Demand Ltd.,,false,1,16736001,0,0,0,0,2012/2/6,,,0,0,0,0,0,0.00,88,Paperback,,0,0,,,,"Jesse Russell,Ronald Cohn",,,,0,,
16736501,5512506447,Robert Leger,9785512506448,,,,ES,2013/1/19,Book on Demand Ltd.,,false,1,16736501,0,0,0,0,2012/5/23,,,0,0,0,0,0,0.00,142,Paperback,,0,0,,,,"Jesse Russell,Ronald Cohn",,,,0,,
16737001,5512529714,Diskpart,9785512529713,,,,ES,2012/5/12,Book on Demand Ltd.,,false,1,16737001,0,0,0,0,2012/5/12,,,0,0,0,0,0,0.00,168,Paperback,,0,0,,,,"Jesse Russell,Ronald Cohn",,,,0,,
16737501,551255428X,Avaya Enterprise Switch Manager,9785512554289,,,,ES,2012/4/23,Book on Demand Ltd.,,false,1,16737501,0,0,0,0,2012/4/23,,,0,0,0,0,0,0.00,176,Paperback,,0,0,,,,"Jesse Russell,Ronald Cohn",,,,0,,
16738001,5512575996,Songs in the Key of Rock,9785512575994,,,,ES,2012/8/23,Book on Demand Ltd.,,false,1,16738001,0,0,0,0,2012/8/23,,,0,0,0,0,0,0.00,164,Paperback,,0,0,,,,"Jesse Russell,Ronald Cohn",,,,0,,
16738501,5512598929,Daniel Franzese,9785512598924,,,,ES,2012/7/5,Book on Demand Ltd.,,false,1,16738501,0,0,0,0,2012/7/5,,,0,0,0,0,0,0.00,184,Paperback,,0,0,,,,"Jesse Russell,Ronald Cohn",,,,0,,
16739001,5512619136,Embrasure,9785512619131,,,,ES,2012/2/11,Book on Demand Ltd.,,false,1,16739001,0,0,0,0,2012/2/11,,,0,0,0,0,0,0.00,116,Paperback,,0,0,,,,"Jesse Russell,Ronald Cohn",,,,0,,
16739501,551265246X,Grady Tate,9785512652466,,,,ES,2012/3/13,Book on Demand Ltd.,,false,1,16739501,0,0,0,0,2012/3/13,,,0,0,0,0,0,0.00,130,Paperback,,0,0,,,,"Jesse Russell,Ronald Cohn",,,,0,,
16740001,5512673106,Carmen Carrozza,9785512673102,,,,ES,2012/9/4,Book on Demand Ltd.,,false,1,16740001,0,0,0,0,2012/9/4,,,0,0,0,0,0,0.00,84,Paperback,,0,0,,,,"Jesse Russell,Ronald Cohn",,,,0,,
16740501,5512695215,Andaz Apna Apna,9785512695210,,,,ES,2012/5/7,Book on Demand Ltd.,,false,1,16740501,0,0,0,0,2012/5/7,,,0,0,0,0,0,0.00,110,Paperback,,0,0,,,,"Jesse Russell,Ronald Cohn",,,,0,,
16741001,5512713337,Bactericide,9785512713334,,,,ES,2012/3/9,Book on Demand Ltd.,,false,1,16741001,0,0,0,0,2012/3/9,,,0,0,0,0,0,0.00,100,Paperback,,0,0,,,,"Jesse Russell,Ronald Cohn",,,,0,,
16741501,551273492X,2005 Major League Baseball All-Star Game,9785512734926,,,,ES,2012/8/3,Book on Demand Ltd.,,false,1,16741501,0,0,0,0,2012/8/3,,,0,0,0,0,0,0.00,142,Paperback,,0,0,,,,"Jesse Russell,Ronald Cohn",,,,0,,
16742001,5512755188,Lydia Hearst-Shaw,9785512755181,,,,ES,2012/3/15,Book on Demand Ltd.,,false,1,16742001,0,0,0,0,2012/3/15,,,0,0,0,0,0,0.00,148,Paperback,,0,0,,,,"Jesse Russell,Ronald Cohn",,,,0,,
16742501,5512777750,1998 NBA Playoffs,9785512777756,,,,ES,2012/6/4,Book on Demand Ltd.,,false,1,16742501,3,0,0,0,2012/6/4,,,0,0,0,0,0,0.00,154,Paperback,,0,0,,,,"Jesse Russell,Ronald Cohn",,,3,0,,
16743001,5512800906,Antoine V de Gramont,9785512800904,,,,ES,2012/8/25,Book on Demand Ltd.,,false,1,16743001,0,0,0,0,2012/8/25,,,0,0,0,0,0,0.00,152,Paperback,,0,0,,,,"Jesse Russell,Ronald Cohn",,,,0,,
16743501,5513112299,List of Chopped Episodes,9785513112297,,,,ES,2012/5/5,Book on Demand Ltd.,,false,1,16743501,0,0,0,0,2012/5/5,,,0,0,0,0,0,0.00,150,Paperback,,0,0,,,,"Jesse Russell,Ronald Cohn",,,,0,,
16744001,5513264749,List of 1990s UK Singles Chart Number Ones,9785513264743,,,,ES,2012/9/11,Book on Demand Ltd.,,false,1,16744001,0,0,0,0,2012/9/11,,,0,0,0,0,0,0.00,138,Paperback,,0,0,,,,"Jesse Russell,Ronald Cohn",,,,0,,
16744501,5513297507,Project Labor Agreement,9785513297505,,,,ES,2012/5/30,Book on Demand Ltd.,,false,1,16744501,0,0,0,0,2012/5/30,,,0,0,0,0,0,0.00,180,Paperback,,0,0,,,,"Jesse Russell,Ronald Cohn",,,,0,,
16745001,5513329719,2009 Timeline of the War in Somalia,9785513329718,,,,ES,2012/1/27,Book on Demand Ltd.,,false,1,16745001,0,0,0,0,2012/1/27,,,0,0,0,0,0,0.00,158,Paperback,,0,0,,,,"Jesse Russell,Ronald Cohn",,,,0,,
16745501,5513523906,Command Conquer: Red Alert 3,9785513523901,,,,ES,2013/1/6,Book on Demand Ltd.,,false,8,16745513,0,0,0,0,2012/1/5,,,0,0,0,0,0,0.00,72,Paperback,,0,0,,,,"Jesse Russell,Ronald Cohn",,,,0,,
16746001,1280004282,"Trust and Fairness in Open, Distributed Systems",9781280004285,,,,ES,2014/5/9,Springer,,true,4,26500961,1,0,0,0,2010/5/25,,,0,0,0,0,0,0.00,260,ebook,,0,0,Adam Wierzbicki,,,,,,1,0,,
16746501,1280011122,Nooit Meer Vliegangst.,9781280011122,,,,ES,2010/11/30,Bohn Stafleu Van Loghum,,true,2,17154539,1,3,1,0,2010/11/30,,,0,0,1,0,0,3.00,113,ebook,,0,0,Cor Anneese,,,,,,,0,,
16747001,1280019654,Die Naturalobligation,9781280019654,,,,ES,2008/8/20,Mohr Siebeck,,true,1,16747001,0,0,0,0,2008/8/20,,,0,0,0,0,0,0.00,785,ebook,,0,0,G. Schulze,,,,,,,0,,
16747501,1280024828,Handbook of Greek Mythology,9781280024825,,,,ES,2003/10/16,Taylor & Francis Group,,true,12,5800063,483,263,63,3,2003/1/1,The Routledge Handbook of Greek Mythology: Based on H.J. Rose's Handbook of Greek Mythology,book,30,20,7,6,0,4.17,,ebook,,0,0,,,,Robin Hard,,,323,4,32,"amazon,classics,historical-fiction,mythology,non-fiction,reference,unfinished"
16748001,1280037466,Building Failures,9781280037467,,,,ES,2002/1/1,Routledge,,true,2,16748001,1,5,1,0,1987/11/19,,,1,0,0,0,0,5.00,,ebook,,1,0,W H Ransom,,,,,,1,0,,
16748501,1280047127,An Illustrated Pocketbook of Multiple Scelorosis,9781280047121,,,,ES,2003/4/28,Taylor & Francis Group,,true,4,5551049,5,5,1,0,2003/4/28,An Illustrated Pocketbook of Multiple Sclerosis,,1,0,0,0,0,5.00,,ebook,,0,0,Charles M. Poser,,,,,,3,0,,
16749001,1280052406,The Politics of Healing: Histories of Alternative Medicine in Twentieth-Century North America,9781280052408,,,,ES,2004/1/8,Taylor & Francis Group,,true,9,1547687,11,3,1,0,2003/10/28,The Politics of Healing: Histories of Alternative Medicine in Twentieth-Century North America,,0,0,1,0,0,3.00,,ebook,,0,0,Robert D. Johnston,,,,,,6,0,2,
16749501,1280057769,World Yearbook of Education 2004,9781280057762,,,,ES,2004/1/1,Routledge,,true,9,17843892,1,0,0,0,2004/1/1,"World Yearbook of Education 2004: Digital Technology, Communities and Education",book,0,0,0,0,0,0.00,,ebook,,0,0,,,,"Andrew Brown,Niki Davis",,,,0,,education
16750001,1280064684,Teaching and Education in Fracture and Fatigue,9781280064685,,,,ES,1996/2/29,Taylor & Francis Group,,true,6,16499064,0,0,0,0,1996/2/29,,,0,0,0,0,0,0.00,,ebook,,0,0,,,,Hans Peter Rossmanith,,,,0,,
16750501,1280071478,Monetary Unions,9781280071478,,,,ES,2003/1/23,Routledge,,true,8,17488569,1,5,1,0,2003/1/1,,,1,0,0,0,0,5.00,198,ebook,,0,0,,,,"Forrest Capie,Geoffrey E. Wood",,,,0,,
16751001,1280076658,Nameless: Understanding Learning Disability,9781280076657,,,,ES,2003/9/18,Taylor & Francis Group,,true,5,17516641,0,0,0,0,2003/9/18,,,0,0,0,0,0,0.00,,ebook,,0,0,Dietmut Niedecken,,,,,,,0,,
16751501,128008829X,Armenia: Restructuring to Sustain Universal General Education,9781280088292,,,,ES,2001/9/5,World Bank Group,,true,2,16751501,0,0,0,0,2001/9/5,,book,0,0,0,0,0,0.00,55,ebook,,0,0,"Gillian Perkins,Ruslan Yemtsov",,,,,,,0,,
16752001,1280099216,British Mission to the Jews in Nineteenth-Century Palestine,9781280099212,,,,ES,2003/1/5,Taylor & Francis Group,,true,9,5020750,3,0,0,0,2003/1/5,,,0,0,0,0,0,0.00,229,ebook,,0,0,Yaron Perry,,,,,,3,0,,"history,religion"
16752501,1280105623,Work and Migration,9781280105623,,,,ES,2004/1/1,Routledge,,true,6,10867519,0,0,0,0,2001/12/6,,,0,0,0,0,0,0.00,,ebook,,0,0,Karen Fog Olwig,,,,,,,0,,
16753001,1280111127,New Public Management,9781280111129,,,,ES,2001/1/1,Routledge,,true,7,16753001,2,5,1,0,2001/1/1,,,1,0,0,0,0,5.00,,ebook,,1,0,,,,"Ewan Ferlie,Kathleen McLaughlin,Stephen P. Osborne",,,2,0,,
16753501,1280117192,Eleven More American Women Poets in the 21st Century: Poetics Across North America,9781280117190,,,,ES,2012/4/5,Wesleyan,,true,6,13795963,51,32,8,0,2012/2/15,,,3,4,0,0,1,4.00,462,ebook,,0,0,,,,"Claudia Rankine,Lisa Sewell",,,32,1,2,"non-fiction,poetry"
16754001,1280123729,Writing Muslim Identity,9781280123726,,,,ES,2012/4/10,Continuum,,true,6,13176478,18,22,6,0,2012/1/1,,,1,2,3,0,0,3.67,160,ebook,,0,0,Geoffrey Nash,,,,,,7,0,1,
16754501,1280129778,Quintessentially Reserve 2012,9781280129773,,,,ES,2012/3/22,Quintessentially Publishing Ltd,,true,1,16754501,0,0,0,0,2012/3/22,,,0,0,0,0,0,0.00,216,ebook,,0,0,,,,Quintessentially Publishing,,,,0,,
16755001,1280134941,Hydraulic and River Engineering,9781280134944,,,,ES,2012/1/1,Academic Studio,,true,1,16755001,1,0,0,0,2012/1/1,,,0,0,0,0,0,0.00,200,ebook,,0,0,"Shanice Hairston,Yadira Ferrer",,,,,,,0,1,
16755501,1280145749,Formal Power Series and Linear Systems of Meromorphic Ordinary Differential Equations. Universitext.,9781280145742,,,,ES,2009/5/31,Springer,,true,1,16755501,0,0,0,0,1999/1/1,,,0,0,0,0,0,0.00,299,ebook,,0,0,Werner Balser,,,,,,,0,,
16756001,1280156198,Research Methods,9781280156199,,,,ES,2006/3/20,Taylor & Francis Group,,true,5,4478031,11,7,2,0,1990/3/8,Research Methods (Society Now Series),,0,1,1,0,0,3.50,214,ebook,,0,0,Patrick McNeill,,,,,,4,0,,
16756501,1280162651,"Reading, Society and Politics in Early Modern England",9781280162657,,,,ES,2009/1/9,Cambridge University Press,,true,6,985637,19,15,4,0,1999/7/9,"Reading, Society and Politics in Early Modern England",book,1,1,2,0,0,3.75,363,ebook,,0,0,,,,"Kevin Sharpe,Steven N. Zwicker",,,12,0,1,"history,non-fiction"
16757001,1280180463,The Governance of Public and Non-Profit Organizations,9781280180460,,,,ES,2002/10/24,Routledge,,true,9,7177108,6,2,1,0,2002/1/1,,,0,0,0,1,0,2.00,259,ebook,,0,0,,,,Chris Cornforth,,,4,0,,non-fiction
16757501,1280190655,"Learning from Nature How to Design New Implantable Biomaterials: From Biomineralization Fundamentals to Biomimetic Materials and Processing Routes: Proceedings of the NATO Advanced Study Institute, Held in Alvor, Algarve, Portugal, 13-24 October 2003",9781280190650,,,,ES,2005/1/1,Springer,,true,3,8279214,3,0,0,0,2004/11/3,,book,0,0,0,0,0,0.00,250,ebook,,0,0,,,,"R.L. Reis,S Weiner",,,,0,,
16758001,1280201177,Quantum-Mechanical Prediction of Thermochemical Data,9781280201172,,,,ES,2001/1/1,Springer,,true,3,16758001,0,0,0,0,2001/1/1,,,0,0,0,0,0,0.00,269,ebook,,0,0,Jerzy Cioslowski,,,,,,,0,,
16758501,1280209852,Handbook of Biomedical Fluorescence,9781280209857,,,,ES,2005/5/8,Taylor & Francis Group,,true,4,7562172,3,9,2,0,2003/4/16,,,1,1,0,0,0,4.50,665,ebook,,0,0,Mary-Ann Mycek,,,Brian W. Pogue,,,1,0,,
16759001,128022245X,The Effective Use of Market Research: How to Drive and Focus Better Business Decisions,9781280222450,,,,ES,2004/1/1,Kogan Page,,true,1,16759001,2,4,1,0,2004/1/1,,,0,1,0,0,0,4.00,239,ebook,,1,0,Robin Birn,,,,,,1,0,,
16759501,1280229462,Schaum's Easy Outline Intermediate Algebra,9781280229466,,,,ES,2004/1/1,McGraw-Hill Companies,,true,3,4843109,1,2,1,0,2003/10/27,Schaum's Easy Outlines: Intermediate Algebra,,0,0,0,1,0,2.00,,ebook,,0,0,"Kerry Bailey,Ray Steege",,,,,,,0,,
16760001,128023542X,College Algebra Demystified,9781280235429,,,,ES,2004/1/1,McGraw-Hill Companies,,true,7,720698,194,233,60,3,2004/1/1,College Algebra Demystified,,20,22,12,3,3,3.88,456,ebook,,0,0,Rhonda Huettenmueller,,,,,,71,0,37,"reference,textbooks"
16760501,1280241837,Multimedia Content and the Semantic Web,9781280241833,,,,ES,2006/3/25,John Wiley & Sons,,true,6,5987068,7,5,2,0,2005/7/1,"Multimedia Content and the Semantic Web: Standards, Methods and Tools",,0,0,1,1,0,2.50,392,ebook,,0,0,,,,"Giorgos Stamou,Stefanos Kollias",,,2,0,,
16761001,1280252014,"Hydraulic Canals: Design, Construction, Regulation and Maintenance",9781280252013,,,,ES,2005/10/25,Taylor & Francis Group,,true,3,16761001,1,0,0,0,2005/10/25,,,0,0,0,0,0,0.00,416,ebook,,0,0,Jose Liria Montanes,,,,,,,0,,
16761501,1280265175,Real Estate Millions in Any Market,9781280265174,,,,ES,2004/1/1,John Wiley & Sons,,true,4,18092804,0,0,0,0,2004/9/28,,,0,0,0,0,0,0.00,409,ebook,,0,0,Terry Eilers,,,,,,,0,,
16762001,1280272775,"Continuous Multivariate Distributions, Models and Applications",9781280272776,,,,ES,2005/1/7,Wiley-Interscience,,true,2,16762001,0,0,0,0,2004/4/5,,,0,0,0,0,0,0.00,722,ebook,,0,0,"N L Johnson,Nagraj Balakrishnan,S. Kotz",,,,,,,0,,
16762501,1280282770,"Modern Gothic and Literary Doubles: Stevenson, Wilde and Wells",9781280282775,,,,ES,2012/12/13,Palgrave MacMillan,,true,5,3236186,31,50,14,1,2003/9/2,"The Modern Gothic and Literary Doubles: Stevenson, Wilde and Wells",,1,7,5,1,0,3.57,220,ebook,,1,0,Linda Dryden,,,,,,15,1,,"criticism,non-fiction,reference,research"
16763001,1280289031,Functional Equations with Causal Operators,9781280289033,,,,ES,2002/9/5,Taylor & Francis Group,,true,2,16763001,0,0,0,0,2002/9/5,,,0,0,0,0,0,0.00,,ebook,,0,0,C Corduneanu,,,,,,,0,,
16763501,1280294418,Introduction to Organic Chemistry,9781280294419,,,,ES,2012/1/1,Learning Press,,true,1,16763501,0,0,0,0,2012/1/1,,,0,0,0,0,0,0.00,91,ebook,,0,0,Loren Gibbons,,,,,,,0,,
16764001,128029941X,"Components, Laws and Concepts of Electromagnetism",9781280299414,,,,ES,2012/1/1,Open Court Publishing Company,,true,1,16764001,0,0,0,0,2012/1/1,,,0,0,0,0,0,0.00,124,ebook,,0,0,Elden Torrez,,,,,,,0,,
16764501,1280304855,Metallopolymer Nanocomposites,9781280304859,,,,ES,2005/1/1,Springer,,true,1,16764501,0,0,0,0,2005/1/1,,,0,0,0,0,0,0.00,576,ebook,,0,0,"Anatolii D. Pomogailo,V.N. Kestelman",,,,,,,0,,
16765001,128031043X,E-Ffective Writing for E-Learning Environments,9781280310430,,,,ES,2007/8/27,Information Science Publishing,,true,4,5484805,8,9,3,0,2003/1/1,E-Ffective Writing for E-Learning Environments (Cases on Information Technology),book,0,1,1,1,0,3.00,547,ebook,,0,0,,,,Katy Campbell,,,2,0,,
16765501,1280315776,The Geopolitics of Security in the Americas: Hemispheric Denial from Monroe to Clinton,9781280315770,,,,ES,2002/1/1,Greenwood Publishing Group,,true,4,8731928,2,0,0,1,2001/11/30,,,0,0,0,0,0,0.00,200,ebook,,0,0,Martin Sicker,,,,,,1,0,,
16766001,1280320877,The Human Geography of East Central Europe,9781280320873,,,,ES,2002/10/10,Taylor & Francis Group,,true,10,19917168,1,2,1,0,1989/1/1,,,0,0,0,1,0,2.00,423,ebook,,0,0,David Turnock,,,,,,1,0,,
16766501,1280325968,Global Instability: The Political Economy of World Economic Governance,9781280325960,,,,ES,2009/3/30,Taylor & Francis Group,,true,9,3831676,3,0,0,0,1999/4/22,Global Instability: The Political Economy of World Economic Governance (Contemporary Political Economy Series),,0,0,0,0,0,0.00,260,ebook,,0,0,,,,"John Grieve Smith,Jonathan Michie",,,3,0,,
16767001,1280331070,Being a Roman Citizen,9781280331077,,,,ES,2009/3/30,Routledge,,true,10,669325,12,9,2,0,1993/1/1,Being a Roman Citizen,,1,1,0,0,0,4.50,244,ebook,,0,0,Jane F. Gardner,,,,,,5,2,,"history,non-fiction"
16767501,128033617X,John Clare: The Critical Heritage (Revised),9781280336171,,,,ES,1995/9/11,Taylor & Francis Group,,true,10,10603246,2,4,1,0,1995/9/11,,,0,1,0,0,0,4.00,472,ebook,,0,0,,,,Mark Storey,,,1,0,,
16768001,1280342110,Building Type Basics for Research Laboratories,9781280342110,,,,ES,2009/1/9,John Wiley & Sons,,true,6,1230268,25,19,4,0,2001/10/15,Building Type Basics for Research Laboratories,,3,1,0,0,0,4.75,275,ebook,,0,0,Daniel D. Watch,,,,,,10,0,1,
16768501,1280348003,Image and Concept,9781280348006,,,,ES,1997/1/1,Routledge,,true,3,16768501,2,0,0,0,1996/12/31,,,0,0,0,0,0,0.00,,ebook,,0,0,Olga Freidenberg,,,Vyacheslav V. Ivanov,,,2,0,,
16769001,128035593X,Perspectives in Paediatric Oncology Nursing,9781280355936,,,,ES,2006/1/1,John Wiley & Sons,,true,6,17243192,1,0,0,0,2004/4/9,,,0,0,0,0,0,0.00,377,ebook,,0,0,"Beth Sepion,Faith Gibson,Louise Soanes",,,,,,1,0,,
16769501,1280363126,Making Use of PHP,9781280363122,,,,ES,2002/1/1,John Wiley & Sons,,true,6,4792375,11,17,5,0,2002/1/1,Making Use of PHP,,1,2,1,0,1,3.40,370,ebook,,0,0,Ashok Appu,,,,,,3,0,,
16770001,1280368551,Special Needs and Early Years,9781280368554,,,,ES,2003/1/1,Sage Publications (CA),,true,2,16770001,1,0,0,0,2003/3/18,,,0,0,0,0,0,0.00,209,ebook,,0,0,K Wall,,,,,,1,0,,
16770501,128037408X,"China's Rise, Taiwan's Dilemmas and International Peace",9781280374081,,,,ES,2005/1/24,Taylor & Francis Group,,true,7,20104805,4,0,0,0,2005/1/24,,,0,0,0,0,0,0.00,,ebook,,0,0,,,,Edward Friedman,,,3,0,,
16771001,1280379715,2nd Grade Mathematical Thinking: Reasoning and Proof,9781280379710,,,,ES,2005/3/7,Brain Builders,,true,2,6157794,1,0,0,0,2004/4/30,"Mathematical Thinking Reasoning and Proof, Grade 2: Reasoning and Proof (Rosen Brain Builders)",,0,0,0,0,0,0.00,48,ebook,,0,0,John Strazzabosco,,,,,,1,0,,
16771501,1280403586,Archaeology and World Religion,9781280403583,,,,ES,2006/7/6,Routledge,,true,10,1237789,12,12,4,0,2001/1/2,Archaeology and World Religion,,0,0,4,0,0,3.00,226,ebook,,0,0,,,,Timothy Insoll,,,2,0,,
16772001,1280409142,Licensing Best Practices,9781280409141,,,,ES,2014/5/9,John Wiley & Sons,,true,6,859734,6,3,1,1,2006/1/1,"Licensing Best Practices: Strategic, Territorial, and Technology Issues",,0,0,1,0,0,3.00,314,ebook,,0,0,Robert Goldscheider,,,,,,3,1,,
16772501,1280414669,Exact Solutions of Einstein's Field Equations,9781280414664,,,,ES,2003/1/1,Cambridge University Press,eng,true,7,896253,26,38,9,0,2003/1/1,Exact Solutions of Einstein's Field Equations,book,3,5,1,0,0,4.22,733,ebook,,0,0,"Cornelius Hoenselaers,Dietrich Kramer,Eduard Herlt,Hans Stephani,Malcolm A.H. MacCallum",,,,,,9,0,1,"philosophy,science"
16773001,1280419873,"Changing Adolescent Experience, The: Societal Trends and the Transition to Adulthood",9781280419874,,,,ES,2002/1/1,Cambridge University Press,,true,4,10295410,3,0,0,0,2002/5/9,,,0,0,0,0,0,0.00,294,ebook,,0,0,"Jeylan T. Mortimer,Reed W. Larson",,,,,,3,0,,
16773501,128042513X,Racism and Anti-Racism in Football,9781280425134,,,,ES,2001/1/1,Palgrave MacMillan,,true,4,4680371,6,3,1,0,2001/8/24,Racism and Anti-Racism in Football,book,0,0,1,0,0,3.00,232,ebook,,0,0,"Jon Garland,Michael     Rowe",,,,,,3,1,,non-fiction
16774001,1280430389,Mandates and Democracy: Neoliberalism by Surprise in Latin America (Cambridge Studies in Comparative Politics),9781280430381,,,,ES,2001/1/1,Cambridge University Press,,true,3,1869158,17,18,4,0,2001/1/1,,book,2,2,0,0,0,4.50,237,ebook,,0,0,Susan C. Stokes,,,,,,7,0,,non-fiction
16774501,1280435542,"Key Marketing Skills: Strategies, Tools and Techniques for Marketing Success",9781280435546,,,,ES,2005/1/1,Kogan Page,,true,4,2086909,14,10,3,0,2001/1/1,Key Marketing Skills,,1,1,0,0,1,3.33,386,ebook,,0,0,Peter Cheverton,,,,,,7,0,,business
16775001,1280441720,Young Turks in Opposition,9781280441721,,,,ES,2009/1/9,"Oxford University Press, USA",,true,2,2052238,41,50,11,1,1995/1/1,The Young Turks in Opposition (Studies in Middle Eastern History),book,7,3,1,0,0,4.55,390,ebook,,1,0,M. Şükrü Hanioğlu,,,,,,27,0,1,history
16775501,1280447478,Global Integration and Technology Transfer,9781280447471,,,,ES,2014/5/9,World Bank Group,,true,4,19225709,1,0,0,0,2006/4/27,,,0,0,0,0,0,0.00,346,ebook,,0,0,,,,Bernard M. Hoekman,,,1,0,,
16776001,1280453737,Mergers & Acquisitions: Guide to Creating Value for Stakeholders,9781280453731,,,,ES,2009/1/9,"Oxford University Press, USA",,true,5,526223,11,8,3,1,2001/1/1,Mergers and Acquisitions: A Guide to Creating Value for Stake Holders,,0,1,0,2,0,2.67,230,ebook,,0,0,"Jeffrey S. Harrison,Michael A. Hitt,R. Duane Ireland",,,,,,5,0,,
16776501,1280459042,"A Comparison of the Dynamical Evolution of Planetary Systems: Proceedings of the Sixth Alexander Von Humboldt Colloquium on Celestial Mechanics Bad Hofgastein (Austria), 21-27 March 2004",9781280459047,,,,ES,2005/1/1,Springer,,true,1,16776501,0,0,0,0,2005/1/1,,,0,0,0,0,0,0.00,300,ebook,,0,0,,,,"Rudolf Dvorak,Sylvio Ferraz-Mello",,,,0,,
16777001,1280464313,Leaving Words to Remember: Greek Mourning and the Advent of Literacy. Mnemosyne: Bibliotheca Classica Batava,9781280464317,,,,ES,2012/2/3,Brill Academic Publishers,,true,1,16777001,1,3,1,0,2001/1/1,,,0,0,1,0,0,3.00,206,ebook,,1,0,Katharine Derderian,,,,,,,0,,
16777501,1280469730,Earnest Endeavors,9781280469732,,,,ES,2014/5/10,Praeger,,true,2,16777501,0,0,0,0,2003/12/30,,,0,0,0,0,0,0.00,303,ebook,,0,0,Marc McClure,,,,,,,0,,
16778001,1280476524,Advertising and Identity in Europe: The I of the Beholder,9781280476525,,,,ES,2000/1/12,Intellect (UK),,true,2,5015625,2,0,0,0,2000/1/12,Advertising and Identity in Europe: The I of the Beholder,,0,0,0,0,0,0.00,138,ebook,,0,0,Jackie Cannon,,,"Patricia Odber,Robin Warner",,,1,0,,
16778501,128048196X,John Winthrop: America's Forgotten Founding Father,9781280481963,,,,ES,2009/1/9,"Oxford University Press, USA",,true,6,777275,172,231,61,8,2003/6/16,John Winthrop: America's Forgotten Founding Father,book,14,26,16,4,1,3.79,478,ebook,,0,0,Francis J. Bremer,,,,,,82,8,7,"american-history,biography,history,non-fiction"
16779001,1280489227,Jesus Heals Today,9781280489228,,,,ES,2012/5/10,Winepress Publishing,,true,4,17171622,2,9,2,1,2012/5/6,,,1,1,0,0,0,4.50,385,ebook,,0,0,Marcia Daniels,,,,,,,0,,
16779501,1280495464,Energy,9781280495465,,,,ES,2014/5/9,Cato Institute,,true,1,16779501,0,0,0,0,1997/11/1,,,0,0,0,0,0,0.00,146,ebook,,0,0,Paul Ballonoff,,,,,,,0,,
16780001,1280501782,Cross-Linguistic Influences in the Second Language Lexicon. Second Language Acquisition 17,9781280501784,,,,ES,2006/2/28,Multilingual Matters Limited,,true,3,1356089,1,3,1,0,2006/4/10,Cross-Linguistic Influences in the Second Language Lexicon (Second Language Acquisition),,0,0,1,0,0,3.00,272,ebook,,0,0,Janusz Arabski,,,,,,,0,,
16780501,1280508922,"Internet-Enabled Workflow Management. Business Process Management Journal, Volume 11, Issue 3.",9781280508929,,,,ES,2005/6/17,Emerald Group Publishing,,true,1,16780501,0,0,0,0,2005/6/17,,,0,0,0,0,0,0.00,79,ebook,,0,0,,,,Edward A. Stohr,,,,0,,
16781001,1280514620,"New Alignments. Facilities, Volume 22, Issue 13\14.",9781280514623,,,,ES,2004/10/29,Emerald Group Publishing,,true,1,16781001,0,0,0,0,2004/10/29,,,0,0,0,0,0,0.00,54,ebook,,0,0,,,,Bev Nutt,,,,0,,
16781501,1280519959,Process Development: From the Initial Idea to the Chemical Production Plant,9781280519956,,,,ES,2006/1/1,Wiley-VCH Verlag GmbH,,true,4,8148100,0,0,0,0,2005/5/6,,,0,0,0,0,0,0.00,494,ebook,,0,0,G. Herbert Vogel,,,,,,,0,,
16782001,1280525061,Printers and Press Freedom: The Ideology of Early American Journalism,9781280525063,,,,ES,2012/2/16,"Oxford University Press, USA",,true,3,1662006,13,11,3,2,1987/11/19,Printers and Press Freedom: The Ideology of Early American Journalism,book,1,1,0,1,0,3.67,233,ebook,,0,0,Jeffery Alan Smith,,,,,,7,0,,
16782501,1280530146,Early Upanisads: Annotated Text and Translation. South Asia Research (Revised),9781280530142,,,,ES,2012/2/16,"Oxford University Press, USA",,true,4,354650,67,78,20,1,1998/1/1,The Early Upanisads: Annotated Text & Translation (South Asia Research),book,6,10,1,2,1,3.90,677,ebook,,0,0,,,,Patrick Olivelle,,,37,2,3,"academic,philosophy,religion"
16783001,1280535970,CIW: Security Professional Study Guide,9781280535970,,,,ES,2014/5/9,Sybex,,true,2,16783001,0,0,0,0,2002/6/11,,,0,0,0,0,0,0.00,728,ebook,,0,0,"James Stanger,Patrick Lane,Timothy Crothers",,,,,,,0,,
16783501,1280541660,Protein Sequencing and Identification Using Tandem Mass Spectrometry. Wiley-Interscience Series on Mass Spectrometry.,9781280541667,,,,ES,2000/9/22,John Wiley & Sons,,true,4,16336998,5,11,3,1,2000/9/18,,,1,0,2,0,0,3.67,320,ebook,,0,0,Michael Kinter,,,,,,,0,1,
16784001,1280547472,"Issues in Investment Analysis. Managerial Finance, Volume 32, Issue 5",9781280547478,,,,ES,2010/1/10,Emerald Group Publishing,,true,1,16784001,0,0,0,0,2006/5/19,,,0,0,0,0,0,0.00,76,ebook,,0,0,K. Lyroudi,,,,,,,0,,
16784501,1280553979,Sometimes They Even Shook Your Hand,9781280553974,,,,ES,2011/10/1,University of Nebraska Press,,true,4,12308146,27,54,15,3,2011/10/1,,,3,4,7,1,0,3.60,341,ebook,,1,0,John Schulian,,,,,,11,0,,
16785001,1280560606,Amyotrophic Lateral Sclerosis (Contemporary Neurology Series),9781280560606,,,,ES,2014/5/9,"Oxford University Press, USA",,true,4,4767124,3,4,1,1,1998/1/2,Amyotrophic Lateral Sclerosis,book,0,1,0,0,0,4.00,480,ebook,,0,0,"David A. Chad,Erik P. Pioro,Hiroshi Mitsumoto",,,,,,,0,,
16785501,1280566132,"Development Models, Globalization and Economies: A Search for the Holy Grail?",9781280566134,,,,ES,2006/12/27,Palgrave MacMillan,,true,5,16570215,0,0,0,0,2005/2/1,,,0,0,0,0,0,0.00,261,ebook,,0,0,John B. Kidd,,,,,,,0,,
16786001,1280572884,American Alligator,9781280572883,,,,ES,2013/9/24,Cherry Lake Publishing,,true,6,7011001,1,0,0,0,2007/1/1,,,0,0,0,0,0,0.00,36,ebook,,0,0,Susan H. Gray,,,,,,,0,,
16786501,128057819X,A Way in the Wilderness,9781280578199,,,,ES,2012/3/8,Continuum International Publishing Group,,true,3,13638816,4,4,1,0,2012/3/8,,book,0,1,0,0,0,4.00,249,ebook,,0,0,James Bishop,,,,,,2,0,,"religion,spirituality"
16787001,1280583568,German Grammar Drills,9781280583568,,,,ES,2012/10/10,McGraw-Hill,,true,12,3206586,202,260,67,6,2007/6/1,German Grammar Drills,,20,28,12,5,2,3.88,337,ebook,,0,0,Ed Swick,,,,,,75,2,30,"language,non-fiction,reference"
16787501,128058937X,Executive Roadmap to Fraud Prevention and Internal Control,9781280589379,,,,ES,2012/1/1,John Wiley & Sons,,true,13,455637,44,67,19,1,2006/1/1,Executive Roadmap to Fraud Prevention and Internal Controls: Creating a Culture of Compliance,book,2,10,4,2,1,3.53,417,ebook,,0,0,"Joel T. Bartow,Martin T. Biegelman",,,,,,9,0,5,
16788001,1280595035,Enlightened Aid: U.S. Development as Foreign Policy in Ethiopia,9781280595035,,,,ES,2012/5/29,"Oxford University Press, USA",,true,3,16788001,1,0,0,0,2012/3/2,,,0,0,0,0,0,0.00,308,ebook,,0,0,Amanda Kay McVety,,,,,,1,0,,
16788501,1280602643,Family Law (Longman Law Series),9781280602641,,,,ES,2004/1/1,Pearson Education UK,,true,23,11604450,35,66,16,0,,,book,6,8,1,0,1,4.12,772,ebook,,0,0,Jonathan Herring,,,,,,5,1,2,"family,marriage"
16789001,1280610867,Gynecologic Cancer,9781280610868,,,,ES,2010/1/10,Springer New York,,true,5,14835712,0,0,0,0,2005/12/1,,,0,0,0,0,0,0.00,311,ebook,,0,0,,,,"David M. Gershenson,Elvio G. Silva,John J. Kavanagh,Patricia J. Eifel",,,,0,,
16789501,1280616172,Stimmtherapie Mit Erwachsenen: Was Stimmtherapeuten Wissen Sollten Mit Einem Geleitwort Von Michael Heptner 2. Auflage,9781280616174,,,,ES,2005/1/1,Springer,,true,2,16789501,0,0,0,0,2005/1/1,,,0,0,0,0,0,0.00,300,ebook,,0,0,Sabine S Hammer,,,,,,,0,,
16790001,1280621567,"Statistik: Fur Human- Und Sozialwissenschaftler Sechste, Vollstandig Uberarbeitete Und Aktualisierte Auflage",9781280621567,,,,ES,2005/1/1,Springer,,true,1,16790001,0,0,0,0,2005/1/1,,,0,0,0,0,0,0.00,876,ebook,,0,0,J Bortz,,,,,,,0,,
16790501,1280627042,Cataract and Refractive Surgery. Essentials in Ophthalmology.,9781280627040,,,,ES,2006/1/1,Springer,,true,8,5386430,1,0,0,0,2004/10/5,Cataract and Refractive Surgery (Essentials in Ophthalmology),,0,0,0,0,0,0.00,182,ebook,,0,0,Thomas Kohnen,,,Douglas D. Koch,,,,0,,
16791001,1280632658,"Representing Scotland in Literature, Popular Culture and Iconography: The Masks of the Modern Nation",9781280632655,,,,ES,2010/1/10,Palgrave MacMillan,eng,true,6,16791001,2,0,0,0,2004/12/10,"Representing Scotland in Literature, Popular Culture and Iconography: The Masks of the Modern Nation",book,0,0,0,0,0,0.00,280,ebook,,0,0,Alan Riach,,,,,,1,0,1,
16791501,1280638842,Architect's Pocket Book of Kitchen Design,9781280638848,,,,ES,2010/1/10,Routledge,,true,9,1197869,18,19,5,0,2005/1/1,Architect's Pocket Book of Kitchen Design,,1,2,2,0,0,3.80,217,ebook,,0,0,Charlotte Baden-Powell,,,,,,8,0,1,
16792001,1280647167,Corruption and Reform in India,9781280647161,,,,ES,2012/6/1,Cambridge University Press,,true,3,16792001,2,0,0,0,2012/4/30,,,0,0,0,0,0,0.00,322,ebook,,0,0,Jennifer Bussell,,,,,,,0,2,
16792501,1280652721,Nonproliferation Issues for Weapons of Mass Destruction. Public Administration and Public Policy,9781280652721,,,,ES,2010/5/17,CRC Press,,true,2,16792501,0,0,0,0,2005/1/12,,,0,0,0,0,0,0.00,274,ebook,,0,0,"Mark Antonio Prelas,Michael S. Peck",,,,,,,0,,
16793001,1280659742,Using Humor to Maximize Living: Connecting with Humor (Revised),9781280659744,,,,ES,2012/6/22,R & L Education,eng,true,9,2916105,41,45,10,1,2007/12/1,Using Humor to Maximize Learning: The Links between Positive Emotions and Education,book,7,1,2,0,0,4.50,261,ebook,,0,0,Mary Kay Morrison,,,,,,11,0,1,"humor,non-fiction,teaching"
16793501,1280665564,Europe's Encounter with Islam: The Secular and the Postsecular,9781280665561,,,,ES,2012/6/1,Routledge,,true,9,16793501,5,6,2,1,2012/3/1,,,0,0,2,0,0,3.00,185,ebook,,2,1,Luca Mavelli,,,,,,3,0,,religion
16794001,1280673672,Zbrush Creature Design,9781280673672,,,,ES,2014/5/10,Sybex,,true,6,18952556,7,12,3,0,2012/4/4,,,1,1,1,0,0,4.00,386,ebook,,0,0,Scott Spencer,,,,,,3,0,1,education
16794501,1280679654,Transformative CEO: Impact Lessons from Industry Game Changers,9781280679650,,,,ES,2012/7/31,McGraw-Hill Companies,,true,1,14592703,57,66,20,5,2012/5/1,,,4,5,6,3,2,3.30,225,ebook,,0,0,"Jeffrey J. Fox,Robert Reiss",,,,,,26,1,4,"business,leadership"
16795001,1280684933,Reform Versus Dreams: Preventing Student Failure,9781280684937,,,,ES,2012/6/6,R & L Education,,true,3,16795001,0,0,0,0,2012/3/22,,,0,0,0,0,0,0.00,134,ebook,,0,0,Rosalind Larocque,,,,,,,0,,
16795501,1280692731,Earth,9781280692734,,,,ES,2012/8/15,Rosen Publishing Group,,true,6,15007886,2,0,0,0,2012/8/15,,,0,0,0,0,0,0.00,26,ebook,,0,0,Elisa Peters,,,,,,,0,,
16796001,1280698713,The Changing Nature of the Maine Woods,9781280698712,,,,ES,2012/10/18,University Press of New England,,true,5,14367780,38,69,17,2,2012/6/26,The Changing Nature of the Maine Woods,book,5,10,1,0,1,4.06,367,ebook,,0,0,"Alan S. White,Andrew M. Barton,Charles V. Cogbill",,,,,,20,0,,"dystopia,nature,non-fiction,science"
16796501,1280703989,Book of Job: A Contest of Moral Imaginations,9781280703980,,,,ES,2010/1/10,"Oxford University Press, USA",,true,6,120342,87,133,32,2,2003/1/1,The Book of Job: A Contest of Moral Imaginations,,14,10,7,1,0,4.16,301,ebook,,0,0,Carol A. Newsom,,,,,,38,0,4,"christianity,criticism,non-fiction,philosophy,religion,school,theology"
16797001,1280711094,"The Chase Court: Justices, Rulings, and Legacy",9781280711091,,,,ES,2004/10/5,ABC-CLIO,,true,2,16797001,0,0,0,0,2004/10/5,,,0,0,0,0,0,0.00,247,ebook,,0,0,Jonathan Lurie,,,,,,,0,,
16797501,1280716576,Reliability and Optimal Maintenance. Springer Series in Reliability Engineering.,9781280716577,,,,ES,2006/1/1,Springer,,true,1,16797501,0,0,0,0,2006/1/1,,,0,0,0,0,0,0.00,353,ebook,,0,0,"Hoang Pham,Hongzhou Wang",,,,,,,0,,
16798001,1280722940,Modern Surface Technology,9781280722943,,,,ES,2010/1/10,Wiley-VCH Verlag GmbH,,true,8,16798001,0,0,0,0,2006/8/23,,book,0,0,0,0,0,0.00,325,ebook,,0,0,,,,Friedrich-Wilhelm Bach,,,,0,,
16798501,128072949X,Engineering with MathCAD: Using MathCAD to Create and Organize Your Engineering Calculations,9781280729492,,,,ES,2010/1/10,Butterworth-Heinemann,,true,2,16798501,1,0,0,0,2006/10/9,,,0,0,0,0,0,0.00,494,ebook,,0,0,Brent Maxfield,,,,,,1,0,,
16799001,1280736321,Jo's Triumph,9781280736322,,,,ES,2010/1/10,Orca Book Publishers,,true,6,1670905,31,48,14,3,2002/1/1,Jo's Triumph (Orca Young Readers),book,3,3,5,3,0,3.43,140,ebook,,0,0,Nikki Tate,,,,,,11,4,,"fiction,historical-fiction"
16799501,1280742542,Joint U.S.-Mexico Workshop on Preventing Obesity in Children and Youth of Mexican Origin: Summary,9781280742545,,,,ES,2010/1/10,National Academies Press,,true,1,16799501,0,0,0,0,2007/1/1,,,0,0,0,0,0,0.00,197,ebook,,0,0,"Kristin Sawyer,Maria Oria",,,,,,,0,,
16800001,1280748567,Green Reaction Media in Organic Synthesis,9781280748561,,,,ES,2010/1/10,Wiley-Blackwell,,true,4,16800001,0,0,0,0,2005/9/21,,,0,0,0,0,0,0.00,187,ebook,,0,0,Mikami Koichi,,,Koichi Mikami,,,,0,,
16800501,1280753927,Electronic and Optical Properties of Conjugated Polymers,9781280753923,,,,ES,2010/1/10,"Oxford University Press, USA",,true,9,1960626,3,5,1,0,2005/2/9,Electronic and Optical Properties of Conjugated Polymers,book,1,0,0,0,0,5.00,262,ebook,,0,0,William Barford,,,,,,2,0,,
16801001,1280759852,Feature Structure of Functional Categories: A Comparative Study of Arabic Dialects,9781280759857,,,,ES,2010/1/10,"Oxford University Press, USA",,true,1,16801001,0,0,0,0,2000/2/24,,,0,0,0,0,0,0.00,180,ebook,,0,0,Elabbas Benmamoun,,,,,,,0,,
16801501,1280765607,Demystifying Kashmir,9781280765605,,,,ES,2010/1/10,Brookings Institution Press,,true,5,804346,86,77,19,2,2006/1/1,Demystifying Kashmir,,6,9,3,1,0,4.05,359,ebook,,0,0,Navnita Chadha Behera,,,,,,61,1,2,
16802001,128077343X,Ezra Pound,9781280773433,,,,ES,2012/6/19,Cambridge University Press,,true,1,16802001,0,0,0,0,2011/3/3,,,0,0,0,0,0,0.00,482,ebook,,0,0,Betsy Erkkila,,,,,,,0,,
16802501,1280779284,"Chemical Resistance of Specialty Thermoplastics: Chemical Resistance, Volume 3",9781280779282,,,,ES,2013/1/28,William Andrew Publishing,,true,2,16377002,0,0,0,0,2012/6/29,,,0,0,0,0,0,0.00,1685,ebook,,0,0,,,,"Sina Ebnesajjad,William Woishnis",,,,0,,
16803001,1280804084,Methodology of Uniform Contract Law: The Unidroit Principles in International Legal Doctrine and Practice,9781280804083,,,,ES,2010/1/10,Springer,,true,4,12230692,1,0,0,0,2007/1/1,,,0,0,0,0,0,0.00,230,ebook,,0,0,Maren Heidemann,,,,,,1,0,,
16803501,1280811714,Environmental Policies for Agricultural Pollution Control,9781280811715,,,,ES,2010/1/10,CABI Publishing,,true,1,16803501,0,0,0,0,2001/8/31,,,0,0,0,0,0,0.00,240,ebook,,0,0,,,,"D.G. Abler,J.S. Shortle",,,,0,,
16804001,1280817313,"Intelligent Decision-Making Support Systems: Foundations, Applications and Challenges",9781280817311,,,,ES,2010/1/10,Springer London,,true,4,9929660,0,0,0,0,2005/12/31,,,0,0,0,0,0,0.00,503,ebook,,0,0,"Guisseppi A. Forgionne,Jatinder N.D. Gupta,Manuel T. Mora",,,,,,,0,,
16804501,1280822503,Alan Simpson's Windows Vistatm Bible,9781280822506,,,,ES,2007/1/24,John Wiley & Sons,,true,8,1095694,15,27,6,0,2007/1/24,Alan Simpson's Windows Vista Bible,,4,1,1,0,0,4.50,1226,ebook,,0,0,"Alan Simpson,Todd Meister",,,,,,1,0,,
16805001,1280827963,"Cross-Linguistic Influence in Third Language Acquisition: Psycholinguistic Perspectives. Bilingual Education and Bilingualism, Volume 31.",9781280827969,,,,ES,2010/1/10,Multilingual Matters Limited,,true,1,16805001,1,0,0,0,2001/10/9,,,0,0,0,0,0,0.00,197,ebook,,0,0,,,,Jasone And Cenoz,,,1,0,,
16805501,1280833610,Free Time and Leisure Participation: International Perspectives,9781280833618,,,,ES,2010/1/10,CABI Publishing,,true,3,3118637,0,0,0,0,2005/3/1,Free Time and Leisure Participation,,0,0,0,0,0,0.00,320,ebook,,0,0,,,,"A.J. Veal,Grant Cushman,J. Zuzanek",,,,0,,
16806001,1280838841,The Periglacial Environment,9781280838842,,,,ES,2010/1/10,John Wiley & Sons,,true,14,1410378,2,0,0,0,1976/1/1,,,0,0,0,0,0,0.00,458,ebook,,0,0,"Hugh M. French,Paul Williams",,,,,,1,0,,
16806501,1280845570,Bobcat: Master of Survival,9781280845574,,,,ES,2010/1/10,"Oxford University Press, USA",,true,5,964526,63,74,18,2,2006/9/1,Bobcat: Master of Survival,,7,6,5,0,0,4.11,248,ebook,,0,0,Kevin  Hansen,,,,,,32,2,6,
16807001,1280852399,"Welfare of Laboratory Animals, The. Animal Welfare: Volume 2.",9781280852398,,,,ES,2010/1/10,Springer,,true,4,199966,3,5,1,0,2004/1/1,The Welfare of Laboratory Animals (Animal Welfare),book,1,0,0,0,0,5.00,345,ebook,,0,0,,,,Eila Kaliste,,,2,0,,
16807501,1280857870,Child Protection in Primary Care,9781280857874,,,,ES,2010/1/10,Radcliffe Publishing,,true,1,16807501,0,0,0,0,2001/1/1,,,0,0,0,0,0,0.00,169,ebook,,0,0,,,,Janet C Polnay,,,,0,,
16808001,1280864079,Punctured Torus Groups and 2-Bridge Knot Groups(i),9781280864070,,,,ES,2010/1/10,Springer,,true,1,16808001,0,0,0,0,2007/1/1,,,0,0,0,0,0,0.00,249,ebook,,0,0,"H. Akiyoshi,M. Sakuma,Masamitsu Wada,Y Yamashita",,,,,,,0,,
16808501,1280869453,Leadership for Innovation: How to Organize Team Creativity and Harvest Ideas,9781280869457,,,,ES,2010/1/10,Kogan Page,,true,7,1045556,52,44,11,0,2007/1/1,Leadership for Innovation: How to Organize Team Creativity and Harvest Ideas,,4,4,2,1,0,4.00,134,ebook,,0,0,John Adair,,,,,,28,1,6,"business,leadership"
16809001,1280876840,"Reading Victorian Illustration, 1855 1875: Spoils of the Lumber Room",9781280876844,,,,ES,2012/8/17,Ashgate Publishing,,true,2,16322101,0,0,0,0,2012/8/1,,,0,0,0,0,0,0.00,241,ebook,,0,0,,,,"Paul Goldman,Simon Cooke",,,,0,,
16809501,1280900342,"Sentinel CEO: Perspectives on Security, Risk, and Leadership in a Post-9/11 World",9781280900341,,,,ES,2010/1/10,John Wiley & Sons,,true,4,1783943,4,8,4,2,2007/1/1,"The Sentinel CEO: Perspectives on Security, Risk, and Leadership in a Post-9/11 World",,0,0,1,2,1,2.00,210,ebook,,0,0,William G. Parrett,,,,,,,0,,business
16810001,1280905913,Serial Verb Constructions: A Cross-Linguistic Typology,9781280905919,,,,ES,2007/12/10,"Oxford University Press, USA",,true,5,2676189,10,23,5,0,2005/12/22,Serial Verb Constructions: A Cross-Linguistic Typology,,3,2,0,0,0,4.60,369,ebook,,0,0,,,,"Alexandra Y. Aikhenvald,R.M.W. Dixon",,,3,0,,reference
16810501,1280912138,Developing Decision-Making Skills for Business,9781280912139,,,,ES,2010/1/10,M.E. Sharpe,,true,1,16810501,0,0,0,0,2000/1/1,,,0,0,0,0,0,0.00,229,ebook,,0,0,Julian L Simon,,,,,,,0,,
16811001,1280917547,Blacked Out: Government Secrecy in the Information Age,9781280917547,,,,ES,2010/1/10,Cambridge University Press,,true,8,330830,49,53,16,3,2005/12/31,Blacked Out: Government Secrecy in the Information Age,,3,1,10,2,0,3.31,322,ebook,,0,0,Alasdair Roberts,,,,,,24,2,1,non-fiction
16811501,1280926775,Fundamentals of Customer-Focused Management: Competing Through Service,9781280926778,,,,ES,2010/1/10,Praeger Publishers,,true,3,16811501,0,0,0,0,2003/12/30,,,0,0,0,0,0,0.00,216,ebook,,0,0,Joby John,,,,,,,0,,
16812001,128093302X,Creating an Inclusive School,9781280933028,,,,ES,2010/1/10,Association for Supervision & Curriculum Development,,true,6,1019047,53,114,32,2,1995/11/15,Creating an Inclusive School,book,5,14,8,4,1,3.56,219,ebook,,0,0,"Jacqueline S. Thousand,Richard A. Villa",,,,,,12,0,3,"education,teaching"
16812501,1280941235,Psychology in Diabetes Care,9781280941238,,,,ES,2010/1/10,John Wiley & Sons,,true,9,2116459,10,12,4,0,2000/6/20,Psychology in Diabetes Care (Practical Diabetes),book,0,2,1,0,1,3.00,205,ebook,,0,0,,,,"Frank J. Snoek,T. Chas Skinner",,,2,0,,psychology
16813001,1280950595,Making Sense of Children's Drawings,9781280950599,,,,ES,2010/1/10,Open University Press,,true,3,9380164,6,4,1,0,2004/1/1,Making Sense of Children's Drawings,,0,1,0,0,0,4.00,136,ebook,,0,0,"Angela Anning,Kathy Ring",,,,,,2,0,1,
16813501,1280957611,Enhancing Police Integrity,9781280957611,,,,ES,2010/1/10,Springer New York,,true,4,7275818,1,0,0,0,2006/1/1,Enhancing Police Integrity,,0,0,0,0,0,0.00,276,ebook,,0,0,"Carl B. Klockars,M.R. Haberfeld,Sanja Kutnjak Ivković",,,,,,,0,,
16814001,1280963670,Clinical Manual of Impulse-Control Disorders,9781280963674,,,,ES,2010/1/10,American Psychiatric Publishing,,true,3,17018407,5,0,0,0,2005/9/1,,,0,0,0,0,0,0.00,347,ebook,,0,0,Eric Hollander,,,Dan J. Stein,,,1,1,,
16814501,1280971290,Deconstructing Developmental Psychology,9781280971297,,,,ES,2008/8/5,Taylor & Francis Group,,true,17,3324930,66,86,21,3,1994/6/24,Deconstructing Developmental Psychology,,9,6,5,1,0,4.10,356,ebook,,0,0,Erica Burman,,,,,,34,1,6,"feminism,psychology,school"
16815001,1280986697,"Teaching Films: In America, Whale Rider, Bend It Like Beckham. Worksheets with Instructions & Answer Keys",9781280986697,,,,ES,2007/8/7,Vandehoeck & Rupprecht,,true,3,16815001,0,0,0,0,2007/1/1,,,0,0,0,0,0,0.00,65,ebook,,0,0,Nancy Grimm,,,,,,,0,,
16815501,1280992220,"Der Versicherungsgedanke Und Seine Historischen Grundlagen, Der",9781280992223,,,,ES,2014/5/9,V&r Unipress,,true,3,16815501,0,0,0,0,2011/1/19,,,0,0,0,0,0,0.00,468,ebook,,0,0,Albert Schug,,,,,,,0,,
16816001,1281000973,Mobilizing the Private Sector for Public Education: A View from the Trenches,9781281000972,,,,ES,2010/1/10,World Bank Group,,true,3,16816001,1,0,0,0,2007/7/23,,,0,0,0,0,0,0.00,88,ebook,,0,0,Harry A. Patrinos,,,Shobhana Sosale,,,,1,,education
16816501,1281006432,Sport Management,9781281006431,,,,ES,2010/1/10,Routledge,,true,36,11228025,30,18,5,0,2005/9/19,,book,1,1,3,0,0,3.60,288,ebook,,0,0,"Aaron Smith,Bob Stewart,Hans Westerbeek,Matthew Nicholson,Russell Hoye",,,,,,13,0,5,sports
16817001,1281011754,"International Review of Cytology, Volume 226",9781281011756,,,,ES,2010/1/10,Academic Press,,true,4,16374152,0,0,0,0,2003/8/6,,book,0,0,0,0,0,0.00,358,ebook,,0,0,Kwang W. Jeon,,,,,,,0,,
16817501,1281017558,Okonomie Der Regulierung: Neue Spielregeln Fur Kapitalmarkte Und Netzindustrien Kongress-Dokumentation 63. Deutscher Betriebswirtschafter-Tag 2009,9781281017550,,,,ES,2014/5/9,Schaffer-Poeschel Verlag,,true,2,16378757,0,0,0,0,2010/5/17,,,0,0,0,0,0,0.00,305,ebook,,0,0,,,,"Arnold Picot,Marcus Schenck",,,,0,,
16818001,128102273X,Practical Statecharts in C/C++: Quantum Programming for Embedded Systems,9781281022738,,,,ES,2010/1/10,Taylor & Francis Group,,true,2,16818001,0,0,0,0,2002/1/7,,,0,0,0,0,0,0.00,395,ebook,,0,0,Miro Samek,,,,,,,0,,
16818501,1281027928,Marketing Environment. the Official CIM Coursebook 06/07,9781281027924,,,,ES,2006/8/22,Taylor & Francis Group,,true,3,18498954,1,0,0,0,2006/8/22,,,0,0,0,0,0,0.00,360,ebook,,0,0,Mike Oldroyd,,,,,,1,0,,
16819001,1281033847,Art of the Storyboard: A Filmmaker's Introduction (Revised),9781281033840,,,,ES,2008/8/12,Focal Press,,true,9,2100005,135,162,48,4,1998/12/1,"The Art of the Storyboard: Storyboarding for Film, TV, and Animation",book,8,13,18,7,2,3.38,203,ebook,,0,0,John   Hart,,,,,,61,2,4,"art,film,reference"
16819501,1281038946,"Onshore-Offshore Relationships on the North Atlantic Margin. Norwegian Petroleum Society Special Publications, Volume 12",9781281038944,,,,ES,2005/7/26,Elsevier Science & Technology,,true,1,16819501,0,0,0,0,2005/7/26,,,0,0,0,0,0,0.00,320,ebook,,0,0,"E. Eide,F. Gradstein,J.P. Nystuen",,,,,,,0,,
16820001,1281046191,Representation in Mind,9781281046192,,,,ES,2010/1/10,Elsevier Science,,true,3,16383128,0,0,0,0,2004/1/1,,,0,0,0,0,0,0.00,244,ebook,,0,0,,,,"Hugh Clapin,Peter P. Slezak,Phillip James Staines",,,,0,,
16820501,1281051381,Newnes Engineering Science Pocket Book. Newnes Pocket Books,9781281051387,,,,ES,2001/8/13,Taylor & Francis Group,,true,10,6913882,3,5,1,0,2001/8/13,,,1,0,0,0,0,5.00,650,ebook,,0,0,John O. Bird,,,,,,1,0,,
16821001,1281056413,Theoretical Perspectives for Direct Social Work Practice: A Generalist-Eclectic Approach,9781281056412,,,,ES,2008/7/8,Springer Publishing Company,,true,9,2741975,84,119,34,2,2000/12/13,Theoretical Perspectives for Direct Social Work Practice: A Generalist-Eclectic Approach (Springer Series on Social Work),book,6,11,12,4,1,3.50,556,ebook,,0,0,,,,"Nick Coady,Peter Lehmann",,,28,1,4,"non-fiction,reference,school,textbooks,unfinished"
16821501,1281061824,Introduction to Sports Biomechanics,9781281061829,,,,ES,2010/3/10,Routledge,,true,22,7234852,14,16,4,0,1996/11/1,,,2,0,2,0,0,4.00,292,ebook,,0,0,Roger Bartlett,,,,,,6,0,1,
16822001,1281067350,On the Interpretation of Treaties: The Modern International Law as Expressed in the 1969 Vienna Convention on the Law of Treaties,9781281067357,,,,ES,2010/1/10,Springer,,true,2,10835199,4,7,2,0,2007/1/1,,,0,1,1,0,0,3.50,410,ebook,,0,0,Ulf Linderfalk,,,,,,2,0,,
16822501,1281075981,"Immigrant Youth in Cultural Transition: Acculturation, Identity, and Adaptation Across National Contexts",9781281075987,,,,ES,2010/1/10,Psychology Press,,true,5,1091092,7,3,1,0,2006/3/22,,,0,0,1,0,0,3.00,345,ebook,,0,0,,,,"David L. Sam,Jean S. Phinney,John W. Berry,Paul Vedder",,,3,0,,
16823001,1281081779,Managing Performance Stress: Models and Methods: Models and Methods,9781281081773,,,,ES,2010/1/10,Routledge,,true,9,18014136,107,0,0,0,2006/1/1,,,0,0,0,0,0,0.00,271,ebook,,0,0,David Pargman,,,,,,36,0,36,
16823501,1281090328,Over 88 Tips & Ideas to Supercharge Your Exhibit Sales,9781281090324,,,,ES,2010/1/10,Electronic & Database Publishing Inc.,,true,3,4236368,3,2,1,0,1997/1/1,Over 88 Tips & Ideas to Supercharge Your Exhibit Sales,book,0,0,0,1,0,2.00,96,ebook,,0,0,Steve    Miller,,,,,,2,0,,
16824001,1281096555,Indicators of Fiscal Sustainability,9781281096555,,,,ES,2013/9/24,International Monetary Fund,,true,2,16824001,0,0,0,0,1991/1/1,,,0,0,0,0,0,0.00,32,ebook,,0,0,Jocelyn Horne,,,,,,,0,,
16824501,1281101915,Romanticism and Visuality,9781281101914,,,,ES,2008/8/19,Routledge,,true,9,8875567,3,3,1,0,2007/1/1,,,0,0,1,0,0,3.00,227,ebook,,0,0,Sophie Thomas,,,,,,,0,,
16825001,1281107492,Die Kunst der Gestalttherapie: Eine schöpferische Wechselbeziehung,9781281107497,,,,ES,2010/1/10,Springer Vienna,ger,true,3,16825001,2,0,0,0,2003/1/1,Creative License: The Art of Gestalt Therapy,book,0,0,0,0,0,0.00,355,ebook,,0,0,,,,"Margherita Spagnuolo Lobb,Nancy Amendt-Lyon",,,2,0,,psychology
16825501,1281113344,Mastering the Art of Fly Tying,9781281113344,,,,ES,2011/5/3,McGraw-Hill Companies,,true,4,2141445,4,5,1,0,2007/1/1,Mastering the Art of Fly Tying,,1,0,0,0,0,5.00,,ebook,,0,0,G. Randolph Erskine,,,,,,1,0,,
16826001,1281119822,"Handbook on the Physics and Chemistry of Rare Earths, Volume 37: Optical Spectroscopy",9781281119827,,,,ES,2010/1/10,North-Holland,eng,true,3,4562123,0,0,0,0,2007/8/1,"Handbook on the Physics and Chemistry of Rare Earths, Volume 37: Optical Spectroscopy (Handbook on the Physics and Chemistry of Rare Earths)",book,0,0,0,0,0,0.00,558,ebook,,0,0,"J.-C.G. Bünzli,K.A. Gschneidner Jr.",,,V.K. Pecharsky,,,,0,,
16826501,1281124982,Visions of an Unseen World,9781281124982,,,,ES,2007/1/1,Pickering & Chatto Publishers,,true,4,2425167,22,10,2,1,2007/1/1,Visions of an Unseen World: Ghost Beliefs and Ghost Stories in Eighteenth Century England (Religious Cultures in the Early Modern World),,2,0,0,0,0,5.00,287,ebook,,0,0,Sasha Handley,,,,,,18,0,,non-fiction
16827001,1281130265,"The Power of Optical/IR Interferometry: Recent Scientific Results and 2nd Generation Instrumentation: Proceedings of the Eso Workshop Held in Garching, Germany, 4-8 April 2005",9781281130266,,,,ES,2008/8/6,Springer,,true,1,16827001,0,0,0,0,2008/1/1,,,0,0,0,0,0,0.00,602,ebook,,0,0,,,,"Alain Chelli,Andrea Richichi,Francesco Paresce,Francoise Delplancke",,,,0,,
16827501,1281136530,Electric Power Substations Engineering. Electric Power Engineering Handbook.,9781281136534,,,,ES,2010/1/10,CRC Press,,true,14,377242,37,15,5,1,2003/6/27,Electric Power Substations Engineering,book,1,0,3,0,1,3.00,424,ebook,,0,0,,,,John D. McDonald,,,28,0,,
16828001,1281142891,"Platonism at the Origins of Modernity: Studies on Platonism and Early Modern Philosophy. International Archives of the History of Ideas, Volume 196",9781281142894,,,,ES,2008/1/1,Springer,,true,4,10836694,6,7,2,0,2008/1/1,Platonism at the Origins of Modernity: Studies on Platonism and Early Modern Philosophy,book,0,1,1,0,0,3.50,293,ebook,,0,0,,,,"Douglas Hedley,Sarah Hutton",,,3,0,,
16828501,1281148407,Integrated Reaction and Separation Operations: Modelling and Experimental Validation,9781281148407,,,,ES,2010/1/10,Springer,,true,5,16828501,0,0,0,0,2006/1/1,,,0,0,0,0,0,0.00,336,ebook,,0,0,Henner Schmidt-Traub,,,,,,,0,,
16829001,1281153974,"Content, Cognition, and Communication. Philosophical Papers, Volume 2.",9781281153975,,,,ES,2010/1/10,"Oxford University Press, USA",,true,4,8539508,7,19,5,0,2007/3/29,,,1,3,0,1,0,3.80,361,ebook,,0,0,Nathan Salmon,,,,,,,0,,philosophy
16829501,1281159387,Nurse's Toolbook for Promoting Wellness,9781281159380,,,,ES,2009/9/15,McGraw-Hill Companies,,true,6,8871579,1,0,0,0,2007/12/1,,,0,0,0,0,0,0.00,517,ebook,,0,0,Carol Miller,,,,,,1,0,,
16830001,128116450X,Double-Effect Reasoning: Doing Good and Avoiding Evil,9781281164506,,,,ES,2010/5/27,"Oxford University Press, USA",,true,4,2070430,19,18,5,2,2006/1/1,Double-Effect Reasoning: Doing Good and Avoiding Evil (Oxford Studies in Theological Ethics),book,1,1,3,0,0,3.60,220,ebook,Oxford Studies in Theological Ethics.,0,0,T.A. Cavanaugh,,,,,,6,1,1,"philosophy,theology"
16830501,1281169633,"Colchicine: A Medical Dictionary, Bibliography, and Annotated Research Guide to Internet References",9781281169631,,,,ES,2004/9/16,Icon Group,,true,1,16830501,0,0,0,0,2004/9/16,,,0,0,0,0,0,0.00,220,ebook,,0,0,,,,"James N. Parker,Phillip M. Parker",,,,0,,
16831001,128117484X,"Benign Prostatic Hyperplasia: A Medical Dictionary, Bibliography, and Annotated Research Guide to Internet References",9781281174840,,,,ES,2004/9/3,Icon Group,,true,1,16831001,0,0,0,0,2004/9/3,,,0,0,0,0,0,0.00,336,ebook,,0,0,,,,"James N. Parker,Phillip M. Parker",,,,0,,
16831501,1281180076,"Mechanics and Natural Philosophy Before the Scientific Revolution. Boston Studies in the Philosophy of Science, Volume 254.",9781281180070,,,,ES,2008/1/1,Springer,,true,1,16831501,0,0,0,0,2008/1/1,,,0,0,0,0,0,0.00,317,ebook,,0,0,,,,"Sophie Roux,Walter Roy Laird",,,,0,,
16832001,1281185493,"Guttate Psoriasis: A Medical Dictionary, Bibliography, and Annotated Research Guide to Internet References",9781281185495,,,,ES,2007/1/1,Icon Group,,true,1,16832001,0,0,0,0,2007/1/1,,,0,0,0,0,0,0.00,52,ebook,,0,0,Philip M. Parker,,,James N. Parker,,,,0,,
16832501,1281190713,The Business of Systems Integration,9781281190710,,,,ES,2010/1/10,"Oxford University Press, USA",,true,5,931042,9,8,3,0,2003/1/1,The Business of Systems Integration,,0,0,2,1,0,2.67,374,ebook,,0,0,,,,"Andrea Prencipe,Andrew Davies,Michael Hobday",,,3,0,,
16833001,1281195855,"Agent Orange: A Medical Dictionary, Bibliography, and Annotated Research Guide to Internet References",9781281195852,,,,ES,2003/12/31,Icon Group,,true,2,16833001,0,0,0,0,2003/12/31,,,0,0,0,0,0,0.00,84,ebook,,0,0,,,,"James N. Parker,Phillip M. Parker",,,,0,,
16833501,1281200964,"Hantavirus: A Medical Dictionary, Bibliography, and Annotated Research Guide to Internet References",9781281200969,,,,ES,2004/3/30,Icon Group,,true,1,16833501,0,0,0,0,2004/3/30,,,0,0,0,0,0,0.00,168,ebook,,0,0,,,,"James N. Parker,Phillip M. Parker",,,,0,,
16834001,1281206458,Notes on Coxeter Transformations and the McKay Correspondence. Springer Monographs in Mathematics.,9781281206459,,,,ES,2008/1/1,Springer,,true,4,9616788,0,0,0,0,2008/1/1,,,0,0,0,0,0,0.00,250,ebook,,0,0,Rafael Stekolshchik,,,,,,,0,,
16834501,1281211958,"The 2007-2012 World Outlook for Glace, Candied, and Crystallized Fruits, Fruit Peels, Nuts, Marshmallow Cream, Cough Drops Excluding Pharmaceutical Type, and Other Confectionery-Type Products",9781281211958,,,,ES,2006/5/18,Icon Group,,true,1,16834501,0,0,0,0,2006/5/18,,,0,0,0,0,0,0.00,,ebook,,0,0,Philip M. Parker,,,,,,,0,,
16835001,1281217697,Professional Windows Powershell for Exchange Server 2007 Service Pack 1,9781281217691,,,,ES,2008/9/2,Wrox Press,,true,2,16835001,0,0,0,0,2008/1/18,,,0,0,0,0,0,0.00,521,ebook,,0,0,"Brendan Keane,J Stidley,Jeffrey Rosen,Joezer Cookey-Gam,Jonathan Runyan",,,,,,,0,,
16835501,,Seizure Issue Four (Music),,,,,ES,2012/12/1,Seizure,,false,1,16835501,1,4,1,0,2012/12/1,,book,0,1,0,0,0,4.00,96,Paperback,,1,0,,,,Alice Grundy,,,,0,,
16836001,1281228346,"Traumatic Stress: The Effects of Overwhelming Experience on Mind, Body, and Society",9781281228345,,,,ES,2008/8/5,Guilford Publications,,true,8,755615,1645,1235,288,12,1996/1/1,"Traumatic Stress: The Effects of Overwhelming Experience on Mind, Body, and Society",book,134,109,40,4,1,4.29,596,ebook,,0,0,Bessel A. van der Kolk,,,"Alexander C. McFarlane,Lars Weisaeth",,,1245,11,34,"health,mental-health,non-fiction,psychology,research,self-help"
16836501,1281233633,The 2007-2012 World Outlook for Commission Receipts for Finishing Narrow Weft Knit Fabrics Measuring 12 Inches Wide or Less and Owned by Others,9781281233639,,,,ES,2006/5/18,Icon Group,,true,1,16836501,0,0,0,0,2006/5/18,,,0,0,0,0,0,0.00,195,ebook,,0,0,Philip M. Parker,,,,,,,0,,
16837001,128123897X,"Conserving European Biodiversity in the Context of Climate Change. Nature and Environment, Volume 149.",9781281238979,,,,ES,2010/1/10,Council of Europe,,true,2,4319309,0,0,0,0,2007/1/1,Conserving European Biodiversity in the Context of Climate Change (Nature and Environment),,0,0,0,0,0,0.00,,ebook,,0,0,Michael B. Usher,,,,,,,0,,
16837501,1281244465,Media and Violence,9781281244468,,,,ES,2004/1/1,Sage Publications Ltd,,true,6,1821454,10,9,3,0,2004/1/1,Media and Violence: Gendering the Debates,,0,1,1,1,0,3.00,229,ebook,,0,0,Karen Boyle,,,,,,2,0,,
16838001,1281249440,The 2007-2012 World Outlook for Wood Bifold Doors,9781281249449,,,,ES,2006/5/18,Icon Group,,true,1,16838001,0,0,0,0,2006/5/18,,,0,0,0,0,0,0.00,184,ebook,,0,0,Philip M. Parker,,,,,,,0,,
16838501,1281255009,International Law on the Left: Re-Examining Marxist Legacies,9781281255006,,,,ES,2008/9/10,Cambridge University Press,,true,7,6272242,17,9,2,0,2008/3/1,International Law on the Left: Re-examining Marxist Legacies,book,1,1,0,0,0,4.50,319,ebook,,0,0,,,,Susan Marks,,,13,0,1,"non-fiction,politics"
16839001,1281260053,International Assistance to the Palestinians After Oslo,9781281260055,,,,ES,2008/7/9,Routledge,,true,2,16839001,0,0,0,0,2008/1/1,,,0,0,0,0,0,0.00,,ebook,,0,0,Anne Le More,,,,,,,0,,
16839501,128126511X,The 2007-2012 World Outlook for Dry Mixed Fertilizers Made by Manufacturers of Fertilizer Materials and Shipped in Bulk,9781281265111,,,,ES,2006/5/18,Icon Group,,true,1,16839501,0,0,0,0,2006/5/18,,,0,0,0,0,0,0.00,199,ebook,,0,0,Philip M. Parker,,,,,,,0,,
16840001,1281270202,The 2007-2012 World Outlook for Non-Metallic Belts That Have Been Coated or Impregnated with Natural or Artificial Abrasive Material,9781281270207,,,,ES,2006/5/18,Icon Group,,true,1,16840001,0,0,0,0,2006/5/18,,,0,0,0,0,0,0.00,195,ebook,,0,0,Philip M. Parker,,,,,,,0,,
16840501,1281275387,The 2007-2012 World Outlook for Plastics Hospitalware Excluding Foam and Wire-Coated Plastics,9781281275387,,,,ES,2006/5/18,Icon Group,,true,1,16840501,0,0,0,0,2006/5/18,,,0,0,0,0,0,0.00,188,ebook,,0,0,Philip M. Parker,,,,,,,0,,
16841001,1281280402,The 2007-2012 World Outlook for Iron and Steel Pipes and Tubes Made from Purchased Iron and Steel,9781281280404,,,,ES,2006/5/18,Icon Group,,true,1,16841001,0,0,0,0,2006/5/18,,,0,0,0,0,0,0.00,191,ebook,,0,0,Philip M. Parker,,,,,,,0,,
16841501,1281285862,Evolution for Dummies,9781281285867,,,,ES,2008/3/31,For Dummies,,true,14,2027169,316,267,69,12,2008/3/24,Evolution For Dummies,book,20,24,22,2,1,3.87,386,ebook,,0,0,"Greg Krukonis,Tracy L. Barr",,,,,,208,4,13,"history,non-fiction,science,self-help"
16842001,1281291013,The 2007-2012 World Outlook for Primary Platinum and Platinum Alloys and Platinum-Group Metals Refining,9781281291011,,,,ES,2006/1/1,Icon Group,,true,1,16842001,0,0,0,0,2006/1/1,,,0,0,0,0,0,0.00,192,ebook,,0,0,Philip M. Parker,,,,,,,0,,
16842501,1281296139,A Mezuzah on the Door,9781281296139,,,,ES,2010/1/10,Lerner Publishing Group,,true,6,1197011,63,124,32,10,2007/1/1,Mezuzah on the Door (Jewish Identity),book,9,12,10,0,1,3.88,32,ebook,,0,0,Amy Meltzer,,,,,,11,3,,"childrens,family,picture-books,religion"
16843001,1281301639,Evangelicals and Science. Greenwood Guides to Science and Religion.,9781281301635,,,,ES,2008/3/30,Greenwood Publishing Group,,true,3,7016236,3,4,1,0,2008/1/1,,,0,1,0,0,0,4.00,320,ebook,,0,0,Michael Roberts,,,,,,2,0,,"christianity,science,society"
16843501,1281306681,North Korea. Modern World Nations.,9781281306685,,,,ES,2010/1/10,Chelsea House Publications,,true,1,16843501,2,0,0,0,2007/9/1,,,0,0,0,0,0,0.00,110,ebook,,0,0,Paul Ruschmann,,,,,,2,0,,
16844001,1281312835,Salmonid Fishes,9781281312839,,,,ES,2010/1/10,Wiley-Blackwell,,true,4,1166617,2,0,0,0,2000/1/1,"Salmonid Fishes: Population Biology, Genetics and Management (Fish and Aquatic Resources Series, 2)",book,0,0,0,0,0,0.00,354,ebook,,0,0,"Elena A. Salmenkova,Vladimir T. Omelchenko,Yuri P. Altukhov",,,,,,1,0,,science
16844501,128131787X,When Bad Things Happen to Bad Golfers,9781281317872,,,,ES,2008/8/8,John Wiley & Sons,,true,2,16844501,0,0,0,0,2008/1/1,,,0,0,0,0,0,0.00,241,ebook,,0,0,"G Perkinson,T.J. Tomasi",,,,,,,0,,
16845001,1281323136,Ultrasound in Emergency Care,9781281323132,,,,ES,2010/1/10,Bmj Publishing Group,,true,6,16845001,0,0,0,0,2004/1/1,,,0,0,0,0,0,0.00,154,ebook,,0,0,,,,"Adam Brooks,Jim Connolly,Otto Chan",,,,0,,
16845501,1281331341,Selected Transition and Mediterranean Countries: An Institutional Primer on EMU and EU Relations,9781281331342,,,,ES,1998/6/1,International Monetary Fund,eng,true,2,16379349,0,0,0,0,1998/6/1,,,0,0,0,0,0,0.00,64,ebook,,0,0,Robert Alan Feldman,,,,,,,0,,
16846001,1281342122,Experimental Philosophy,9781281342126,,,,ES,2008/7/9,"Oxford University Press, USA",,true,6,3215586,295,175,49,2,2008/6/1,Experimental Philosophy,book,11,14,18,4,2,3.57,256,ebook,,0,0,"Joshua Knobe,Shaun Nichols",,,,,,217,6,9,"anthropology,history,non-fiction,philosophy,psychology"
16846501,1281356204,The 2007-2012 World Outlook for Holders for Turning Tools with Mechanical Clamping for Inserts and Bits for Machine Tools and Metalworking Machinery Excluding Box Tools and Screw Machine Tool Holders,9781281356208,,,,ES,2006/1/1,Icon Group,,true,1,16846501,0,0,0,0,2006/1/1,,,0,0,0,0,0,0.00,214,ebook,,0,0,Philip M. Parker,,,,,,,0,,
16847001,1281361402,"Political Change and Consolidation: Democracy's Rocky Road in Thailand, Indonesia, South Korea, and Malaysia",9781281361400,,,,ES,2008/8/20,Palgrave MacMillan,,true,4,16847001,1,4,1,0,2006/11/14,,,0,1,0,0,0,4.00,184,ebook,,1,0,Amy L. Freedman,,,,,,,0,,
16847501,1281366439,Genocide and the Global Village,9781281366436,,,,ES,2010/1/10,Palgrave MacMillan,,true,5,1468160,6,13,3,0,2001/9/1,Genocide and the Global Village,,2,0,1,0,0,4.33,178,ebook,,0,0,Kenneth J. Campbell,,,,,,3,0,,politics
16848001,1281371718,China Tidal Wave,9781281371713,,,,ES,2008/1/1,Brill Academic Publishers,,true,1,16848001,3,0,0,0,2008/1/1,,,0,0,0,0,0,0.00,533,ebook,,0,0,"Anton Platero,Wang Lixiong",,,,,,3,0,,
16848501,1281376833,Narratives Unbound: Historical Studies in Post-Communist Eastern Europe,9781281376831,,,,ES,2010/1/10,Central European University Press,,true,2,16848501,4,0,0,0,2007/1/1,,,0,0,0,0,0,0.00,488,ebook,,0,0,Sorin Antohi,,,P. Apor,,,4,0,,history
16849001,1281382825,"Music and Literature in German Romanticism. Studies in German Literature, Linguistics, and Culture.",9781281382825,,,,ES,2010/5/31,Camden House (NY),,true,2,2869942,9,8,2,0,2004/1/1,Music and Literature in German Romanticism (Studies in German Literature Linguistics and Culture),book,0,2,0,0,0,4.00,233,ebook,,0,0,,,,"Robin  Elliott,Siobh Donovan",,,7,0,,
16849501,1281393495,"The 2007-2012 World Outlook for Burial Boxes and Vaults, Casket Shells, Casket Shipping Cases and Containers, and Children's Caskets and Coffins Excluding Concrete and Stone Burial Boxes and Vaults",9781281393494,,,,ES,2006/5/18,Icon Group,,true,1,16849501,1,0,0,0,2006/5/18,,,0,0,0,0,0,0.00,201,ebook,,0,0,Philip M. Parker,,,,,,1,0,,
16850001,1281398713,"L'Exagoge D'Ezechiel Le Tragique: Introduction, Texte, Traduction Et Commentaire",9781281398710,,,,ES,2010/1/10,Brill Academic Publishers,,true,2,16850001,2,4,1,1,2006/1/1,,,0,1,0,0,0,4.00,394,ebook,,1,1,Pierluigi Lanfranchi,,,,,,1,0,,academic
16850501,128141199X,Avoiding School Facility Issues: A Consultant's Guidance to School Superintendents,9781281411990,,,,ES,2014/5/9,Information Age Publishing,,true,5,16850501,0,0,0,0,2006/1/1,,,0,0,0,0,0,0.00,178,ebook,,0,0,G. Kent Stewart,,,,,,,0,,
16851001,1281416983,The 2007-2012 World Outlook for Hydraulic Jacks,9781281416988,,,,ES,2006/5/18,Icon Group,,true,1,16851001,0,0,0,0,2006/5/18,,,0,0,0,0,0,0.00,185,ebook,,0,0,Philip M. Parker,,,,,,,0,,
16851501,1281421979,The 2007-2012 World Outlook for Manufacturing or Rebuilding Motor Vehicle Steering Mechanisms and Suspension Components Excluding Springs,9781281421975,,,,ES,2006/5/18,Icon Group,,true,1,16851501,0,0,0,0,2006/5/18,,,0,0,0,0,0,0.00,197,ebook,,0,0,Philip M. Parker,,,,,,,0,,
16852001,1281426946,The 2007-2012 World Outlook for Fresh Poultry,9781281426949,,,,ES,2006/6/26,Icon Group,,true,1,16852001,0,0,0,0,2006/6/26,,,0,0,0,0,0,0.00,183,ebook,,0,0,Philip M. Parker,,,,,,,0,,
16852501,1281432008,Environment and the Violations of Human Rights: Special Report of the Commissioner on Human Rights in the Russian Federation,9781281432001,,,,ES,2010/1/10,Pensoft Publishers,,true,1,16852501,0,0,0,0,2004/1/1,,,0,0,0,0,0,0.00,95,ebook,,0,0,O.O. Mironov,,,,,,,0,,
16853001,1281436992,"The 2007-2012 World Outlook for Sewing, Needlework, and Piece Goods Stores",9781281436993,,,,ES,2006/5/18,Icon Group,,true,1,16853001,0,0,0,0,2006/5/18,,,0,0,0,0,0,0.00,185,ebook,,0,0,Philip M. Parker,,,,,,,0,,
16853501,1281441961,The 2007-2012 World Outlook for Computer Software,9781281441966,,,,ES,2006/1/1,Icon Group,,true,1,16853501,0,0,0,0,2006/1/1,,,0,0,0,0,0,0.00,185,ebook,,0,0,Philip M. Parker,,,,,,,0,,
16854001,1281446963,The 2007-2012 World Outlook for Oil-Filled Electric Space Heaters,9781281446961,,,,ES,2006/6/26,Icon Group,,true,1,16854001,0,0,0,0,2006/6/26,,,0,0,0,0,0,0.00,187,ebook,,0,0,Philip M. Parker,,,,,,,0,,
16854501,1281452149,"The 2006 Economic and Product Market Databook for Idlib, Syrian Arab Republic",9781281452146,,,,ES,2006/11/12,Icon Group,,true,1,16854501,0,0,0,0,2006/11/12,,,0,0,0,0,0,0.00,618,ebook,,0,0,Philip M. Parker,,,,,,,0,,
16855001,1281457132,Religion and Critical Psychology,9781281457134,,,,ES,2010/1/10,Routledge,,true,5,17477554,1,0,0,0,2007/10/29,,,0,0,0,0,0,0.00,253,ebook,,0,0,Jeremy Carrette,,,,,,,0,,
16855501,1281464023,"The 2006 Economic and Product Market Databook for Dushanbe, Tajikistan",9781281464026,,,,ES,2006/11/12,Icon Group,,true,1,16855501,0,0,0,0,2006/11/12,,,0,0,0,0,0,0.00,618,ebook,,0,0,Philip M. Parker,,,,,,,0,,
16856001,1281471011,"World Market for Vinegar and Vinegar Substitutes Obtained from Acetic Acid, The: A 2007 Global Trade Perspective",9781281471017,,,,ES,2007/1/1,Icon Group,,true,1,16856001,0,0,0,0,2007/1/1,,,0,0,0,0,0,0.00,106,ebook,,0,0,Philip M. Parker,,,,,,,0,,
16856501,1281475998,"World Market for Ski-Boots and Cross-Country Ski Footwear with Rubber or Plastic Outer Soles and Uppers, The: A 2007 Global Trade Perspective",9781281475992,,,,ES,2007/1/1,Icon Group,,true,1,16856501,0,0,0,0,2007/1/1,,,0,0,0,0,0,0.00,98,ebook,,0,0,Philip M. Parker,,,,,,,0,,
16857001,1281480983,"World Market for Parts of Presses, Crushers and Similar Machinery Used in the Manufacture of Wine, Cider, Fruit Juices, and Similar Beverages, The: A 2007 Global Trade Perspective",9781281480989,,,,ES,2007/1/1,Icon Group,,true,1,16857001,0,0,0,0,2007/1/1,,,0,0,0,0,0,0.00,96,ebook,,0,0,Philip M. Parker,,,,,,,0,,
16857501,1281485969,"The 2007 Report on Paint and Varnish Brushes, Rollers, and Pads: World Market Segmentation by City",9781281485960,,,,ES,2006/11/13,Icon Group,,true,1,16857501,0,0,0,0,2006/11/13,,,0,0,0,0,0,0.00,330,ebook,,0,0,Philip M. Parker,,,,,,,0,,
16858001,128149092X,The 2007 Report on Yoga Videos: World Market Segmentation by City,9781281490926,,,,ES,2006/11/13,Icon Group,,true,1,16858001,0,0,0,0,2006/11/13,,,0,0,0,0,0,0.00,330,ebook,,0,0,Philip M. Parker,,,,,,,0,,
16858501,1281496022,Webster's Taabwa - English Thesaurus Dictionary,9781281496027,,,,ES,2008/3/1,Icon Group,,true,1,16858501,0,0,0,0,2008/3/1,,,0,0,0,0,0,0.00,88,ebook,,0,0,Philip M. Parker,,,,,,,0,,
16859001,1281501018,"The 2006 Economic and Product Market Databook for Mazatlan, Mexico",9781281501011,,,,ES,2006/11/12,Icon Group,,true,1,16859001,0,0,0,0,2006/11/12,,,0,0,0,0,0,0.00,618,ebook,,0,0,Philip M. Parker,,,,,,,0,,
16859501,128150601X,"The 2007 Report on Socks, Stockings, and Tights: World Market Segmentation by City",9781281506016,,,,ES,2006/11/13,Icon Group,,true,1,16859501,0,0,0,0,2006/11/13,,,0,0,0,0,0,0.00,330,ebook,,0,0,Philip M. Parker,,,,,,,0,,
16860001,1281510998,The 2007 Report on Chinese Recipe Bottled Sauces: World Market Segmentation by City,9781281510990,,,,ES,2006/11/13,Icon Group,,true,1,16860001,0,0,0,0,2006/11/13,,,0,0,0,0,0,0.00,330,ebook,,0,0,Philip M. Parker,,,,,,,0,,
16860501,1281516058,"The 2006 Economic and Product Market Databook for Haifa, Israel",9781281516053,,,,ES,2006/11/12,Icon Group,,true,1,16860501,0,0,0,0,2006/11/12,,,0,0,0,0,0,0.00,618,ebook,,0,0,Philip M. Parker,,,,,,,0,,
16861001,1281521043,The 2007 Report on Women's Hand Creams and Lotions: World Market Segmentation by City,9781281521040,,,,ES,2006/11/13,Icon Group,,true,1,16861001,0,0,0,0,2006/11/13,,,0,0,0,0,0,0.00,330,ebook,,0,0,Philip M. Parker,,,,,,,0,,
16861501,1281526037,The 2007 Report on Prepared Fresh Surimi-Based Products: World Market Segmentation by City,9781281526038,,,,ES,2006/11/13,Icon Group,,true,1,16861501,0,0,0,0,2006/11/13,,,0,0,0,0,0,0.00,330,ebook,,0,0,Philip M. Parker,,,,,,,0,,
16862001,1281531049,The 2007 Report on Sodium Chlorate (100 Percent Naclo3): World Market Segmentation by City,9781281531049,,,,ES,2006/11/13,Icon Group,,true,1,16862001,0,0,0,0,2006/11/13,,,0,0,0,0,0,0.00,330,ebook,,0,0,Philip M. Parker,,,,,,,0,,
16862501,1281536040,"The 2007 Report on Broom, Brush, and Mop Manufacturing: World Market Segmentation by City",9781281536044,,,,ES,2006/11/13,Icon Group,,true,1,16862501,0,0,0,0,2006/11/13,,,0,0,0,0,0,0.00,331,ebook,,0,0,Philip M. Parker,,,,,,,0,,
16863001,128154101X,"The 2006 Economic and Product Market Databook for West Bay, Cayman Islands",9781281541017,,,,ES,2006/11/12,Icon Group,,true,1,16863001,0,0,0,0,2006/11/12,,,0,0,0,0,0,0.00,618,ebook,,0,0,Philip M. Parker,,,,,,,0,,
16863501,128154602X,"2007 Report on Water Supply Facilities, The: World Market Segmentation by City",9781281546029,,,,ES,2006/11/13,Icon Group,,true,1,16863501,0,0,0,0,2006/11/13,,,0,0,0,0,0,0.00,330,ebook,,0,0,Philip M. Parker,,,,,,,0,,
16864001,1281551015,"The 2007 Report on Job or Commission Finishing of Manmade Fiber Broadwoven Fabrics Made from at Least 85-Percent Filament Yarns Excluding Rayon, Acetate, Lyocell, and Polyester: World Market Segmentation by City",9781281551016,,,,ES,2006/11/13,Icon Group,,true,1,16864001,0,0,0,0,2006/11/13,,book,0,0,0,0,0,0.00,352,ebook,,0,0,Philip M. Parker,,,,,,,0,,
16864501,1281556521,The Invisible Man,9781281556523,,,,ES,2008/1/1,Icon Group,eng,true,1318,17184,250506,417763,114984,4655,1897/1/1,The Invisible Man,book,22406,41638,39256,9729,1955,3.63,,ebook,Webster's Icelandic Thesaurus Edition,0,0,H.G. Wells,,,,,,107085,614,9687,"adult,adult-fiction,adventure,british-literature,classic-literature,classics,english-literature,fantasy,fiction,horror,literature,mystery,novels,school,science,science-fiction,science-fiction-fantasy,speculative-fiction,steampunk,thriller,unfinished,victorian"
16865001,1281562238,Walden,9781281562234,,,,ES,2008/1/1,Icon Group,eng,true,1218,16902,302904,515034,135721,4359,1854/1/1,"Walden; or, Life in the Woods",book,43455,43891,31127,11566,5682,3.79,,ebook,Webster's Croatian Thesaurus Edition,0,0,Henry David Thoreau,,,,,,132922,708,12137,"adult,adventure,american,americana,autobiography,biography,biography-memoir,classic-literature,classics,college,essays,fiction,high-school,historical,history,literature,memoir,nature,non-fiction,novels,philosophy,poetry,politics,school,spirituality,travel,unfinished"
16866001,1281573590,"2007 Report on Rough and Surfaced, Cut-To-Size Hardwood Industrial Cut Stock, The: World Market Segmentation by City",9781281573599,,,,ES,2006/11/13,Icon Group,,true,1,16866001,0,0,0,0,2006/11/13,,,0,0,0,0,0,0.00,338,ebook,,0,0,Philip M. Parker,,,,,,,0,,
16866501,1281578592,"2007 Report on Light Fuel Oils, The: World Market Segmentation by City",9781281578594,,,,ES,2006/11/13,Icon Group,,true,1,16866501,0,0,0,0,2006/11/13,,,0,0,0,0,0,0.00,330,ebook,,0,0,Philip M. Parker,,,,,,,0,,
16867001,128158357X,"2007 Report on Contract Receipts for Women's, Girls', and Infants' Underwear, Nightwear, Robes, and Foundation Garments, The: World Market Segmentation by City",9781281583574,,,,ES,2006/11/13,Icon Group,,true,1,16867001,0,0,0,0,2006/11/13,,,0,0,0,0,0,0.00,342,ebook,,0,0,Philip M. Parker,,,,,,,0,,
16867501,1281588563,"2007 Report on Plastics and Cultured Marble Lavatories, The: World Market Segmentation by City",9781281588562,,,,ES,2006/11/13,Icon Group,,true,1,16867501,0,0,0,0,2006/11/13,,,0,0,0,0,0,0.00,330,ebook,,0,0,Philip M. Parker,,,,,,,0,,
16868001,1281593559,"2007 Report on Steel Investment Castings, The: World Market Segmentation by City",9781281593559,,,,ES,2006/11/13,Icon Group,,true,1,16868001,1,0,0,0,2006/11/13,,,0,0,0,0,0,0.00,330,ebook,,0,0,Philip M. Parker,,,,,,1,0,,
16868501,128159850X,"2007 Report on Aerospace Pneumatic Fluid Power Valves, The: World Market Segmentation by City",9781281598509,,,,ES,2006/11/13,Icon Group,,true,1,16868501,0,0,0,0,2006/11/13,,,0,0,0,0,0,0.00,330,ebook,,0,0,Philip M. Parker,,,,,,,0,,
16869001,1281604038,Different Strokes? Common and Uncommon Responses to Financial Crises,9781281604033,,,,ES,2013/9/25,International Monetary Fund,,true,2,16869001,0,0,0,0,,,,0,0,0,0,0,0.00,20,ebook,,0,0,James M. Boughton,,,,,,,0,,
16869501,1281611670,"2007 Report on Manufacturing Commercial Laundry, Dry Cleaning, and Pressing Machines, The: World Market Segmentation by City",9781281611673,,,,ES,2006/11/13,Icon Group,,true,1,16869501,0,0,0,0,2006/11/13,,,0,0,0,0,0,0.00,343,ebook,,0,0,Philip M. Parker,,,,,,,0,,
16870501,1281622451,Major Barbara,9781281622457,,,,ES,2008/1/1,Icon Group,,true,190,367762,8218,18149,4925,163,1905/1/1,Major Barbara,book,1170,1694,1492,478,91,3.69,,ebook,Webster's Wolof Thesaurus Edition,0,0,George Bernard Shaw,,,,,,2402,28,45,"adult-fiction,british-literature,christianity,classic-literature,classics,comedy,drama,european-literature,fiction,grad-school,historical,historical-fiction,humor,literature,philosophy,plays,politics,school,theatre,victorian"
16871001,1281627445,"2007 Report on Centrifugals and Separators Excluding for Cream, Grain, and Berry, The: World Market Segmentation by City",9781281627445,,,,ES,2006/11/13,Icon Group,,true,1,16871001,0,0,0,0,2006/11/13,,,0,0,0,0,0,0.00,339,ebook,,0,0,Philip M. Parker,,,,,,,0,,
16871501,1281632392,"The 2007 Report on New Motor Vehicle Bumper Assemblies, Bumpers, and Parts for Cars and Light Trucks of Greater Than 10,000-Pound Gvw: World Market Segmentation by City",9781281632395,,,,ES,2006/11/13,Icon Group,,true,1,16871501,0,0,0,0,2006/11/13,,book,0,0,0,0,0,0.00,342,ebook,,0,0,Philip M. Parker,,,,,,,0,,
16872001,1281638137,The Picture of Dorian Gray,9781281638137,,,,ES,2008/1/1,Icon Group,eng,true,3354,5297,1411637,3280408,806331,24151,1890/6/20,The Picture of Dorian Gray,book,313807,293819,150657,36078,11970,4.07,,ebook,Webster's Basque Thesaurus Edition,0,0,Oscar Wilde,,,,,,459397,3140,45517,"adult,adult-fiction,british-literature,classic-literature,classics,drama,english-literature,fantasy,fiction,gothic,high-school,historical,historical-fiction,horror,lgbt,literary-fiction,literature,magical-realism,mystery,novels,paranormal,philosophy,queer,school,supernatural,unfinished,victorian"
16872501,1281643513,"King Henry VI, Part I",9781281643513,,,,ES,2008/1/1,Icon Group,,true,320,286792,9428,15849,4427,352,1590/1/1,The First part of the Contention betwixt the two famous Houses of Yorke and Lancaster,book,902,1395,1586,457,87,3.58,,ebook,Webster's Catalan Thesaurus Edition,0,0,William Shakespeare,,,,,,3521,63,112,"adult,british-literature,classic-literature,classics,college,drama,english-literature,fiction,france,historical,historical-fiction,history,literature,medieval,plays,poetry,politics,school,theatre,war"
16873001,1281648736,The Comedy of Errors,9781281648730,,,,ES,2008/1/1,Icon Group,,true,686,82356,41109,79591,21277,971,1594/1/1,The Comedy of Errors,book,5120,7617,6719,1545,276,3.74,,ebook,Webster's Finnish Thesaurus Edition,0,0,William Shakespeare,,,,,,13086,470,661,"adult,adult-fiction,british-literature,classic-literature,classics,college,comedy,drama,english-literature,fiction,funny,historical,historical-fiction,humor,literature,plays,poetry,romance,school,theatre"
16873501,1281653969,King Lear,9781281653963,,,,ES,2008/1/1,Icon Group,eng,true,692,12938,255949,632346,162061,3800,1603/1/1,The Tragedie of King Lear,book,55306,52928,39489,11299,3039,3.90,,ebook,Webster's Persian (Farsi) Thesaurus Edition,0,0,William Shakespeare,,,,,,56114,1031,2876,"adult,adult-fiction,british-literature,classic-literature,classics,college,drama,english-literature,family,fiction,high-school,historical,historical-fiction,history,literary-fiction,literature,novels,plays,poetry,school,theatre,tragedy"
16874001,1281659045,"2007 Report on Furniture for Bars, Bowling Centers, Cafeterias, and Restaurants, The: World Market Segmentation by City",9781281659040,,,,ES,2006/11/13,Icon Group,,true,1,16874001,0,0,0,0,2006/11/13,,,0,0,0,0,0,0.00,338,ebook,,0,0,Philip M. Parker,,,,,,,0,,
16874501,1281664030,"World Market for Woven Fabrics of at Least 85% Flax by Weight, The: A 2007 Global Trade Perspective",9781281664037,,,,ES,2007/1/1,Icon Group,,true,1,16874501,0,0,0,0,2007/1/1,,,0,0,0,0,0,0.00,141,ebook,,0,0,Philip M. Parker,,,,,,,0,,
16875001,1281669016,"World Market for Non-Electric Bells and Gongs of Base Metal, The: A 2007 Global Trade Perspective",9781281669018,,,,ES,2007/1/1,Icon Group,,true,1,16875001,0,0,0,0,2007/1/1,,,0,0,0,0,0,0.00,89,ebook,,0,0,Philip M. Parker,,,,,,,0,,
16875501,1281675008,Molecular Mechanisms of Plant and Microbe Coexistence,9781281675002,,,,ES,2009/3/23,Springer,,true,1,16875501,0,0,0,0,2008/1/1,,,0,0,0,0,0,0.00,512,ebook,,0,0,V Chopra,,,"Chandra Nautiyal,Patrice Dion",,,,0,,
16876001,1281680672,Cyrano de Bergerac,9781281680679,,,,ES,2006/3/5,Icon Group,eng,true,686,15638,109911,276582,68162,1797,1897/1/1,Cyrano de Bergerac,book,27014,23085,14019,3071,973,4.06,217,ebook,Webster's German Thesaurus Edition,0,0,Edmond Rostand,,,,,,32860,248,667,"adult,adult-fiction,adventure,classic-literature,classics,comedy,drama,fiction,france,high-school,historical,historical-fiction,history,humor,literary-fiction,literature,love,novels,plays,poetry,romance,school,theatre,tragedy"
16876501,1281686107,Antony and Cleopatra,9781281686107,,,,ES,2006/5/2,Icon Group,eng,true,864,104837,52793,99857,27112,1038,1606/1/1,The Tragedie of Antony and Cleopatra,book,6107,9455,8811,2330,409,3.68,205,ebook,Webster's Spanish Thesaurus Edition,0,0,William Shakespeare,,,,,,16296,180,904,"adult,adult-fiction,british-literature,classic-literature,classics,college,drama,english-literature,fiction,high-school,historical,historical-fiction,history,literature,plays,poetry,romance,school,theatre,tragedy,war"
16877001,128169357X,All's Well That Ends Well,9781281693570,,,,ES,2008/1/1,Icon Group,,true,615,104790,25792,46371,12696,514,1602/1/1,All's Well That Ends Well,book,2750,4233,4461,1054,198,3.65,,ebook,Webster's Polish Thesaurus Edition,0,0,William Shakespeare,,,,,,9102,100,321,"adult,adult-fiction,british-literature,classic-literature,classics,college,comedy,drama,english-literature,fiction,historical,historical-fiction,humor,literary-fiction,literature,plays,poetry,romance,school,theatre"
16877501,1281698733,A Midsummer Night's Dream,9781281698735,,,,ES,2008/1/1,Icon Group,eng,true,513,1622,595947,1585497,402276,6873,1595/1/1,A Midsommer nights dreame,book,135109,144421,93324,22874,6548,3.94,,ebook,Webster's Swedish Thesaurus Edition,0,0,William Shakespeare,,,,,,114157,1834,7200,"adult,adult-fiction,british-literature,classic-literature,classics,college,comedy,drama,english-literature,fantasy,fiction,funny,high-school,historical,historical-fiction,humor,literary-fiction,literature,love,magic,mythology,novels,plays,poetry,romance,school,theatre"
16878001,1281704008,The 2006 Liechtenstein Economic and Product Market Databook,9781281704009,,,,ES,2006/11/12,Icon Group,,true,1,16878001,0,0,0,0,2006/11/12,,,0,0,0,0,0,0.00,618,ebook,,0,0,Philip M. Parker,,,,,,,0,,
16878501,1281709417,"Advances in Catalysis, Volume 20",9781281709417,,,,ES,2010/1/10,Academic Press,,true,4,18030939,0,0,0,0,1969/1/1,,book,0,0,0,0,0,0.00,,ebook,,0,0,D.D. Eley,,,,,,,0,,
16879001,1281714402,"Annual Reports on NMR Spectroscopy, Volume 24",9781281714404,,,,ES,1992/1/1,Academic Press,,true,3,16552983,0,0,0,0,1992/1/1,,book,0,0,0,0,0,0.00,,ebook,,0,0,,,,Graham A. Webb,,,,0,,
16879501,1281721867,Why Smart People Can Be So Stupid,9781281721860,,,,ES,2010/1/10,Yale University Press,,true,6,300300,570,428,116,4,2002/1/1,Why Smart People Can Be So Stupid,book,29,41,31,11,4,3.69,254,ebook,,0,0,,,,Robert J. Sternberg,,,399,9,13,"class,education,essays,non-fiction,philosophy,psychology,relationships,science,self-help,teaching"
16880001,1281727210,"Advances in Heat Transfer, Volume 23",9781281727213,,,,ES,2014/5/9,Academic Press,,true,3,16880001,0,0,0,0,1993/1/1,,book,0,0,0,0,0,0.00,,ebook,,0,0,,,,"James P. Hartnett,Thomas F. Irvine Jr.",,,,0,,
16880501,1281732591,Trump University Wealth Building 101,9781281732590,,,,ES,2010/1/10,John Wiley & Sons,,true,10,716846,353,418,117,7,2007/1/1,Trump University Wealth Building 101: Your First 90 Days on the Path to Prosperity,,31,35,32,8,11,3.57,243,ebook,,0,0,Donald J. Trump,,,,,,179,4,16,business
16881001,1281739413,"Advances in Virus Research, Volume 18",9781281739414,,,,ES,1974/1/1,Academic Press,,true,3,5237830,0,0,0,0,1973/1/1,,book,0,0,0,0,0,0.00,570,ebook,,0,0,Max A. Lauffer,,,,,,,0,,
16881501,1281745340,Latino Culture: A Dynamic Force in the Changing American Workplace,9781281745347,,,,ES,2010/1/10,Nicholas Brealey Publishing,,true,2,1405083,3,7,2,0,2005/6/6,Latino Culture: A Dynamic Force In The Changing American Workplace,,0,1,1,0,0,3.50,225,ebook,,0,0,"Francia Baez,Nilda Chong",,,,,,,0,,
16882001,1281753939,Communication as Culture: Essays on Media and Society,9781281753939,,,,ES,2009/4/7,Routledge,,true,12,704389,240,334,86,6,1988/1/1,Communication as Culture: Essays on Media and Society (Media and Popular Culture 1),book,23,33,27,3,0,3.88,205,ebook,Revised Edition,0,0,"G. Stuart Adam,James W. Carey",,,,,,104,5,7,"academic,grad-school,history,non-fiction,philosophy"
16882501,128175997X,Applications in Coastal Modeling,9781281759979,,,,ES,1989/6/1,Elsevier Science & Technology,,true,3,16384921,0,0,0,0,1989/6/1,,book,0,0,0,0,0,0.00,,ebook,"Oceanography Series, Volume 49",0,0,,,,"Alan S. Trenhaile,V.C. Lakhan",,,,0,,
16883001,1281765473,Forestry and Environmental Change: Socioeconomic and Political Dimensions: Report No. 5 of the Iufro Task Force on Environmental Change,9781281765475,,,,ES,2010/1/10,CABI Publishing,,true,2,3251113,0,0,0,0,2005/10/18,Forestry and Environmental Change: Socioeconomic and Political Dimensions (Iufro Research Series),,0,0,0,0,0,0.00,274,ebook,,0,0,,,,"Gordon M. Hickey,H. Hoen,John Innes",,,,0,,
16883501,,Hebatnya Kuasa Istikharah,9789675564277,,,,ES,2010/1/1,,msa,false,1,16883501,12,22,5,0,2010/1/1,,book,2,3,0,0,0,4.40,169,,,5,0,Imam Musbikin,,,,,,2,1,1,
16884001,128177653X,Holy Prayers in a Horse's Ear,9781281776532,,,,ES,2009/1/5,Rutgers University Press,,true,5,3116775,15,3,1,1,2008/2/12,Holy Prayers in a Horse's Ear: A Japanese American Memoir (Multi-Ethnic Literatures of the Americas (Mela)),,0,0,1,0,0,3.00,182,ebook,,0,0,Kathleen Tamagawa,,,"Elena Tajima Creef,Greg Robinson",,,11,1,,"history,sociology"
16884501,1281781916,Melody in Music Therapy: A Therapeutic Narrative Analysis,9781281781918,,,,ES,2008/11/5,Jessica Kingsley Publishers,,true,2,4111672,7,0,0,0,2008/2/15,Melody In Music Therapy: A Therapeutic Narrative Analysis,,0,0,0,0,0,0.00,342,ebook,,0,0,"David Aldridge,Gudrun Aldridge",,,,,,5,0,,
16885001,1281787957,Managerial Accounting for the Hospitality Industry,9781281787958,,,,ES,2013/3/26,John Wiley & Sons,,true,6,5050287,11,11,3,0,2008/10/1,"Managerial Accounting for the Hospitality Industry, Study Guide",,1,0,2,0,0,3.67,510,ebook,,0,0,"David K. Hayes,Lea R. Dopson",,,,,,5,0,,
16885501,1281793574,"Functional Analysis: Surveys and Recent Results: Proceedings of the Conference on Functional Analysis, Paderborn, Germany, November 17-21, 1976",9781281793577,,,,ES,2010/1/10,North-Holland,,true,3,16553917,0,0,0,0,1977/1/1,,book,0,0,0,0,0,0.00,290,ebook,,0,0,,,,"Benno Fuchssteiner,Klaus-Dieter Bierstedt",,,,0,,
16886001,1281799076,The 2009-2014 World Outlook for Membrane Bioreactor (Mbr) Systems for Wastewater Treatment,9781281799074,,,,ES,2008/9/20,Icon Group,,true,1,16886001,0,0,0,0,2008/9/20,,,0,0,0,0,0,0.00,217,ebook,,0,0,Philip M. Parker,,,,,,,0,,
16886501,1281805068,The 2009-2014 World Outlook for Gamma and Scintillation Cameras and Accessories,9781281805065,,,,ES,2008/9/20,Icon Group,,true,1,16886501,0,0,0,0,2008/9/20,,,0,0,0,0,0,0.00,210,ebook,,0,0,Philip M. Parker,,,,,,,0,,
16887001,1281817015,Darcy & Elizabeth: Nights and Days at Pemberley,9781281817013,,,,ES,2010/1/10,Sourcebooks,,true,2,156568,6437,13007,3597,238,2003/3/21,Darcy & Elizabeth: Nights and Days at Pemberley,book,978,1031,1006,393,189,3.62,429,ebook,,1,0,Linda Berdoll,,,,,,2033,7,94,"adult,adult-fiction,chick-lit,classics,fiction,historical,historical-fiction,novels,regency,romance,victorian"
16887501,1281829854,Brilliant Internet for the Over 50s: Microsoft Vista Edition,9781281829856,,,,ES,2010/1/10,Pearson Education UK,,true,2,16666215,0,0,0,0,2007/1/1,,,0,0,0,0,0,0.00,304,ebook,,0,0,P.K. MacBride,,,,,,,0,,
16888001,1281841080,Antennas,9781281841087,,,,ES,2008/12/1,John Wiley & Sons,,true,5,4729639,11,24,6,1,2008/9/15,Antennas: From Theory to Practice,,2,2,2,0,0,4.00,363,ebook,,0,0,Yi Huang,,,,,,3,0,,
16888501,1281852090,"Gun and the Pen: Hemingway, Fitzgerald, Faulkner, and the Fiction of Mobilization",9781281852090,,,,ES,2008/7/31,"Oxford University Press, USA",,true,7,4145722,26,36,9,2,2008/7/1,"The Gun and the Pen: Hemingway, Fitzgerald, Faulkner, and the Fiction of Mobilization",,2,5,2,0,0,4.00,288,ebook,,0,0,Keith Gandal,,,,,,12,1,1,literature
16889001,1281866385,"Introduction to Biocomposites, An. Series on Biomaterials and Bioengineering, Volume 1.",9781281866387,,,,ES,2010/1/10,World Scientific Publishing Company,,true,4,1396092,0,0,0,0,2004/6/3,"An Introduction To Biocomposites (Series on Biomaterials and Bioengineering, Vol. 1)",,0,0,0,0,0,0.00,223,ebook,,0,0,Seeram Ramakrishna,,,,,,,0,,
16889501,1281871818,Success of 7-Eleven Japan: Discovering the Secrets of the World's Best-Run Convenience Chain Stores,9781281871817,,,,ES,2010/1/10,World Scientific Publishing Company,,true,1,16889501,3,6,2,0,1998/1/1,,,0,1,0,1,0,3.00,134,ebook,,2,0,"Akira Ishikawa,Tai Nejo",,,,,,1,0,,
16890001,1281884499,"The 2009 Import and Export Market for Pumice Stone, Emery, and Worked Natural Corundum, Natural Garnet, Crushed Pumice, or Other Natural Abrasives in India",9781281884497,,,,ES,2009/1/1,Icon Group,,true,1,16890001,0,0,0,0,2009/1/1,,,0,0,0,0,0,0.00,20,ebook,,0,0,Philip M. Parker,,,,,,,0,,
16890501,1281894087,"The Realist Hope: A Critique of Anti-Realist Approaches in Contemporary Philosophical Theology. Heythrop Studies in Contemporary Philosophy, Religion",9781281894083,,,,ES,2007/1/1,Ashgate Publishing,,true,1,16890501,0,0,0,0,2007/1/1,,,0,0,0,0,0,0.00,221,ebook,,0,0,Christopher Insole,,,,,,,0,,
16891001,1281899232,"Topics in Banach Space Integration: Series in Real Analysis, Volume 10",9781281899231,,,,ES,2010/1/10,World Scientific Publishing Company,,true,2,16891001,0,0,0,0,2005/8/16,,,0,0,0,0,0,0.00,298,ebook,,0,0,"Etefan Schwabik,Ye Guoju",,,,,,,0,,
16891501,1281904287,Nutritional Supplements in Sports and Exercise,9781281904287,,,,ES,2009/1/27,Humana Press,,true,9,3336809,11,17,4,1,2008/1/1,Nutritional Supplements in Sports and Exercise,,2,1,1,0,0,4.25,522,ebook,,0,0,"Douglas S. Kalman,José Antonio,Mike Greenwood",,,,,,5,0,,
16892001,1281909637,"The 2009 World Forecasts of Original Engravings, Prints, and Lithographs Export Supplies",9781281909633,,,,ES,2009/1/1,Icon Group,,true,1,16892001,0,0,0,0,2009/1/1,,,0,0,0,0,0,0.00,52,ebook,,0,0,Philip M. Parker,,,,,,,0,,
16892501,1281915173,"Overseas Chinese of South East Asia: History, Culture, Business",9781281915177,,,,ES,2009/1/20,Palgrave MacMillan,,true,4,8105729,2,8,2,0,2008/1/17,,,0,2,0,0,0,4.00,171,ebook,,0,0,"Ian Rae,Morgen Witzel",,,,,,,0,,
16893001,1281920509,Essential Sports Medicine,9781281920508,,,,ES,2009/4/14,Humana Press,,true,1,16893001,0,0,0,0,2008/10/24,,,0,0,0,0,0,0.00,198,ebook,,0,0,,,,"Grant Cooper,Joseph Herrera",,,,0,,
16893501,1281926353,"Access to Environmental Justice: A Comparative Study. London-Leiden Series on Law, Administration and Development, Volume 11.",9781281926357,,,,ES,2010/1/10,Brill Academic Publishers,,true,3,18066795,1,0,0,0,2007/1/1,,,0,0,0,0,0,0.00,378,ebook,,0,0,,,,Andrew J. Harding,,,,0,,
16894001,1281931780,Workers Democracy in China's Transition from State Socialism,9781281931788,,,,ES,2009/4/24,Routledge,,true,6,16894001,0,0,0,0,2008/11/1,,,0,0,0,0,0,0.00,166,ebook,,0,0,Stephen E. Philion,,,,,,,0,,
16894501,128193707X,"Jews in Sicily, Volume 12: Notaries of Palermo, Part Three. Studia Post Biblica, Volume 48.3.",9781281937070,,,,ES,2009/3/9,Brill Academic Publishers,,true,1,16894501,2,3,1,0,2007/1/1,,,0,0,1,0,0,3.00,7537,ebook,,1,0,Shlomo Simonsohn,,,,,,2,0,,
16895001,128194257X,Joe's Toronto: Portraiture,9781281942579,,,,ES,2010/1/10,ECW Press,,true,3,7689287,0,0,0,0,2005/1/1,,,0,0,0,0,0,0.00,101,ebook,,0,0,Mendelson Joe,,,,,,,0,,
16895501,1281947903,Wide Energy Bandgap Electronic Devices,9781281947901,,,,ES,2010/1/10,World Scientific Publishing Company,,true,2,2823384,3,0,0,0,2003/7/14,,,0,0,0,0,0,0.00,514,ebook,,0,0,,,,"Fan Ren,John C. Zolper",,,1,1,,reference
16896001,1281954195,Acinetobacter: Biology and Pathogenesis. Infectious Agents and Pathogenesis.,9781281954190,,,,ES,2008/1/1,Springer,,true,5,10606510,2,4,1,0,2008/1/1,,,0,1,0,0,0,4.00,229,ebook,,0,0,,,,"Eugénie Bergogne-Bérézin,Herman Friedman,Mauro Bendinelli",,,1,0,,
16896501,1281961493,Textbook of Clinical Neuropsychiatry and Behavioral Neuroscience 3e,9781281961495,,,,ES,2012/12/11,Taylor & Francis Group,,true,2,16896501,0,0,0,0,2012/6/29,,,0,0,0,0,0,0.00,862,ebook,,0,0,"Basant K. Puri,David Moore",,,,,,,0,,
16897001,1281968854,Renewing Our Libraries: Case Studies in Re-Planning and Refurbishment,9781281968852,,,,ES,2009/5/14,Ashgate Publishing,,true,6,6001705,0,0,0,0,2008/11/15,Renewing Our Libraries: Case Studies in Re-planning and Refurbishment,,0,0,0,0,0,0.00,284,ebook,,0,0,,,,Michael Dewe,,,,0,,
16897501,1281975656,The Federalist Papers,9781281975652,,,,ES,2009/3/26,"Oxford University Press, USA",,true,576,110331,82213,130611,32141,731,1787/9/17,The Federalist,book,13216,10408,6409,1564,544,4.06,470,ebook,,0,0,"Alexander Hamilton,James Madison,John Jay,Lawrence Goldman",,,,,,39578,117,5426,"academic,amazon,american,american-history,americana,classics,college,economics,essays,high-school,historical,history,literature,non-fiction,philosophy,politics,reference,school,science,unfinished"
16898001,1281981168,The Catholicity of the Church,9781281981165,,,,ES,2010/1/11,"Oxford University Press, USA",,true,4,1073504,26,43,11,0,1985/1/1,The Catholicity of the Church,book,2,6,3,0,0,3.91,199,ebook,,0,0,Avery Dulles,,,,,,14,0,,"religion,theology"
16898501,1281987042,"Recipes for Immortality: Medicine, Religion, and Community in South India",9781281987044,,,,ES,2009/3/13,"Oxford University Press, USA",,true,1,16898501,0,0,0,0,2009/2/19,,,0,0,0,0,0,0.00,260,ebook,,0,0,Richard S Weiss,,,,,,,0,,
16899001,1281993492,"Distribution Theory of Algebraic Numbers. de Gruyter Expositions in Mathematics, Volume 45.",9781281993496,,,,ES,2009/5/7,Walter de Gruyter,,true,1,16899001,0,0,0,0,2008/12/10,,,0,0,0,0,0,0.00,527,ebook,,0,0,"Chung-Chun Yang,Pei-Chu Hu",,,,,,,0,,
16899501,1282000802,Nicotine Psychopharmacology,9781282000803,,,,ES,2014/5/9,Springer,,true,4,7526027,1,4,1,0,2009/1/1,,book,0,1,0,0,0,4.00,544,ebook,,0,0,,,,"Edythe D London,Jack E. Henningfield,Sakire Pogun",,,,0,,
16900001,1282008307,Criticism of Didactic Poetry,9781282008304,,,,ES,2010/1/11,University of Toronto Press,,true,2,16900001,1,4,1,0,1996/12/5,,,0,1,0,0,0,4.00,212,ebook,,0,0,Alexander Dalzell,,,,,,,0,,
16900501,1282013939,W. B. Yeats: A New Biography (Revised),9781282013933,,,,ES,2010/1/11,Sheffield Academic Press,,true,9,505998,64,78,20,1,1988/1/1,W. B. Yeats: A New Biography,book,8,6,3,2,1,3.90,326,ebook,,0,0,A. Norman Jeffares,,,,,,25,0,,"biography,poetry"
16901001,1282022059,Chirality at the Nanoscale,9781282022058,,,,ES,2014/5/10,Wiley-VCH Verlag GmbH,,true,4,16901001,0,0,0,0,2009/2/11,,,0,0,0,0,0,0.00,441,ebook,,0,0,,,,David B. Amabilino,,,,0,,
16901501,1282028308,In Search of a Safe Place: Abused Women and Culturally Sensitive Services,9781282028302,,,,ES,2010/1/11,University of Toronto Press,,true,1,16901501,1,0,0,0,1998/6/20,,,0,0,0,0,0,0.00,305,ebook,,0,0,Vijay Agnew,,,,,,1,0,,
16902001,1282034472,Clients Driving Innovation,9781282034471,,,,ES,2009/4/8,Wiley-Blackwell,,true,2,16902001,0,0,0,0,2009/2/9,,,0,0,0,0,0,0.00,273,ebook,,0,0,,,,"Peter Brandon,Shu-Ling Lu",,,,0,,
16902501,1282040960,Ecstasy and Other Club Drugs. Junior Drug Awareness.,9781282040960,,,,ES,2009/8/19,Chelsea House Publications,,true,2,16902501,3,3,1,0,2008/1/1,,,0,0,1,0,0,3.00,120,ebook,,1,0,"Ronald J. Brogan,Tara Koellhoffer",,,,,,1,0,,
16903001,1282046551,Charles Lindbergh (Famous Flyers),9781282046559,,,,ES,2010/1/11,Chelsea House Publications,,true,3,8957204,13,14,4,0,2003/1/1,,,1,1,1,1,0,3.50,108,ebook,,0,0,Heather Lehr Wagner,,,,,,6,0,,
16903501,1282053035,Outlines of the Philosophy of Right (World's Classics),9781282053038,,,,ES,2009/4/22,"Oxford University Press, USA",eng,true,87,25248,7160,11406,2955,67,1821/1/1,Grundlinien der Philosophie des Rechts,book,1025,907,712,206,105,3.86,374,ebook,,1,1,"Georg Wilhelm Friedrich Hegel,T.M. Knox",,,,,,3754,20,77,"academic,classics,college,history,non-fiction,philosophy,politics,sociology,spirituality"
16904001,1282059262,"The Acts of Alexander III, King of Scots 1249 - 1286: Regesta Regum Scottorum, Volume 4, Part 1",9781282059269,,,,ES,2012/7/18,Edinburgh University Press,eng,true,4,25885075,0,0,0,0,2012/6/13,"The Acts of Alexander III, King of Scots 1249 - 1286 (Regesta Regum Scottorum, Volume 4, Part 1)",book,0,0,0,0,0,0.00,288,ebook,,0,0,,,,Cynthia J. Neville,,,,0,,
16904501,1282065300,"Traveller, Nomadic and Migrant Education",9781282065307,,,,ES,2009/1/1,Routledge,,true,9,15928161,2,4,1,0,2009/1/1,,,0,1,0,0,0,4.00,241,ebook,,0,0,Patrick Alan Danaher,,,,,,1,0,,
16905001,1282072854,Inscription and Modernity: From Wordsworth to Mandelstam,9781282072855,,,,ES,2014/5/10,Indiana University Press,,true,2,16554847,0,0,0,0,2006/7/1,,,0,0,0,0,0,0.00,303,ebook,,0,0,John Mackay,,,,,,,0,,
16905501,1282079409,Feminist Ethics and Social Policy,9781282079403,,,,ES,2014/5/9,Indiana University Press,,false,1,16905501,0,0,0,0,2014/5/9,,,0,0,0,0,0,0.00,321,,,0,0,Melanie Kaye-Kantrowitz,,,,,,,0,,
16906001,1282087169,Contentious Curricula: Afrocentrism and Creationism in American Public Schools,9781282087163,,,,ES,2002/1/1,Princeton University Press,,true,6,2234368,19,43,12,0,2002/1/1,Contentious Curricula: Afrocentrism and Creationism in American Public Schools (Princeton Studies in Cultural Sociology),,0,7,5,0,0,3.58,320,ebook,,0,0,Amy J. Binder,,,,,,4,0,,"education,politics,religion,sociology"
16906501,1282092758,Fifth Dimension: An Exploration of the Spiritual Realm (Revised),9781282092754,,,,ES,2010/1/11,ONEWorld Publications,,true,6,676011,96,144,37,5,1999/1/1,The Fifth Dimension: An Exploration of the Spiritual Realm,book,12,14,7,3,1,3.89,276,ebook,,0,0,John Harwood Hick,,,,,,40,1,7,"academic,christian,philosophy,religion,science,spirituality,theology"
16907001,1282098497,Varieties of Meaning: 2002 Jean Nicod Lectures,9781282098497,,,,ES,2010/1/11,MIT Press (MA),,true,5,866014,113,65,15,2,2004/6/23,Varieties of Meaning: The 2002 Jean Nicod Lectures,book,8,4,3,0,0,4.33,242,ebook,,0,0,Ruth Garrett Millikan,,,,,,88,3,1,"language,non-fiction,philosophy"
16907501,128210473X,Declarative and Procedural Determinants of Second Languages,9781282104730,,,,ES,2014/5/10,John Benjamins Publishing Co,,true,4,6371323,6,5,1,0,2009/1/1,Declarative and Procedural Determinants of Second Languages (Studies in Bilingualism),,1,0,0,0,0,5.00,234,ebook,,0,0,Michel Paradis,,,,,,4,1,,
16908001,1282110101,"Policy Reform, Adjustment Costs, and Investment- With Activity of Local Investors as a Signal",9781282110106,,,,ES,2013/9/24,International Monetary Fund,,true,2,16908001,0,0,0,0,1997/11/1,,,0,0,0,0,0,0.00,44,ebook,,0,0,Omotunde E. Johnson,,,,,,,0,,
16908501,1282116274,How We Use Water,9781282116276,,,,ES,2012/7/18,Rosen Classroom,,true,2,16439073,0,0,0,0,2012/8/1,,,0,0,0,0,0,0.00,26,ebook,,0,0,Nathan Mills,,,,,,,0,,
16909001,1282122959,Principles and Applications of Thermal Analysis,9781282122956,,,,ES,2014/5/10,Wiley-Blackwell,,true,4,16909001,0,0,0,0,2007/11/12,,,0,0,0,0,0,0.00,480,ebook,,0,0,,,,Paul Gabbott,,,,0,,
16909501,1282133357,Past Is the Present; It's the Future Too,9781282133358,,,,ES,2012/1/1,Continuum USA,,true,6,18139573,23,18,4,0,2012/6/28,,,2,2,0,0,0,4.50,359,ebook,,0,0,Christine Ross,,,,,,15,1,2,philosophy
16910001,1282139282,British Poultry Standards,9781282139282,,,,ES,2009/3/16,Wiley-Blackwell,,true,5,11435707,12,27,6,0,1997/4/10,,,4,1,1,0,0,4.50,480,ebook,,0,0,Victoria Roberts,,,,,,4,0,,
16910501,1282144448,Tricky Twins,9781282144446,,,,ES,2007/1/1,Capstone,,true,3,688345,10,15,5,0,2006/1/1,Tricky Twins (Read-It! Readers) (Read-It! Readers),book,0,1,3,1,0,3.00,24,ebook,,0,0,Susan Blackaby,,,,,,2,2,,
16911001,1282149423,Day Mom Finally Snapped,9781282149427,,,,ES,2006/1/1,Capstone,,true,4,683061,35,57,19,3,2006/1/1,The Day Mom Finally Snap-ped (Graphic Sparks (Graphic Novels)),book,4,4,3,4,4,3.00,40,ebook,,0,0,Bob Temple,,,,,,7,3,2,graphic-novels
16911501,1282156314,"Manipulation and Ideologies in the Twentieth Century. Discourse, Language, Mind.",9781282156319,,,,ES,2010/1/11,John Benjamins Publishing Co,,true,2,1924180,6,0,0,0,2005/1/1,"Manipulation and Ideologies in the Twentieth Century: Discourse, Language, Mind (Discourse Approaches to Politics, Society and Culture)",,0,0,0,0,0,0.00,329,ebook,,0,0,Louis de Saussure,,,Peter Schulz,,,3,0,1,
16912001,128216175X,Directions in Sign Language Acquisition.,9781282161757,,,,ES,2010/1/11,John Benjamins Publishing Co,,true,1,16912001,0,0,0,0,2002/6/27,,,0,0,0,0,0,0.00,338,ebook,,0,0,Gary Morgan,,,Bencie Woll,,,,0,,
16912501,1282167413,"Advances in Food Research, Volume 32",9781282167414,,,,ES,2014/5/9,Academic Press,,true,3,10011561,0,0,0,0,1988/11/28,,,0,0,0,0,0,0.00,513,ebook,,0,0,C.O. Chichester,,,,,,,0,,
16913001,1282175009,"Fuerzas Morales, Las: Coleccion de Clasicos de La Literatura Latinoamericana ""Carrascalejo de La Jara""",9781282175006,,,,ES,2014/5/9,E-Libro,,true,17,6769731,124,233,56,2,2000/1/1,Las Fuerzas Morales,,28,14,10,3,1,4.16,189,ebook,,0,0,José Ingenieros,,,,,,43,1,6,classics
16913501,1282180894,"Casa Hechizada, La: Coleccion de Clasicos de La Literatura Europea ""Carrascalejo de La Jara""",9781282180895,,,,ES,2014/5/9,E-Libro,,true,71,198323,3753,3667,1183,167,1859/1/1,The Haunted House,book,123,248,499,250,63,3.10,61,ebook,,0,0,Charles Dickens,,,,,,1798,22,358,"adult-fiction,british-literature,classic-literature,classics,english-literature,fantasy,fiction,ghosts,gothic,historical,historical-fiction,horror,literature,mystery,mystery-thriller,novels,paranormal,short-stories,supernatural,victorian"
16914001,1282188259,ASPCA Kids: Amazing Pet Tricks,9781282188259,,,,ES,2009/6/3,John Wiley & Sons,,true,8,5921805,4,7,2,0,2009/3/23,,,0,1,1,0,0,3.50,111,ebook,,0,0,"Jacque Lynn Schultz,Kate Eldredge",,,,,,2,0,,
16914501,1282195999,Linguistic Disorders and Pathologies: An International Handbook,9781282195998,,,,ES,1993/1/1,Mouton de Gruyter,,true,4,4553345,2,0,0,0,1993/1/1,,book,0,0,0,0,0,0.00,962,ebook,,0,0,Gerhard Blanken,,,"Claus-W Wallesch,Hannelore Grimm,J Dittmann",,,2,0,,language
16915001,1282205331,All about a Day,9781282205338,,,,ES,2008/1/1,Rosen Publishing Group,,true,5,14310206,1,5,1,1,2007/8/1,,,1,0,0,0,0,5.00,24,ebook,,0,0,Joanne Randolph,,,,,,1,0,,
16915501,1282233602,Rivals: Les Corrivaus,9781282233607,,,,ES,2014/5/9,Wilfrid Laurier University Press,,true,3,16459795,2,4,1,0,1573/1/1,Les Corrivaus,book,0,1,0,0,0,4.00,93,ebook,,0,0,"H.P. Clive,Jean De La Taille",,,,,,1,0,,
16916001,1282241990,Songs in Sepia and Black and White,9781282241992,,,,ES,2012/9/13,Quarry Books,,true,5,14849623,14,30,9,0,2012/1/1,,book,1,2,5,1,0,3.33,233,ebook,,0,0,Norbert Krapf,,,,,,2,0,,"art,poetry"
16916501,1282249630,The Electric Railway,9781282249639,,,,ES,2009/3/19,Bcr - University of Colorado at Boulder,,true,2,16916501,0,0,0,0,2009/3/19,,,0,0,0,0,0,0.00,403,ebook,,0,0,A. Morris Buck,,,,,,,0,,
16917001,1282258966,"Gift of Loving-Kindness: 100 Meditations on Compassion, Generosity, and Forgiveness",9781282258969,,,,ES,2009/8/27,New Harbinger Publications,,true,7,3765199,142,230,59,5,2007/4/1,"The Gift of Loving-Kindness: 100 Meditations on Compassion, Generosity, and Forgiveness",,21,17,16,4,1,3.90,282,ebook,,0,0,Mary Brantley,,,,,,59,0,6,"adult,relationships,self-help,spirituality"
16917501,1282268260,"Becoming Europeans?: Attitudes, Behaviour, and Socialization in the European Parliament",9781282268265,,,,ES,2014/5/9,"Oxford University Press, USA",,true,4,6808853,2,3,1,0,2005/1/1,,,0,0,1,0,0,3.00,168,ebook,,0,0,Roger Scully,,,,,,1,0,,
16918001,1282278347,Pulmonary Hypertension,9781282278349,,,,ES,2009/7/24,Informa Healthcare,eng,true,3,16918001,0,0,0,0,2009/7/24,Pulmonary Hypertension,book,0,0,0,0,0,0.00,526,ebook,"Lung Biology in Health and Disease, #236",0,0,,,,"Joseph P. Lynch III,Marc Humbert",,,,0,,
16918501,128228794X,Retail Supply Chain Management,9781282287945,,,,ES,2010/1/21,Springer,,true,2,16918501,0,0,0,0,2009/1/1,,,0,0,0,0,0,0.00,327,ebook,,0,0,,,,"Narendra Agrawal,Stephen A. Smith",,,,0,,
16919001,128229668X,Functional Requirements for Authority Data: A Conceptual Model,9781282296688,,,,ES,2009/1/1,K. G. Saur,,true,7,7408718,3,7,2,0,2009/6/17,,book,1,0,0,1,0,3.50,101,ebook,,0,0,,,,Glenn E. Patton,,,,0,,
16919501,1282303643,Gilded,9781282303645,,,,ES,2009/9/18,John Wiley & Sons,,true,10,6471247,810,1296,347,50,2009/9/18,Gilded: How Newport Became America's Richest Resort,,71,142,108,23,3,3.73,320,ebook,,0,0,Deborah   Davis,,,,,,381,15,20,"american-history,biography,historical,history,non-fiction,research,society,travel"
16920001,1282309633,Jane Austen and Food,9781282309630,,,,ES,1995/7/1,Continuum International Publishing Group,,true,7,489046,596,763,200,34,1995/7/1,Jane Austen and Food,book,57,73,52,12,6,3.81,201,ebook,,0,0,Maggie Lane,,,,,,324,12,28,"biography,cooking,food,historical,history,non-fiction,regency,research,victorian,writing"
16920501,1282316567,Morality in the Philosophy of Thomas Hobbes,9781282316560,,,,ES,2010/1/21,Cambridge University Press,,true,1,16920501,0,0,0,0,2009/1/1,,,0,0,0,0,0,0.00,419,ebook,,0,0,Sharon Lloyd,,,,,,,0,,
16921001,1282338234,Pershing and His Generals: Command and Staff in the Aef,9781282338234,,,,ES,2014/5/10,Praeger,,true,4,3922996,9,8,2,0,1997/11/25,Pershing and His Generals: Command and Staff in the AEF,book,0,2,0,0,0,4.00,167,ebook,,0,0,James J. Cooke,,,,,,3,0,,"history,war"
16921501,128234367X,Total Facilities Management,9781282343672,,,,ES,2010/1/11,Wiley-Blackwell,,true,10,2249751,61,29,8,1,2000/4/17,Total Facilities Management,,2,3,2,0,1,3.62,305,ebook,,0,0,"Adrian Brooks,Brian Atkin",,,,,,44,1,1,
16922001,1282350102,Silicon Photonics,9781282350106,,,,ES,2008/5/23,Wiley-Interscience,,true,4,3318352,2,0,0,0,2008/5/23,Silicon Photonics: The State of the Art,,0,0,0,0,0,0.00,330,ebook,,0,0,Graham T. Reed,,,,,,2,0,,
16922501,1282356666,Social Paralysis and Social Change,9781282356665,,,,ES,1991/1/1,University of California Press,eng,true,4,2964776,3,0,0,1,1991/1/1,Social Paralysis and Social Change: British Working-Class Education in the Nineteenth  Century,book,0,0,0,0,0,0.00,499,ebook,,0,0,Neil J. Smelser,,,,,,1,0,,
16923001,1282362046,Biker,9781282362048,,,,ES,2010/10/13,John Wiley & Sons,,true,10,6943894,129,130,42,3,2009/1/1,,book,8,5,14,13,2,3.10,232,ebook,,0,0,Jerry Langton,,,,,,44,2,24,"crime,fiction"
16923501,1282371606,Introduction to Ecotoxicology,9781282371606,,,,ES,2009/7/17,Wiley-Blackwell,,true,4,16354926,1,0,0,0,2009/7/17,,,0,0,0,0,0,0.00,182,ebook,,0,0,"Bruce Richardson,Des W. Connell,Paul Lam,Rudolf Wu",,,,,,1,0,,
16924001,1282376977,Internationalisation and the Student Voice: Higher Education Perspectives,9781282376977,,,,ES,2010/1/25,Routledge,,true,9,7355729,3,3,2,0,2009/11/1,,,0,0,0,1,1,1.50,210,ebook,,0,0,Elspeth Jones,,,,,,1,0,,
16924501,1282385038,Conservation and Management of Transnational Tuna Fisheries,9781282385030,,,,ES,2013/10/2,John Wiley & Sons,,true,4,16924501,0,0,0,0,2009/11/16,,book,0,0,0,0,0,0.00,392,ebook,,0,0,"Dale Squires,James A. Joseph,Robin Allen",,,,,,,0,,
16925001,1282391240,Practical Design Verification,9781282391246,,,,ES,2010/10/4,Cambridge University Press,,true,4,18787003,2,5,1,0,2009/6/11,,,1,0,0,0,0,5.00,276,ebook,,0,0,"Dhiraj K Pradhan,Ian G Harris",,,,,,1,0,,
16925501,1282399152,World and Us Social Forums: A Better World Is Possible and Necessary,9781282399150,,,,ES,2014/5/10,Brill Academic Publishers,,true,1,16925501,0,0,0,0,2008/1/1,,,0,0,0,0,0,0.00,256,ebook,,0,0,Karides Blau,,,,,,,0,,
16926001,1282406531,"Women, Gender, and World Politics",9781282406537,,,,ES,2014/5/10,Praeger Text,,true,1,16926001,0,0,0,0,1994/12/30,,,0,0,0,0,0,0.00,250,ebook,,0,0,Peter R Beckman,,,,,,,0,,
16926501,1282411640,Teaching U.S. History Through Children's Literature,9781282411647,,,,ES,2014/5/9,Lu Teacher Ideas Press,,true,2,16926501,0,0,0,0,1998/11/1,,,0,0,0,0,0,0.00,229,ebook,,0,0,Wanda Miller,,,,,,,0,,
16927001,1282419102,Music Through Children's Literature,9781282419100,,,,ES,2013/9/26,Lu Teacher Ideas Press,,true,2,16927001,0,0,0,0,1993/5/1,,,0,0,0,0,0,0.00,117,ebook,,0,0,Donna Levene,,,,,,,0,,
16927501,1282424475,Exquisite Corpse: Chance and Collaboration in Surrealism's Parlor Game,9781282424470,,,,ES,2010/3/17,University of Nebraska Press,,true,2,6562557,18,13,3,0,2009/12/1,The Exquisite Corpse: Chance and Collaboration in Surrealism's Parlor Game (Texts and Contexts),book,1,2,0,0,0,4.33,331,ebook,,0,0,,,,Kanta Kochhar-Lindgren,,,11,1,1,"art,non-fiction"
16928001,128244221X,Educating Economists: The Teagle Discussion on Re-Evaluating the Undergraduate Economics Major,9781282442214,,,,ES,2010/7/14,Edward Elgar Publishing,,true,6,1723690,8,14,4,0,1992/6/15,Educating Economists,book,0,2,2,0,0,3.50,242,ebook,,0,0,David Colander,,,,,,2,0,,
16928501,1282452142,Living as Equals: How Three White Communities Struggled to Make Interracial Connections During the Civil Rights Era,9781282452145,,,,ES,2014/5/9,Vanderbilt University Press (TN),,true,4,6106366,6,0,0,0,2008/7/11,Living as Equals: How Three White Communities Struggled to Make Interracial Connections During the Civil Rights Era,,0,0,0,0,0,0.00,318,ebook,,0,0,Phyllis Palmer,,,,,,5,0,,
16929001,1282458876,"Scegliere, Comprare: Dinamiche Di Acquisto in Psicologia E Neuroscienze",9781282458871,,,,ES,2009/12/2,Springer,,true,1,16929001,0,0,0,0,2009/12/2,,,0,0,0,0,0,0.00,208,ebook,,0,0,"Alessandro Antonietti,Michela Balconi",,,,,,,0,,
16929501,1282471945,Teach Yourself Visually iMac,9781282471948,,,,ES,2010/4/12,Visual,,true,19,7464555,46,86,21,1,2014/4/18,,book,9,5,7,0,0,4.10,368,ebook,,0,0,Guy Hart-Davis,,,,,,7,2,6,non-fiction
16930001,1282480367,Ethics of Spying: A Reader for the Intelligence Professional,9781282480360,,,,ES,2010/5/12,Scarecrow Press,,true,6,9684498,27,30,7,0,2005/1/1,,,4,1,2,0,0,4.29,246,ebook,,0,0,Jan Goldman,,,,,,11,0,1,
16930501,1282489526,How to Write a Great Business Plan for Your Small Business in 60 Minutes or Less,9781282489523,,,,ES,2006/12/1,Atlantic Publishing Group,,true,5,711291,24,45,15,0,2006/1/12,How to Write a Great Business Plan for Your Small Business in 60 Minutes or Less - With Companion CD-ROM,,0,5,7,1,2,3.00,287,ebook,,0,0,"Dianna Podmoroff,Sharon Fullen",,,,,,6,1,,business
16931001,1282495801,Entrepreneurship and Local Economic Development,9781282495807,,,,ES,2014/5/10,Lexington Books,,true,3,2127801,6,9,2,0,2007/10/1,Entrepreneurship and Local Economic Development,,1,1,0,0,0,4.50,295,ebook,,0,0,Walzer Norman,,,,,,3,0,,economics
16931501,1282503146,Path of Kabbalah: Revealing the Hidden Wisdom,9781282503144,,,,ES,2014/5/9,Bnei Baruch,,true,6,767211,39,73,16,0,2005/10/3,The Path of Kabbalah,book,11,4,0,1,0,4.56,382,ebook,,0,0,Michael Laitman,,,,,,17,0,1,"religion,self-help"
16932001,1282511548,Technology and Infertility: Assisted Reproduction and Modern Society,9781282511545,,,,ES,2014/5/9,Rosen Publishing Group,,true,3,4122876,1,0,0,0,2009/1/1,Technology and Infertility: Assisted Reproduction and Modern Society,,0,0,0,0,0,0.00,64,ebook,,0,0,Linda Bickerstaff,,,,,,1,0,,
16932501,1282516841,Soccer Step-By-Step,9781282516847,,,,ES,2009/8/15,Rosen Publishing Group,,true,3,16932501,0,0,0,0,2009/8/15,,,0,0,0,0,0,0.00,96,ebook,,0,0,Ian Howe,,,Madeleine Jennings,,,,0,,
16933001,1282524275,China,9781282524279,,,,ES,2009/1/1,ABC-CLIO,,true,3,9840342,6,4,1,0,2009/1/1,,book,0,1,0,0,0,4.00,504,ebook,,0,0,Robert André LaFleur,,,,,,1,0,1,
16933501,1282531913,"Recreation Handbook for Camp, Conference and Community, 2D Ed.",9781282531918,,,,ES,2010/12/6,McFarland & Company,,true,1,16933501,0,0,0,0,2010/2/1,,,0,0,0,0,0,0.00,331,ebook,,0,0,Roger E Barrows,,,,,,,0,,
16934001,1282539779,"Arab Public Sphere in Israel, The: Media Space and Cultural Resistance",9781282539778,,,,ES,2010/6/4,Indiana University Press,,true,5,7118425,6,8,2,0,2009/1/1,,book,1,0,1,0,0,4.00,182,ebook,,0,0,Amal Jamal,,,,,,4,0,,
16934501,1282546953,"Melancholy, Medicine and Religion in Early Modern England",9781282546950,,,,ES,2010/8/10,Cambridge University Press,,true,1,16934501,0,0,0,0,2010/7/1,,,0,0,0,0,0,0.00,223,ebook,,0,0,Mary Ann Lund,,,,,,,0,,
16935001,128255204X,"Reform, Identity and Narratives of Belonging: The Heraka Movement in Northeast India",9781282552043,,,,ES,2014/5/10,Continuum,,true,1,16935001,0,0,0,0,2010/2/25,,,0,0,0,0,0,0.00,240,ebook,,0,0,Arkotong Longkumer,,,,,,,0,,
16935501,128256188X,What They Never Told Me in Principal's School: The Value of Experience Cannot Be Overestimated,9781282561885,,,,ES,2010/6/4,R & L Education,,true,4,6923656,0,0,0,0,2009/11/1,,,0,0,0,0,0,0.00,95,ebook,,0,0,Michael    Connolly,,,,,,,0,,
16936001,1282569503,Concise Encyclopedia of Insurance,9781282569508,,,,ES,2014/5/10,Routledge,,true,3,16936001,0,0,0,0,2010/1/1,,,0,0,0,0,0,0.00,200,ebook,,0,0,"Kenneth E. Clow,Lawrence Silver,Robert E. Stevens",,,,,,,0,,
16936501,1282576135,Gender and Sexuality in India: Selling Sex in Chennai,9781282576131,,,,ES,2010/6/18,Routledge,,true,5,16936501,0,0,0,0,2009/1/1,,,0,0,0,0,0,0.00,161,ebook,,0,0,Salla Sariola,,,,,,,0,,
16937001,1282591738,Mesotext,9781282591738,,,,ES,2010/6/22,Amsterdam University Press,,true,2,16937001,0,0,0,0,2009/10/20,,,0,0,0,0,0,0.00,288,ebook,,0,0,Peter Boot,,,,,,,0,,
16937501,1282607758,Historical Dictionary of the Korean War,9781282607750,,,,ES,2010/8/11,Scarecrow Press,,true,3,9771074,1,0,0,0,2010/7/16,,book,0,0,0,0,0,0.00,437,ebook,,0,0,Paul M. Edwards,,,,,,,0,,reference
16938001,1282626140,Mo: Tibetan Divination System,9781282626140,,,,ES,2014/5/10,Snow Lion Publications,eng,true,6,1282464,60,85,18,1,1991/5/31,Mo: Tibetan Divination System,book,14,3,1,0,0,4.72,168,ebook,,0,0,Jamgön Mipham,,,,,,33,2,2,"non-fiction,religion,spirituality"
16938501,1282639560,The Judge as Political Theorist: Contemporary Constitutional Review,9781282639560,,,,ES,2010/1/1,Princeton University Press,,true,5,9522027,10,9,2,0,2010/1/1,,book,1,1,0,0,0,4.50,420,ebook,,0,0,David Robertson,,,,,,6,0,1,
16939001,1282653385,"Oil, Dollars, Debt, and Crises",9781282653382,,,,ES,2010/7/23,Cambridge University Press,,true,8,7119362,67,65,18,1,2009/1/1,,,3,9,3,2,1,3.61,217,ebook,,0,0,"Amy Myers Jaffe,Mahmoud A. El-Gamal",,,,,,45,2,2,"economics,history"
16939501,1282661108,"Glorious, Accursed Europe",9781282661103,,,,ES,2010/8/9,University Press of New England,,true,3,8459300,3,0,0,0,2010/7/13,,,0,0,0,0,0,0.00,301,ebook,,0,0,"Jehuda Reinharz,Yaacov Shavit",,,,,,2,0,,
16940001,9604422839,"Μαγεία (Σέπτιμους Χιπ, #1)",9789604422838,,,,ES,2006/1/1,Ελληνικά Γράμματα,gre,false,107,769483,171664,379631,99524,4765,2005/3/15,Magyk,book,31195,32764,24607,7821,3137,3.81,592,Hardcover,,17,1,Angie Sage,Mark Zug,,,Χρήστος Καψάλης,,56948,176,1755,"adventure,childrens,family,fantasy,fiction,ghosts,high-fantasy,juvenile,magic,middle-grade,mystery,novels,paranormal,science-fiction,science-fiction-fantasy,supernatural,teen,witches,young-adult"
16940501,1282684035,Confidence Game,9781282684034,,,,ES,2010/8/16,Bloomberg Press,,true,10,8103503,1401,2146,522,32,2010/1/1,,book,189,226,86,18,3,4.11,335,ebook,,1,0,Christine S. Richard,,,,,,609,10,34,"biography,business,economics,history,non-fiction"
16941001,1282689401,Procedures in Field Geology,9781282689404,,,,ES,2013/9/26,Wiley-Blackwell,,true,6,2910600,8,22,5,0,1999/9/8,Procedures in Field Geology,,2,3,0,0,0,4.40,102,ebook,,0,0,Tom Freeman,,,,,,2,0,,
16941501,1282696920,Tutankhamun Uncovered: The Adventure Behind the Curse,9781282696921,,,,ES,2014/5/9,Andrews UK Ltd.,,true,4,12688037,14,12,3,0,2009/10/1,,,1,1,1,0,0,4.00,614,ebook,,0,0,Michael J. Marfleet,,,,,,5,0,,
16942001,1282704583,"Human, Apes and Chinese Fossils",9781282704589,,,,ES,1985/9/1,Hong Kong University Press,,true,1,16942001,0,0,0,0,1985/9/1,,,0,0,0,0,0,0.00,52,ebook,,0,0,C Oxnard,,,,,,,0,,
16942501,1282712063,Cliffsnotes on Homer's the Iliad,9781282712065,,,,ES,2000/7/15,Cliffs Notes,,true,17,91146,150,161,41,4,1989/1/1,The Iliad (Cliffs Notes),book,17,9,11,3,1,3.93,130,ebook,,0,0,CliffsNotes,,,,,,46,8,15,"classics,history,literature,mythology,non-fiction,philosophy,reference,textbooks"
16943001,1282720988,Wheels and Axles in Action,9781282720985,,,,ES,2010/8/15,Rosen Publishing Group,,true,4,14494556,1,0,0,0,2010/8/15,,,0,0,0,0,0,0.00,24,ebook,,0,0,Gillian Gosman,,,,,,,0,,
16943501,1282729691,1325 Buddhist Ways to Be Happy,9781282729698,,,,ES,2013/5/15,Ulysses Press,,true,7,1186083,160,205,52,6,2007/1/1,1325 Buddhist Ways to Be Happy,book,20,15,11,6,0,3.94,240,ebook,,0,0,Barbara Ann Kipfer,,,,,,90,3,6,"adult,inspirational,non-fiction,religion,self-help,spirituality,young-adult"
16944001,1282738119,Epidemiology and Demography in Public Health,9781282738119,,,,ES,2010/1/1,Academic Press,,true,4,9614428,1,0,0,0,2010/1/1,,,0,0,0,0,0,0.00,492,ebook,,0,0,Japhet Killewo,,,"Kristian Heggenhougen,Stella R. Quah",,,1,1,,
16944501,1282743864,"Ethics with Barth: God, Metaphysics and Morals",9781282743861,,,,ES,2010/11/2,Ashgate Publishing,,true,2,16944501,0,0,0,0,2010/1/1,,,0,0,0,0,0,0.00,226,ebook,,0,0,Matthew Rose,,,,,,,0,,
16945001,1282753290,"Settling Accounts: Violence, Justice, and Accountability in Postsocialist Europe",9781282753297,,,,ES,1997/1/1,Princeton University Press,,true,7,1893117,8,3,1,0,1997/1/1,Settling Accounts,,0,0,1,0,0,3.00,197,ebook,,0,0,John Borneman,,,,,,4,0,,college
16945501,1282759698,After Modernity: Archaeological Approaches to the Contemporary Past,9781282759695,,,,ES,2010/9/21,OUP Oxford,,true,6,9052848,40,23,5,0,2010/7/22,,,4,0,1,0,0,4.60,328,ebook,,0,0,"John Schofield,Rodney Harrison",,,,,,26,0,2,"college,history"
16946001,1282769243,Semiconductor Industrial Hygiene Handbook,9781282769243,,,,ES,1995/1/1,William Andrew,,true,2,16901421,0,0,0,0,1995/1/1,,,0,0,0,0,0,0.00,363,ebook,,0,0,"David G. Baldwin,Michael E. Williams,Paul C. Haber",,,,,,,0,,
16946501,9524713896,Ruostumaton teräsrotta syntyy,,,,,ES,2004/1/1,Like,fin,false,31,64397,10810,28821,7291,148,1985/9/1,A Stainless Steel Rat is Born,book,2248,2881,1801,293,68,3.95,251,Paperback,,5,0,Harry Harrison,,,,Pekka Pakkala,,2336,19,32,"action,adventure,american,classics,comedy,crime,fantasy,fiction,funny,humor,novels,science,science-fiction,science-fiction-fantasy,speculative-fiction"
16947001,1282782894,Biotransformation and Metabolite Elucidation of Xenobiotics,9781282782891,,,,ES,2011/1/17,John Wiley & Sons,,true,5,16947001,0,0,0,0,2010/9/7,,,0,0,0,0,0,0.00,342,ebook,,0,0,Ala F Nassar,,,,,,,0,,
16947501,1282790846,Bloom's How to Write about Ralph Waldo Emerson,9781282790841,,,,ES,2008/12/1,Chelsea House Publications,,true,2,16947501,0,0,0,0,2008/12/1,,,0,0,0,0,0,0.00,280,ebook,,0,0,Fabian Ironside,,,,,,,0,,
16948001,1282801988,General Enzymology,9781282801981,,,,ES,2007/1/1,Himalaya Pub. House,,true,1,16948001,16,9,2,0,2007/1/1,,,1,1,0,0,0,4.50,,ebook,,2,0,"M.S. Deshpande,N.S. Kulkarni",,,,,,13,0,,
16948501,1282807153,Handbook of Composite Organic Farming,9781282807150,,,,ES,2011/5/4,Gene-Tech Books,,true,2,16948501,1,5,1,0,2008/1/1,,,1,0,0,0,0,5.00,280,ebook,,1,0,"Dharamvir Hota,Himadri Panda",,,,,,1,0,,
16949001,1282812424,Strategic Management (Concepts and Cases),9781282812420,,,,ES,2010/1/1,Himalaya Pub. House,,true,1,16949001,82,112,30,0,2010/1/1,,,12,7,5,3,3,3.73,415,ebook,,30,0,"G. Sudarsana Keddy,K. Aswathappa",,,,,,42,0,2,
16949501,1282818015,Nonlinear Resonance Analysis,9781282818019,,,,ES,2010/11/22,Cambridge University Press,,true,1,16949501,0,0,0,0,2010/10/1,,,0,0,0,0,0,0.00,256,ebook,,0,0,Elena Kartashova,,,,,,,0,,
16950001,1282840592,International R&d Spillovers and Institutions,9781282840591,,,,ES,2014/5/9,International Monetary Fund,,true,2,16950001,0,0,0,0,2005/12/29,,,0,0,0,0,0,0.00,35,ebook,,0,0,"Alexander W. Hoffmaister,David T. Coe,Elhanan Helpman",,,,,,,0,,
16950501,1282845632,Economic Transition and Health Care Reform: The Experience of Europe and Central Asia,9781282845633,,,,ES,2014/5/9,International Monetary Fund,,true,1,16950501,0,0,0,0,2006/2/28,,,0,0,0,0,0,0.00,41,ebook,,0,0,Adam Leive,,,,,,,0,,
16951001,1282856227,"Knight-Monks of Vichy France: Uriage, 1940-1945 (Revised)",9781282856226,,,,ES,2014/5/10,McGill-Queen's University Press,,true,4,7064973,22,28,7,1,1993/3/1,,book,1,5,1,0,0,4.00,344,ebook,,0,0,John Hellman,,,,,,14,0,,history
16951501,1282869876,"Terrorism, Elections, and Democracy: Political Campaigns in the United States, Great Britain, and Russia",9781282869875,,,,ES,2010/11/17,Palgrave MacMillan,,true,2,16574024,0,0,0,0,2010/1/5,,,0,0,0,0,0,0.00,245,ebook,,0,0,"Lynda Lee Kaid,Mike Berry,Sarah Oates",,,,,,,0,,
16952001,128287554X,Contemporary Applied Linguistics Volume 1: Volume One Language Teaching and Learning,9781282875548,,,,ES,2014/5/10,Continuum,,true,2,16952001,0,0,0,0,2009/6/23,,,0,0,0,0,0,0.00,288,ebook,,0,0,Vivian Cook,,,,,,,0,,
16952501,1282882368,"International Relations and Non-Western Thought: Imperialism, Colonialism and Investigations of Global Modernity",9781282882362,,,,ES,2010/12/10,Routledge,,true,7,9770032,23,6,2,0,2010/9/7,,,0,0,2,0,0,3.00,285,ebook,,0,0,Robbie Shilliam,,,,,,19,1,1,non-fiction
16953001,1282889184,Fitness for Dummies,9781282889187,,,,ES,2013/9/24,For Dummies,,true,21,558772,728,598,167,10,1997/5/27,Fitness For Dummies,book,33,48,71,13,2,3.58,436,ebook,,0,0,"Liz Neporent,Suzanne Schlosberg",,,,,,433,12,39,"health,non-fiction,reference,science,self-help,sports,unfinished"
16953501,1282895567,Creative Vision,9781282895560,,,,ES,2005/1/1,Continuum,,true,4,2032304,14,17,4,0,2005/9/1,Creative Vision: Traditional and Digital Methods for Inspiring Innovative Photography (Advanced Level),,2,1,1,0,0,4.25,194,ebook,,0,0,Jeremy Webb,,,,,,7,0,-1,
16954001,,"Finish it Tonight (The Clover Leaf Café, #3)",,B00AN4JNZG,,,ES,2012/12/11,"Amazon Digital Services, Inc.",eng,true,2,16954001,41,42,11,0,2012/12/11,Finish it Tonight ,book,4,3,3,0,1,3.82,52,Kindle Edition,,11,0,Melissa F. Hart,,,,,,27,1,1,"erotica,romance"
16954501,1282910329,The Comparative Economics of Sport,9781282910324,,,,ES,2010/12/17,Palgrave MacMillan,,true,3,11945803,16,9,2,0,2010/3/31,,,1,1,0,0,0,4.50,336,ebook,,0,0,Stefan Szymanski,,,,,,13,0,,
16955001,1282916785,Well-Balanced Teacher: How to Work Smarter and Stay Sane Inside the Classroom and Out,9781282916784,,,,ES,2010/12/22,Association for Supervision & Curriculum Development,,true,7,9396601,249,443,127,18,2010/9/15,,book,24,34,54,10,5,3.49,125,ebook,,0,0,Mike Anderson,,,,,,84,2,10,"education,non-fiction,teaching"
16955501,1282930419,"Affluence, Mobility and Second Home Ownership",9781282930414,,,,ES,2011/1/11,Routledge,,true,8,16955501,1,0,0,0,2010/1/1,,,0,0,0,0,0,0.00,225,ebook,,0,0,Chris Paris,,,,,,1,0,,
16956001,1282936557,The Global Carbon Cycle,9781282936553,,,,ES,2011/2/17,Princeton University Press,,true,5,10123345,62,99,25,1,2010/11/1,,,7,12,5,0,1,3.96,224,ebook,,0,0,David Archer,,,,,,27,2,5,"non-fiction,science"
16956501,1282944231,Digital Slr Settings & Shortcuts for Dummies,9781282944237,,,,ES,2011/2/17,For Dummies,,true,7,10823491,17,22,5,0,2010/12/1,,,2,3,0,0,0,4.40,404,ebook,,0,0,Doug Sahlin,,,,,,7,0,3,
16957001,1282952358,Social Stratification in Chinese Societies,9781282952355,,,,ES,2014/5/10,Brill Academic Publishers,,true,3,18065248,1,0,0,0,2009/1/1,,,0,0,0,0,0,0.00,285,ebook,,0,0,,,,Chan Kwok-Bun,,,1,0,,
16957501,1282959867,Through the French Canals,9781282959866,,,,ES,2014/5/10,Berg Publishers,,true,3,8068278,13,29,7,0,2006/9/1,,,2,4,1,0,0,4.14,80,ebook,,0,0,David Jefferson,,,,,,2,1,1,travel
16958001,1282966545,Assessment of the Risk of Amazon Dieback,9781282966543,,,,ES,2011/7/5,World Bank Group,,true,3,10269306,3,2,1,0,2010/11/11,,,0,0,0,1,0,2.00,116,ebook,,0,0,,,,"Sebastian M Scholz,Walter Vergara",,,2,0,,
16958501,1282976095,"How Kentucky Became Southern: A Tale of Outlaws, Horse Thieves, Gamblers, and Breeders",9781282976092,,,,ES,2011/2/15,University Press of Kentucky,,true,7,8104982,119,129,35,6,2010/1/1,,,6,14,13,2,0,3.69,304,ebook,,1,0,Maryjean Wall,,,,,,65,5,8,"american-history,history,non-fiction"
16959001,1282982060,Lock-In Thermography: Basics and Use for Evaluating Electronic Devices and Materials,9781282982062,,,,ES,2011/2/25,Springer,,true,1,16959001,0,0,0,0,2010/1/1,,,0,0,0,0,0,0.00,266,ebook,,0,0,"M Langenkamp,O Breitenstein,W Warta",,,,,,,0,,
16959501,1282989804,Essentials of Wms-IV Assessment,9781282989801,,,,ES,2011/3/23,John Wiley & Sons,,true,7,9100720,17,38,11,0,2011/1/13,,,1,4,5,1,0,3.45,301,ebook,,0,0,"James A. Holdnack,Lisa W. Drozdick",,,,,,,0,2,psychology
16960001,1282997602,"Negotiating Clerical Identities: Priests, Monks and Masculinity in the Middle Ages",9781282997608,,,,ES,2011/3/11,Palgrave MacMillan,,true,5,10757120,9,4,1,0,2010/10/1,,book,0,1,0,0,0,4.00,288,ebook,,0,0,,,,Jennifer D. Thibodeaux,,,7,0,,"christianity,history"
16960501,128300514X,Pan-Africanism or Pragmatism: Lessons of the Tanganyika-Zanzibar Union,9781283005142,,,,ES,2004/5/10,Mkuki na Nyota Publishers,,true,3,4136919,16,8,2,2,2004/5/10,Pan-Africanism or Pragmatism. Lessons of the Tanganyika-Zanzibar Union,,1,0,1,0,0,4.00,337,ebook,,0,0,Issa G. Shivji,,,,,,8,0,1,history
16961001,1283011409,Moodle Security,9781283011402,,,,ES,2014/5/9,Packt Publishing,,true,2,16961001,0,0,0,0,2011/1/1,,,0,0,0,0,0,0.00,204,ebook,,0,0,Darko Miletic,,,,,,,0,,
16961501,1283018845,Your First Year as a Lawyer Revealed,9781283018845,,,,ES,2014/5/10,Jist Publishing,,true,1,16961501,1,0,0,0,2010/1/1,,,0,0,0,0,0,0.00,288,ebook,,0,0,Ursula Furi-Perry,,,,,,,0,,
16962001,1283025310,Mathematics of Bioinformatics,9781283025317,,,,ES,2011/3/31,Wiley-Interscience,,true,2,16962001,1,0,0,0,2011/1/31,,,0,0,0,0,0,0.00,317,ebook,,0,0,"Matthew He,Sergey Petoukhov",,,,,,1,0,,
16962501,128303042X,Tara Va a la Feria (the Street Fair),9781283030427,,,,ES,2006/8/1,Rosen Classroom,,true,3,14312899,0,0,0,0,,,,0,0,0,0,0,0.00,16,ebook,,0,0,Lincoln James,,,,,,,0,,
16963001,1283036320,Photographies East: The Camera and Its Histories in East and Southeast Asia,9781283036320,,,,ES,2009/1/1,Duke University Press,,true,3,6347549,16,11,3,0,2009/1/1,Photographies East: The Camera and Its Histories in East and Southeast Asia (Objects/Histories),,0,2,1,0,0,3.67,313,ebook,,0,0,,,,Rosalind C. Morris,,,13,0,,
16963501,1283042282,Westerns,9781283042284,,,,ES,2011/4/6,Routledge,eng,true,9,10623938,16,22,5,0,2010/1/1,,book,3,1,1,0,0,4.40,217,ebook,,0,0,John                     White,,,,,,11,1,,
16964001,1283049538,"Boycott, Divestment, Sanctions: The Global Struggle for Palestinian Rights",9781283049535,,,,ES,2011/5/13,Haymarket Books,,true,6,10584110,887,677,168,19,2010/3/25,,book,73,59,18,4,14,4.03,320,ebook,,0,0,Omar Barghouti,,,,,,656,14,31,"christmas,historical,history,non-fiction,politics"
16964501,128305499X,Structured Surfaces as Optical Metamaterials,9781283054997,,,,ES,2011/7/12,Cambridge University Press,,true,5,11936116,1,4,1,0,2011/1/1,,,0,1,0,0,0,4.00,476,ebook,,0,0,Alexei A. Maradudin,,,,,,,0,,
16965001,1283061562,Overcoming Passion for Race in Malaysia Cultural Studies,9781283061568,,,,ES,2014/5/10,Brill Academic Publishers,,true,1,16965001,0,0,0,0,2008/1/1,,,0,0,0,0,0,0.00,197,ebook,,0,0,,,,D Lim,,,,0,,
16965501,1283066858,"Globalization, War, and Peace in the Twenty-First Century",9781283066853,,,,ES,2011/4/27,Palgrave MacMillan,,true,6,9208883,1,0,0,0,2004/1/1,,,0,0,0,0,0,0.00,208,ebook,,0,0,William R. Nester,,,,,,1,0,,
16966001,1283072238,Pharmaceutical Toxicology in Practice,9781283072236,,,,ES,2011/4/28,John Wiley & Sons,,true,2,16966001,0,0,0,0,2011/3/10,,,0,0,0,0,0,0.00,268,ebook,,0,0,"Alberto Lodola,Jeanne Stadler",,,,,,,0,,
16966501,1283077620,"Making Maps, Second Edition: A Visual Guide to Map Design for GIS (Revised)",9781283077620,,,,ES,2011/5/9,Guilford Publications,,true,7,245422,203,251,71,6,2005/8/17,Making Maps: A Visual Guide to Map Design for GIS,book,15,27,14,11,4,3.54,256,ebook,,0,0,"Denis Wood,John Krygier",,,,,,98,3,7,"academic,business,non-fiction,reference,science,textbooks"
16967001,1283090961,Night Spirits,9781283090964,,,,ES,2014/5/9,University of Manitoba Press,,true,3,2891476,171,281,63,14,2000/3/16,Night Spirits: The Story of the Relocation of the Sayisi Dene,book,37,18,8,0,0,4.46,192,ebook,,5,1,Ila Bussidor,,,,,,80,4,4,"biography,cultural,essays,history,non-fiction"
16967501,1283096366,Teaching Information Literacy: 50 Standards-Based Exercises for College Students (Revised),9781283096362,,,,ES,2011/5/24,American Library Association,,true,3,8035532,184,111,32,9,2010/1/1,,,6,11,8,6,1,3.47,152,ebook,,0,0,"Joanna M. Burkhardt,Mary C. MacDonald",,,,,,117,6,5,"academic,college,non-fiction,reference,teaching"
16968001,1283102102,Tourism and National Identity: An International Perspective,9781283102100,,,,ES,2011/6/1,Routledge,,true,2,16968001,0,0,0,0,2011/3/15,,,0,0,0,0,0,0.00,248,ebook,,0,0,,,,"Elspeth Frew,Leanne White",,,,0,,
16968501,1283110156,Times Alone,9781283110150,,,,ES,2011/4/1,Wesleyan,,true,8,1189111,264,464,106,20,1983/1/1,Times Alone: Selected Poems of Antonio Machado (Wesleyan Poetry),book,67,19,16,1,3,4.38,188,ebook,,0,0,Antonio Machado,,,,,,126,7,10,poetry
16969001,1283115689,Waste-To-Energy: Technologies and Project Implementation (Revised),9781283115681,,,,ES,2011/9/14,William Andrew Publishing,eng,true,7,12174897,11,10,2,0,1987/12/31,,,2,0,0,0,0,5.00,288,ebook,,0,0,"Francois Screve,Marc J. Rogoff",,,,,,7,0,2,
16969501,128312145X,"The Rise of the Image, the Fall of the Word",9781283121453,,,,ES,2014/5/10,"Oxford University Press, USA",,true,2,19035535,6,3,1,0,1998/8/28,,,0,0,1,0,0,3.00,272,ebook,,0,0,Mitchell Stephens,,,,,,5,0,,
16970001,1283126885,Behavioral Economics,9781283126885,,,,ES,2011/7/14,Routledge,,true,20,13010665,108,43,12,1,2011/1/1,,,2,4,5,1,0,3.58,487,ebook,,0,0,Edward Cartwright,,,,,,72,2,8,"economics,psychology,research,science,textbooks"
16970501,1283132796,Ultimate Guide to Weight Training for Basketball,9781283132794,,,,ES,2006/9/1,Price World Publishing,,true,1,16970501,1,1,1,0,2006/9/1,,,0,0,0,0,1,1.00,168,ebook,,1,0,Rob Price,,,,,,,0,,
16971001,1283138840,Engineering Quantum Mechanics,9781283138840,,,,ES,2014/5/10,Wiley-IEEE Press,,true,7,16971001,2,0,0,0,2011/6/1,,,0,0,0,0,0,0.00,316,ebook,,0,0,"Doyeol Ahn,Seoung-Hwan Park",,,,,,1,0,,
16971501,1283144271,Optical Processes in Microparticles and Nanostructures: A Festschrift Dedicated to Richard Kounai Chang on His Retirement from Yale University,9781283144278,,,,ES,2014/5/10,World Scientific Publishing Company,,true,3,16971501,0,0,0,0,2010/11/1,,,0,0,0,0,0,0.00,488,ebook,,0,0,Ali Serpenguzel,,,,,,,0,,
16972001,1283149575,Food Crises and the Wto,9781283149570,,,,ES,2011/8/9,Cambridge University Press,,true,1,16972001,0,0,0,0,2010/1/1,,,0,0,0,0,0,0.00,385,ebook,,0,0,Baris Karapinar,,,,,,,0,,
16972501,1283154978,Cockatoos,9781283154970,,,,ES,2007/12/20,CSIRO Publishing,,true,3,1963722,12,27,7,0,2007/4/1,Cockatoos (Australian Natural History Series),book,2,3,1,1,0,3.86,231,ebook,,0,0,Matt  Cameron,,,,,,6,1,,
16973001,1283160277,Siblings: Brothers and Sisters in American History,9781283160278,,,,ES,2011/9/21,"Oxford University Press, USA",,true,5,12108524,22,11,3,1,2011/6/23,,,1,0,2,0,0,3.67,328,ebook,,0,0,C. Dallett Hemphill,,,,,,16,1,1,history
16973501,1283165880,Schleiermacher - Denker Fur Die Zukunft Des Christentums?,9781283165884,,,,ES,2014/5/10,Walter de Gruyter,,true,4,15058560,0,0,0,0,2011/4/19,,,0,0,0,0,0,0.00,135,ebook,,0,0,,,,"Andreas Arndt,Kurt-Victor Selge",,,,0,,
16974001,1283171511,Conditional and Unconditional Conservatism: Implications for Accounting Based Valuation and Risky Projects,9781283171519,,,,ES,2014/5/9,Gabler Verlag,,true,2,16974001,1,0,0,0,2009/1/1,,,0,0,0,0,0,0.00,132,ebook,,0,0,Julia Nasev,,,,,,1,0,,
16974501,1283176831,The Savage Truth on Money,9781283176835,,,,ES,2011/8/3,John Wiley & Sons,,true,16,11956294,81,76,23,3,1999/9/22,The Savage Truth On Money,book,2,6,12,3,0,3.30,370,ebook,,0,0,Terry Savage,,,,,,40,4,4,self-help
16975001,1283181967,Reform of Macroeconomic Policy: From Stagflation to Low or Zero Inflation,9781283181969,,,,ES,2014/5/9,Palgrave MacMillan,,true,4,18736659,0,0,0,0,1999/11/22,,book,0,0,0,0,0,0.00,216,ebook,,0,0,J.O.N. Perkins,,,,,,,0,,
16975501,1283190885,Explaining Consumer Choice,9781283190886,,,,ES,2014/5/10,Palgrave MacMillan,,true,3,4642473,1,4,1,0,2007/6/27,Explaining Consumer Choice,,0,1,0,0,0,4.00,272,ebook,,0,0,Gordon R. Foxall,,,,,,,0,,
16976001,1283196980,Christology and Scripture: Interdisciplinary Perspectives,9781283196987,,,,ES,2014/5/10,T & T Clark International,,true,1,16976001,1,0,0,0,2008/3/20,,,0,0,0,0,0,0.00,240,ebook,,0,0,,,,"Andrew T. Lincoln,Angus Paddison",,,1,1,,
16976501,1283202077,Marriage Disputes in Medieval England,9781283202077,,,,ES,2014/5/10,Hambledon & London,,true,2,2935008,5,4,1,0,2000/11/1,Marriage Disputes in Medieval England,,0,1,0,0,0,4.00,248,ebook,,0,0,Frederik Pedersen,,,,,,2,0,,"history,marriage,medieval"
16977001,1283207230,Centering Prayer in Daily Life and Ministry,9781283207232,,,,ES,1997/5/1,Continuum International Publishing Group,,true,4,592047,128,133,36,4,1997/5/1,Centering Prayer in Daily Life and Ministry,,7,16,9,3,1,3.69,144,ebook,,0,0,Thomas Keating,,,Gustave Reininger,,,71,1,4,"christian,christianity,non-fiction,religion,spirituality,theology"
16977501,1283212471,Archaeology of Midas and the Phrygians,9781283212472,,,,ES,2011/1/1,University of Pennsylvania Museum Publications,,true,1,16977501,0,0,0,0,2005/4/20,,,0,0,0,0,0,0.00,272,ebook,,0,0,,,,Lisa Kealhofer,,,,0,,
16978001,1283217791,New Perspectives on Economic Crime,9781283217798,,,,ES,2014/5/10,Edward Elgar Publishing,,true,3,8232824,2,3,1,0,2004/1/1,,book,0,0,1,0,0,3.00,177,ebook,,0,0,,,,"Göran Skogh,Hans Sjögren",,,1,0,,
16978501,1283222949,"Organizational Traps: Leadership, Culture, Organizational Design: Leadership, Culture, Organizational Design",9781283222945,,,,ES,2011/8/15,"Oxford University Press, USA",,true,6,8633384,180,230,59,5,2010/4/29,,,16,25,15,2,1,3.90,224,ebook,,0,0,Chris Argyris,,,,,,84,5,8,"business,education,leadership,non-fiction"
16979001,1283228475,If I Should Die Before I Wake,9781283228473,,,,ES,2013/1/3,Lerner Classroom,,true,10,127433,1631,3221,811,31,1985/1/1,If I Should Die Before I Wake,book,327,211,206,57,10,3.97,128,ebook,,0,0,Lurlene McDaniel,,,,,,523,23,8,"christianity,fiction,inspirational,novels,realistic-fiction,romance,teen,young-adult"
16979501,128323369X,Challenge of the American Presidency: Washington to Obama (Revised),9781283233699,,,,ES,2011/10/14,Lexington Books,,true,1,16979501,0,0,0,0,2011/9/16,,,0,0,0,0,0,0.00,327,ebook,,0,0,Philip Abbott,,,,,,,0,,
16980001,1283239361,Animal Cell Culture,9781283239363,,,,ES,2011/8/30,John Wiley & Sons,,true,8,13183229,8,4,1,0,2010/10/31,,,0,1,0,0,0,4.00,380,ebook,,0,0,,,,John M. Davis,,,3,0,2,
16980501,1283244594,Fashion and Music,9781283244596,,,,ES,2011/7/1,Berg Publishers,,true,6,12582103,23,33,8,0,2011/7/1,,,3,3,2,0,0,4.12,200,ebook,,0,0,Janice Miller,,,,,,14,1,1,
16981001,1283249715,Monster Fight Club: Creatures of Myths and Legends,9781283249713,,,,ES,2011/8/15,PowerKids Press,,true,5,15006791,14,32,8,1,2011/8/15,,book,3,3,1,1,0,4.00,32,ebook,,0,0,"Anita Ganeri,David    West",,,,,,1,2,,
16981501,1283255359,"Nature of the New Firm, The: Beyond the Boundaries of Organizations and Institutions",9781283255356,,,,ES,2011/9/15,Edward Elgar Publishing,,true,3,16981501,0,0,0,0,2011/1/1,,,0,0,0,0,0,0.00,264,ebook,,0,0,,,,"Killian J. McCarthy,Maya Fiolet,Wilfred Dolfsma",,,,0,,
16982001,1283260735,Words of Gratitude Mind Body & Soul,9781283260732,,,,ES,2014/3/28,Templeton Foundation Press,,true,5,1896497,96,104,25,3,2001/10/1,"Words of Gratitude for Mind, Body, and Soul",book,13,4,7,1,0,4.16,,ebook,,0,0,"David Steindl-Rast,Joanna  Hill,Robert A. Emmons",,,,,,62,2,,"college,non-fiction,self-help,spirituality"
16982501,1283266245,Teaching Harry Potter: The Power of Imagination in Multicultural Classrooms,9781283266246,,,,ES,2011/9/20,Palgrave MacMillan,,true,10,9942542,41,30,8,2,2009/1/1,,book,3,3,0,1,1,3.75,216,ebook,,0,0,Catherine L. Belcher,,,,,,29,0,,"education,non-fiction,teaching"
16983001,1283271680,Beckett: A Guide for the Perplexed,9781283271684,,,,ES,2014/5/10,Berg Publishers,,true,6,5189785,24,29,9,3,2008/9/7,Samuel Beckett: A Guide for the Perplexed (Guides for the Perplexed),,1,3,3,1,1,3.22,200,ebook,,0,0,Jonathan Boulter,,,,,,13,0,,"literature,plays"
16983501,1283276828,Classical Electrodynamics,9781283276825,,,,ES,2013/9/24,Westview Press,,true,5,932680,51,48,13,0,1998/1/1,Classical Electrodynamics (The Advanced Book Program),,5,3,2,2,1,3.69,592,ebook,,0,0,"Julian Schwinger,Kimball A. Milton,Lester L. Deraad,Wu-yang Tsai",,,,,,25,0,6,"science,textbooks"
16984001,1283282046,"Adjudication in Action: An Ethnomethodology of Law, Morality and Justice",9781283282048,,,,ES,2011/10/28,Ashgate Publishing,,true,7,17082715,2,0,0,0,2011/1/1,,,0,0,0,0,0,0.00,374,ebook,,0,0,Baudouin Dupret,,,,,,2,1,,
16984501,1283287978,"Progress in Brain Research, Volume 52: The Pineal Gland of Vertebrates Including Man",9781283287975,,,,ES,1979/1/1,Elsevier Science & Technology,,true,3,16553478,2,0,0,0,1979/1/1,,book,0,0,0,0,0,0.00,,ebook,,0,0,,,,"Johannes Ariens Kappers,P. Pevet",,,2,0,,
16985001,1283293722,"Genetics of Circadian Rhythms, The, Volume 74",9781283293723,,,,ES,2011/9/26,Academic Press,,true,1,16985001,0,0,0,0,2011/9/26,,,0,0,0,0,0,0.00,264,ebook,,0,0,,,,Stuart Brody,,,,0,,
16985501,128329947X,Work-Based Learning,9781283299473,,,,ES,2011/8/26,Emerald Group Publishing,,true,1,16985501,0,0,0,0,2011/8/26,,,0,0,0,0,0,0.00,50,ebook,,0,0,,,,Anne Gimson,,,,0,,
16986001,128330869X,"Surplus of Culture: Sense, Common-Sense, Non-Sense",9781283308694,,,,ES,2012/3/8,Cambridge Scholars Publishing,,true,2,13178543,0,0,0,0,2011/10/1,,,0,0,0,0,0,0.00,275,ebook,,0,0,,,,"Ewa Borkowska,Tomasz Burzynski",,,,0,,
16986501,128331455X,"Uber Den Umlaut: Zwei Abhandlungen' (Carlsruhe, 1843) and 'Uber Den Ablaut' (Carlsruhe, 1844)",9781283314558,,,,ES,2014/5/9,John Benjamins Publishing Co,,true,1,16986501,0,0,0,0,1977/1/1,,,0,0,0,0,0,0.00,162,ebook,,0,0,"Adolf Holtzmann,E.F.K. Koerner,Wilbur A Benware",,,,,,,0,,
16987001,1283320185,"Progress in Brain Research, Volume 96: Neurobiology of Ischemic Brain Damage",9781283320184,,,,ES,1993/5/10,Elsevier Science & Technology,,true,3,3521930,0,0,0,0,1993/5/10,Neurobiology of Ischemic Brain Damage,book,0,0,0,0,0,0.00,,ebook,,0,0,,,,"Konstantin-Alexander Hossmann,Kyuya Kogure",,,,0,,
16987501,1283325632,Fiche de Lecture: Mec de La Tombe D'a Cote de Katarina Mazetti,9781283325639,,,,ES,2014/5/9,Lepetitlittraire.Fr,,true,2,16318215,4,7,2,0,2011/9/1,,,0,1,1,0,0,3.50,11,ebook,,0,0,Cécile Perrel,,,,,,1,0,1,
16988001,1283331462,Science Fiction Film,9781283331463,,,,ES,2014/5/9,Cambridge University Press,,true,7,536449,64,138,39,2,1997/11/21,Science Fiction Film (Genres in American Cinema),,7,15,10,6,1,3.54,269,ebook,,0,0,Jay P. Telotte,,,,,,13,1,2,"academic,essays,film,grad-school,movies,non-fiction,science-fiction"
16988501,1283337398,Comptia Strata Study Guide Authorized Courseware,9781283337397,,,,ES,2011/11/29,Sybex,,true,7,12588906,17,26,6,0,2011/10/4,,,3,2,1,0,0,4.33,509,ebook,,0,0,"Andrew              Smith,Faithe Wempen",,,,,,7,0,2,
16989001,1283342804,Challenged by Coeducation,9781283342803,,,,ES,2014/5/10,Vanderbilt University Press (TN),,true,4,2090689,29,20,5,2,2007/1/22,Challenged by Coeducation: Women's Colleges Since the 1960s,book,1,3,1,0,0,4.00,392,ebook,,0,0,,,,"Leslie Miller-Bernal,Susan L. Poulson",,,20,0,2,history
16989501,1283347946,Primer on the Autonomic Nervous System,9781283347945,,,,ES,2012/2/1,Academic Press,,true,12,12888185,34,27,7,0,1996/1/1,,,3,1,2,1,0,3.86,730,ebook,,1,0,,,,"David W. Robertson,Geoffrey Burnstock,Italo Biaggioni,Julian F.R. Paton,Phillip A. Low",,,18,2,3,
16990001,1283353083,Control of Innate and Adaptive Immune Responses During Infectious Diseases,9781283353083,,,,ES,2012/1/30,Springer New York,,true,4,16990001,0,0,0,0,2011/9/21,,,0,0,0,0,0,0.00,186,ebook,,0,0,,,,Julio Aliberti,,,,0,,
16990501,1283358468,Prague Linguistic Circle Papers: Travaux Du Cercle Linguistique de Prague Nouvelle Serie: Volume 1,9781283358460,,,,ES,2014/5/9,John Benjamins Publishing Co,,true,4,17599560,1,4,1,0,1995/12/21,,,0,1,0,0,0,4.00,346,ebook,,0,0,,,,"Eva Hajicova,Miroslav Červenka,Oldrich Leska,Petr Sgall",,,,0,,
16991001,1283363712,E-Moderating: The Key to Online Teaching and Learning (Revised),9781283363716,,,,ES,2011/12/16,Routledge,,true,20,163473,59,92,24,0,2000/4/1,E-Moderating: The Key to Teaching and Learning Online,,6,11,4,3,0,3.83,288,ebook,,0,0,Gilly Salmon,,,,,,17,1,5,"business,education,non-fiction,reference"
16991501,1283369559,Humans on Earth: From Origins to Possible Futures,9781283369558,,,,ES,2014/5/10,Springer,,true,3,16991501,4,0,0,0,2011/9/26,,,0,0,0,0,0,0.00,424,ebook,,0,0,Filipe Duarte Santos,,,,,,3,0,,
16992001,1283375222,Outdoor Learning: Past and Present,9781283375221,,,,ES,2012/2/22,Open University Press,,true,2,16992001,0,0,0,0,2012/2/1,,,0,0,0,0,0,0.00,,ebook,,0,0,Rosaleen Joyce,,,,,,,0,,
16992501,1283381109,Gender-Technology Relations: Exploring Stability and Change,9781283381109,,,,ES,2012/1/4,Palgrave MacMillan,,true,6,19566115,1,5,1,0,2011/11/22,,,1,0,0,0,0,5.00,216,ebook,,0,0,Hilde G. Corneliussen,,,,,,,0,,
16993001,1283396238,"Chemical Engineering Design: Principles, Practice and Economics of Plant and Process Design (Revised)",9781283396233,,,,ES,2012/3/28,Butterworth-Heinemann,,true,7,2253865,133,90,27,3,2007/11/1,"Chemical Engineering Design: Principles, Practice and Economics of Plant and Process Design",book,4,8,9,5,1,3.33,1320,ebook,,0,0,"Gavin Towler,R.K. Sinnott",,,,,,73,0,8,"economics,non-fiction,reference,textbooks"
16993501,1283401673,Venture Capital Valuation,9781283401678,,,,ES,2012/1/25,John Wiley & Sons,,true,5,16993501,0,0,0,0,2011/11/15,,,0,0,0,0,0,0.00,304,ebook,,0,0,Lorenzo Carver,,,,,,,0,,
16994001,128340687X,Researching Your Family History Online for Dummies,9781283406871,,,,ES,2013/9/25,For Dummies,,true,8,6499000,44,43,12,1,2009/11/24,Research Your Family History on-Line Dum (For Dummies),book,3,3,4,2,0,3.58,286,ebook,,0,0,"April Leigh Helm,Jenny Thomas,Matthew L. Helm,Nick Barratt,Sarah Newbery",,,,,,19,0,4,reference
16994501,1283412195,A Wicked Conquest,9781283412193,,,,ES,2013/10/10,Chimera Books,,true,4,8680048,4,5,2,0,2010/6/28,,,0,0,1,1,0,2.50,192,ebook,,0,0,Valerie Saxon,,,,,,1,1,,erotica
16995001,1283417251,Brazilian Jiujitsu: Ground-Fighting Combat,9781283417259,,,,ES,2012/2/17,Lerner Publications,,true,4,16645823,5,9,2,1,2012/1/1,,,1,1,0,0,0,4.50,32,ebook,,0,0,Garrison Wells,,,,,,2,0,1,
16995501,1283422336,Riots and After in Mumbai: Chronicles of Truth and Reconciliation,9781283422338,,,,ES,2014/5/10,"Sage Publications, India Private Ltd.",,true,6,12369829,42,2,1,0,2011/12/1,,,0,0,0,1,0,2.00,360,ebook,,0,0,Meena Menon,,,,,,36,0,3,
16996001,1283427486,Am I My Genes?: Confronting Fate and Family Secrets in the Age of Genetic Testing,9781283427487,,,,ES,2012/3/8,"Oxford University Press, USA",,true,4,12763175,105,38,14,2,2012/1/3,,,0,2,7,4,1,2.71,376,ebook,,0,0,Robert L. Klitzman,,,,,,76,2,6,"family,non-fiction,science"
16996501,1283432943,Zinc in Human Health,9781283432948,,,,ES,2012/12/17,IOS Press,,true,4,15954162,1,0,0,0,2011/1/1,,,0,0,0,0,0,0.00,596,ebook,,0,0,,,,Lothar Rink,,,,0,,
16997001,1283438585,Horticultural Chain Management for Eastern and Southern Africa: A Theoretical Manual,9781283438582,,,,ES,2009/1/1,Commonwealth Secretariat,,true,1,16997001,0,0,0,0,2009/3/1,,,0,0,0,0,0,0.00,218,ebook,,0,0,"Ameliat Lombard,Dharini Sivakumar,Hester Vermulen,Lise Korsten,Rosa Rolle",,,,,,,0,,
16997501,128344402X,Vehicle Dynamics and Control,9781283444026,,,,ES,2012/3/6,Springer,,true,11,6111239,8,0,0,0,2005/10/1,,,0,0,0,0,0,0.00,516,ebook,,0,0,Rajesh Rajamani,,,,,,3,0,1,
16998001,1283449064,"New Carbon Economy: Constitution, Governance and Contestation",9781283449069,,,,ES,2012/2/13,Wiley-Blackwell,,true,7,14379547,4,3,1,0,2012/1/17,,book,0,0,1,0,0,3.00,276,ebook,,0,0,,,,"Emily Boyd,Maxwell T. Boykoff,Peter  Newell",,,1,0,,
16998501,1283455633,Old Italian School of Singing: A Theoretical and Practical Guide,9781283455633,,,,ES,2012/3/23,McFarland & Company,,true,2,16998501,8,10,2,0,2012/1/26,,,2,0,0,0,0,5.00,220,ebook,,1,0,Daniela Bloem-Hubatka,,,,,,6,0,,
16999001,1283461404,Manual of Panic-Focused Psychodynamic Psychotherapy,9781283461405,,,,ES,2013/1/18,Routledge,,true,8,11435171,14,18,4,0,2011/9/1,,,2,2,0,0,0,4.50,233,ebook,,0,0,"Andrew C. Aronson,Barbara L. Milrod,Fredric N. Busch,Meriamne B. Singer",,,,,,7,0,2,
16999501,1283466678,Warman's American Records,9781283466677,,,,ES,2011/2/28,Krause Publications,,true,2,16999501,0,0,0,0,2011/2/28,,,0,0,0,0,0,0.00,256,ebook,,0,0,Chuck Miller,,,,,,,0,,
17000001,1283472112,Art of Manliness: Classic Skills and Manners for the Modern Man,9781283472111,,,,ES,2009/10/15,How Books,,true,12,6962801,5749,9730,2492,177,2009/9/17,,book,761,942,618,132,39,3.90,288,ebook,,0,0,Brett McKay,,,,,,996,13,593,"health,humor,non-fiction,personal-development,philosophy,psychology,reference,relationships,self-help,social,sociology,unfinished,young-adult"
17000501,1283477394,Neural Information Processing. Models and Applications,9781283477390,,,,ES,2014/5/10,Springer,,true,3,17000501,0,0,0,0,2011/1/4,,,0,0,0,0,0,0.00,763,ebook,,0,0,,,,"Abdesselam Bouzerdoum,B Sumudu Mendis,Kevin K.W. Wong",,,,0,,
17001001,128348255X,What Would the Buddha Recycle?: The Zen of Green Living,9781283482554,,,,ES,2014/5/10,Adams Media Corporation,,true,6,6224374,39,42,13,4,2009/1/1,What Would the Buddha Recycle?: The Zen of Green Living,,2,3,6,0,2,3.23,224,ebook,,0,0,Rosemary Roberts,,,,,,18,0,,"non-fiction,psychology,reference,spirituality,unfinished"
17001501,1283487861,All about Droughts (Basic Meteorological Phenomena),9781283487863,,,,ES,2012/1/1,Orange Apple,,true,1,17001501,1,0,0,0,2012/1/1,,,0,0,0,0,0,0.00,89,ebook,,0,0,Santos Frank,,,,,,1,0,,
17002001,1283492873,Evolution of Vertebrates,9781283492874,,,,ES,2012/1/1,Research World,,true,1,17002001,0,0,0,0,2012/1/1,,,0,0,0,0,0,0.00,112,ebook,,0,0,Lisette Solano,,,,,,,0,,
17002501,1283497867,Observational Astronomy,9781283497862,,,,ES,2012/1/1,University Publishers,,true,1,17002501,0,0,0,0,2012/1/1,,,0,0,0,0,0,0.00,102,ebook,,0,0,Gertude Fannin,,,,,,,0,,
17003001,1283502852,Fisheries Science,9781283502856,,,,ES,2012/1/1,White Word Publications,,true,1,17003001,0,0,0,0,2012/1/1,,,0,0,0,0,0,0.00,99,ebook,,0,0,Chester Isbell,,,,,,,0,,
17003501,1283507897,Encyclopedia of Water Sports,9781283507899,,,,ES,2012/1/1,English Press,,true,1,17003501,0,0,0,0,2012/1/1,,,0,0,0,0,0,0.00,131,ebook,,0,0,Ona Ragsdale,,,,,,,0,,
17004001,1283512998,Bidder Participation and Information in Currency Auctions,9781283512992,,,,ES,2005/8/1,International Monetary Fund,,true,2,16485469,0,0,0,0,2005/8/1,,,0,0,0,0,0,0.00,47,ebook,,0,0,Rafael Romeu,,,,,,,0,,
17004501,1283518929,Measuring Disinflation Credibility in Emerging Markets: A Bayesian Approach with an Application to Turkey,9781283518925,,,,ES,2014/5/9,International Monetary Fund,,true,2,17004501,0,0,0,0,2004/11/1,,,0,0,0,0,0,0.00,15,ebook,,0,0,Alessandro Rebucci,,,,,,,0,,
17005001,1283524686,Six Types of Teachers,9781283524681,,,,ES,2004/9/22,Eye on Education,,true,7,1914918,24,39,10,2,2004/8/30,"Six Types Of Teachers: Recruiting, Retaining, And Mentoring The Best",book,3,3,4,0,0,3.90,178,ebook,,0,0,"Douglas J. Fiore,Todd Whitaker",,,,,,8,1,,education
17005501,1283530139,"Urdu for Children, Book II, Let's Read Urdu, Part One: Let's Read Urdu, Part I",9781283530132,,,,ES,2014/5/9,McGill-Queen's University Press,,true,2,16487070,0,0,0,0,2004/9/14,,,0,0,0,0,0,0.00,93,ebook,,0,0,Sajida Alvi,,,,,,,0,,
17006001,1283539942,End of the West: The Once and Future Europe (Revised),9781283539944,,,,ES,2012/1/1,Princeton University Press,,true,9,11161775,68,94,27,2,2011/3/21,,,2,11,12,2,0,3.48,233,ebook,,0,0,David Marquand,,,,,,26,1,,"grad-school,history,non-fiction,politics"
17006501,1283547864,Towards a Comprehensive Theory of Human Learning,9781283547864,,,,ES,2014/5/10,Routledge,,true,8,1669926,33,54,15,3,2005/12/1,Towards a Comprehensive Theory of Human Learning (Lifelong Learning and the Learning Society),,3,6,4,1,1,3.60,235,ebook,,0,0,Peter Jarvis,,,,,,10,0,3,"academic,education,non-fiction"
17007001,1283560836,"Business Cycle Fluctuations, Large Shocks, and Development Aid: New Evidence",9781283560832,,,,ES,2014/5/9,International Monetary Fund,,true,2,16579321,0,0,0,0,2010/10/1,,,0,0,0,0,0,0.00,41,ebook,,0,0,Camelia Minoiu,,,,,,,0,,
17007501,1283574551,A Bibliographical Guide to Old Frisian Studies,9781283574556,,,,ES,1992/1/1,John Benjamins Publishing Co,,true,4,17007501,0,0,0,0,1992/1/1,,,0,0,0,0,0,0.00,214,ebook,,0,0,Rolf H. Bremmer Jr.,,,,,,,0,,
17008001,1283580519,Palliative Care in the Acute Hospital Setting: A Practical Guide,9781283580519,,,,ES,2014/5/10,"Oxford University Press, USA",,true,3,17008001,1,0,0,0,2009/10/22,,,0,0,0,0,0,0.00,184,ebook,,0,0,"Polly Edmonds,Sara Booth",,,,,,1,0,,
17008501,1283585642,Disability in Eighteenth-Century England: Imagining Physical Impairment,9781283585644,,,,ES,2012/9/5,Routledge,,true,8,13717519,8,14,3,0,2012/1/1,,,2,1,0,0,0,4.67,229,ebook,,0,0,David M. Turner,,,,,,3,0,,history
17009001,1283590859,Activities for Successful Spelling: The Essential Guide,9781283590853,,,,ES,2014/5/10,Routledge,,true,4,17009001,0,0,0,0,2012/1/1,,,0,0,0,0,0,0.00,417,ebook,,0,0,Philomena Ott,,,,,,,0,,
17009501,1283598256,Winter Blues,9781283598255,,,,ES,2012/10/23,Guilford Publications,,true,15,685532,421,773,198,31,1993/10/1,Winter Blues: Everything You Need to Know to Beat Seasonal Affective Disorder,book,52,88,48,7,3,3.90,,ebook,Fourth Edition,0,0,Norman E. Rosenthal,,,,,,158,12,18,"health,inspirational,medical,mental-health,mental-illness,non-fiction,psychology,reference,self-help"
17010001,1283604671,Introduction to Psychotherapy: An Outline of Psychodynamic Principles and Practice,9781283604673,,,,ES,2014/5/10,Routledge,,true,21,1194800,66,102,28,1,1979/1/1,Introduction to Psychotherapy: An Outline of Psychodynamic Principles and Practice,book,5,12,8,2,1,3.64,284,ebook,,0,0,"Anthony Bateman,Dennis Brown,Jonathon Pedder",,,,,,30,0,4,"mental-health,psychology"
17010501,1283610000,Narrating the Catastrophe,9781283610001,,,,ES,2012/9/19,Intellect (UK),,true,4,17010501,0,0,0,0,2012/1/8,,,0,0,0,0,0,0.00,226,ebook,,0,0,Jac Saorsa,,,,,,,0,,
17011001,1283618923,Investigating Biological Systems Using Modeling,9781283618922,,,,ES,2014/5/10,Academic Press,,true,1,17011001,0,0,0,0,1998/1/1,,,0,0,0,0,0,0.00,401,ebook,,0,0,"Blossom H Patterson,Meryl E Wastney,Oscar A Linares,Peter C Greif,Raymond C Boston",,,,,,,0,,
17011501,1283629038,Teachers Go to Rehab,9781283629034,,,,ES,2013/3/19,R & L Education,,true,5,16687961,0,0,0,0,2012/9/1,,,0,0,0,0,0,0.00,173,ebook,,0,0,Gerard Giordano,,,,,,,0,,
17012001,1283639572,Pressure Vessels Field Manual,9781283639576,,,,ES,2012/1/1,Gulf Professional Publishing,,true,2,16715476,0,0,0,0,2012/11/26,,,0,0,0,0,0,0.00,499,ebook,,0,0,"Maurice I. Stewart,Oran T Lewis",,,,,,,0,,
17012501,1283645653,Applied and Workforce Baccalaureates,9781283645652,,,,ES,2014/5/9,Jossey-Bass,,true,3,17012501,0,0,0,0,2012/9/25,,,0,0,0,0,0,0.00,114,ebook,,0,0,,,,Rivka A. Felsher,,,,0,,
17013001,1283650711,"Deportation and Exile: Poles in the Soviet Union, 1939-48",9781283650717,,,,ES,2014/5/9,Palgrave MacMillan,,true,7,23033712,4,4,1,1,1994/1/1,,,0,1,0,0,0,4.00,285,ebook,,0,0,Keith Sword,,,,,,1,0,1,
17013501,1283655756,The Innocent,9781283655750,,,,ES,2013/9/25,J. S. Sanders and Company,,true,4,3396253,25,25,6,0,1993/1/25,The Innocent (Southern Classics),,2,3,1,0,0,4.17,384,ebook,,0,0,Madison Jones,,,,,,2,1,,"fiction,novels"
17014001,0143529099,The South African Story with Archbishop Desmond Tutu,9780143529095,,,,ES,2012/10/1,Sa Penguin,,true,2,17014001,1,0,0,0,2012/10/1,,,0,0,0,0,0,0.00,,ebook,,0,0,Oryx Media,,,,,,,0,1,
17014501,0596517564,Security Power Tools,9780596517564,,,,ES,2007/8/27,O'Reilly Media,,true,5,1032545,93,115,30,0,2007/8/27,Security Power Tools,,8,13,6,2,1,3.83,856,ebook,,0,0,"Bryan Burns,Dave Killion,Nicolas Beauchesne",,,,,,42,3,7,"business,technology"
17015001,,The Reluctant Guardian: Signet Regency Romance (Intermix),,B007P7I2X8,,,ES,2012/6/12,Intermix,en-GB,true,7,2430790,36,57,18,1,1999/12/1,The Reluctant Guardian,book,2,6,5,3,2,3.17,,Kindle Edition,,6,0,Jo Manning,,,,,,12,2,1,"regency,romance"
17015501,1134642490,Global Ethics and Environment,9781134642496,,,,ES,2002/9/11,Routledge,,true,8,4762716,4,4,1,0,1999/9/23,Global Ethics and the Environment,,0,1,0,0,0,4.00,336,ebook,,0,0,,,,Nicholas Low,,,2,0,,
17016001,1135367736,"Women in Early Modern England, 1500-1700",9781135367732,,,,ES,2005/8/8,Routledge,,true,6,17016000,3,6,2,0,2005/8/8,,,0,0,2,0,0,3.00,144,ebook,,0,0,Jacqueline Eales,,,,,,,1,,history
17016501,1136479872,"Instructional Design: International Perspectives: Volume I: Theory, Research, and Models: Volume II: Solving Instructional Design Problems",9781136479878,,,,ES,2014/9/11,Routledge,,true,6,17543489,0,0,0,0,1997/8/1,,,0,0,0,0,0,0.00,496,ebook,,0,0,,,,"Franz Schott,Norbert Seel,Sanne Dijkstra",,,,0,,
17017001,1440537194,Knock 'em Dead 2013: The Ultimate Job Search Guide,9781440537196,,,,ES,2014/5/27,Adams Media Corporation,,true,48,26073977,1315,1710,432,52,1958/8/15,"Knock 'em Dead, 2008: The Ultimate Job Search Guide (Knock 'em Dead)",book,154,148,96,26,8,3.96,686,ebook,,0,0,Martin Yate,,,,,,581,17,128,"art,business,non-fiction,personal-development,reference,self-help"
17017501,1449338895,"Introducing Regular Expressions: Unraveling Regular Expressions, Step-By-Step",9781449338893,,,,ES,2012/7/10,O'Reilly Media,eng,true,23,13285877,219,326,85,13,2012/1/1,,book,19,37,25,4,0,3.84,154,ebook,,0,0,Michael J.  Fitzgerald,,,,,,78,7,35,"amazon,non-fiction,reference,science,technology"
17018001,1460309103,A NASCAR Holiday 3,9781460309100,,,,ES,2012/11/1,Harlequin NASCAR,eng,true,7,3728866,473,754,192,17,2008/10/23,A NASCAR Holiday 3,book,69,57,50,15,1,3.93,384,ebook,Harlequin NASCAR,2,0,"Brenda Jackson,Jean Brashear,Liz Allison,Marisa Carroll,Wendy Etherington",,,,,,209,7,5,"adult,anthologies,christmas,contemporary,fiction,harlequin,holiday,love-story,romance,short-stories,sports"
17018501,1590209559,Harry's Game: A Thriller,9781590209554,,,,ES,2007/6/1,Overlook,,true,3,156060,1733,3982,975,72,1975/9/1,Harry's Game,book,346,426,159,27,17,4.08,304,ebook,,0,0,Gerald Seymour,,,,,,523,16,35,"action,crime,fiction,film,historical,historical-fiction,history,holiday,mystery,mystery-thriller,novels,politics,suspense,thriller,young-adult"
17019001,184970256X,Blood of Aenarion,9781849702560,,,,ES,2012/11/1,Black Library,,false,8,11958734,887,1253,306,21,2011/11/29,,book,117,118,57,11,3,4.09,410,Paperback,,2,0,William King,,,,,,490,17,11,"fantasy,fiction,high-fantasy,new-adult,science-fiction"
17019501,5511776343,Rukieten,9785511776347,,,,ES,2012/4/8,Book on Demand Ltd.,,false,1,17019501,0,0,0,0,2012/4/8,,,0,0,0,0,0,0.00,328,Paperback,,0,0,,,,"Jesse Russell,Ronald Cohn",,,,0,,
17020001,5511795488,Q-Zar,9785511795485,,,,ES,2013/1/7,Book on Demand Ltd.,,false,1,17020001,0,0,0,0,2012/3/15,,,0,0,0,0,0,0.00,154,Paperback,,0,0,,,,"Jesse Russell,Ronald Cohn",,,,0,,
17020501,5511819468,"Sugar Creek Township, Wayne County, Ohio",9785511819464,,,,ES,2012/5/7,Book on Demand Ltd.,,false,1,17020501,0,0,0,0,2012/5/7,,,0,0,0,0,0,0.00,174,Paperback,,0,0,,,,"Jesse Russell,Ronald Cohn",,,,0,,
17021001,5511844438,Van's Aircraft Rv-4,9785511844435,,,,ES,2012/8/7,Book on Demand Ltd.,,false,1,17021001,0,0,0,0,2012/8/7,,,0,0,0,0,0,0.00,170,Paperback,,0,0,,,,"Jesse Russell,Ronald Cohn",,,,0,,
17021501,5511866504,HMS Onyx (S21),9785511866505,,,,ES,2012/5/17,Book on Demand Ltd.,,false,1,17021501,0,0,0,0,2012/5/17,,,0,0,0,0,0,0.00,106,Paperback,,0,0,,,,"Jesse Russell,Ronald Cohn",,,,0,,
17022001,5511889253,Togo Palazzi,9785511889252,,,,ES,2012/7/2,Book on Demand Ltd.,,false,1,17022001,0,0,0,0,2012/7/2,,,0,0,0,0,0,0.00,170,Paperback,,0,0,,,,"Jesse Russell,Ronald Cohn",,,,0,,
17022501,5511911712,USS S-32 (Ss-137),9785511911717,,,,ES,2013/1/30,Book on Demand Ltd.,,false,1,17022501,0,0,0,0,2012/9/29,,,0,0,0,0,0,0.00,168,Paperback,,0,0,,,,"Jesse Russell,Ronald Cohn",,,,0,,
17023001,5511931497,"Russia, Ohio",9785511931494,,,,ES,2012/4/6,Book on Demand Ltd.,,false,1,17023001,0,0,0,0,2012/4/6,,,0,0,0,0,0,0.00,170,Paperback,,0,0,,,,"Jesse Russell,Ronald Cohn",,,,0,,
17023501,5511955957,Avaya Communication Servers,9785511955957,,,,ES,2012/7/8,Book on Demand Ltd.,,false,1,17023501,1,0,0,0,2012/7/8,,,0,0,0,0,0,0.00,166,Paperback,,0,0,,,,"Jesse Russell,Ronald Cohn",,,1,0,,
17024001,5511977691,Tom Kent,9785511977690,,,,ES,2012/1/15,Book on Demand Ltd.,,false,1,17024001,1,0,0,0,2012/1/15,,,0,0,0,0,0,0.00,152,Paperback,,0,0,,,,"Jesse Russell,Ronald Cohn",,,,0,,
17024501,5511999423,Pacific Global Bank,9785511999425,,,,ES,2012/3/28,Book on Demand Ltd.,,false,1,17024501,0,0,0,0,2012/3/28,,,0,0,0,0,0,0.00,210,Paperback,,0,0,,,,"Jesse Russell,Ronald Cohn",,,,0,,
17025001,5512021575,Poborz,9785512021576,,,,ES,2012/5/25,Book on Demand Ltd.,,false,1,17025001,0,0,0,0,2012/5/25,,,0,0,0,0,0,0.00,164,Paperback,,0,0,,,,"Jesse Russell,Ronald Cohn",,,,0,,
17025501,5512469800,Raful Neal,9785512469804,,,,ES,2013/1/23,Book on Demand Ltd.,,false,1,17025501,0,0,0,0,2012/5/8,,,0,0,0,0,0,0.00,184,Paperback,,0,0,,,,"Jesse Russell,Ronald Cohn",,,,0,,
17026001,5512481681,Scolecodont,9785512481684,,,,ES,2012/3/13,Book on Demand Ltd.,,false,1,17026001,0,0,0,0,2012/3/13,,,0,0,0,0,0,0.00,86,Paperback,,0,0,,,,"Jesse Russell,Ronald Cohn",,,,0,,
17026501,5512634720,Diego Arismendi,9785512634721,,,,ES,2012/3/2,Book on Demand Ltd.,,false,1,17026501,0,0,0,0,2012/3/2,,,0,0,0,0,0,0.00,132,Paperback,,0,0,,,,"Jesse Russell,Ronald Cohn",,,,0,,
17027001,9881841909,Ancient China Cities,9789881841902,,,,ES,2013/5/1,Make Do Publishing,,false,1,17027001,0,0,0,0,2013/5/1,,,0,0,0,0,0,0.00,257,Paperback,,0,0,,,,Make-Do Publishing,,,,0,,
17027501,0203066561,The Capacity for Ethical Conduct: On Psychic Existence and the Way We Relate to Others,9780203066560,,,,ES,2013/2/1,Routledge,,false,6,17809248,3,0,0,0,2013/2/1,,,0,0,0,0,0,0.00,,Unknown Binding,,0,0,David P. Levine,,,,,,3,0,,
17028001,0470308168,Culinary Artistry,9780470308165,,,,ES,2008/4/21,John Wiley & Sons,,true,6,767390,3878,7579,1764,40,1996/10/21,Culinary Artistry,,954,486,241,59,24,4.30,448,ebook,,0,0,"Andrew Dornenburg,Karen Page",,,,,,1933,12,47,"business,cookbooks,cooking,food,non-fiction,reference"
17028501,0752477137,In the Shadow of the Titanic: Merchant Ships Lost with Greater Fatalities,9780752477138,,,,ES,2014/5/27,History Press (SC),,true,4,13336507,13,6,2,0,2012/10/1,,book,0,0,2,0,0,3.00,173,ebook,,0,0,David L. Williams,,,,,,4,0,,non-fiction
17029001,0763787027,Characteristics of Compassion: Portraits of Exemplary Physicians,9780763787028,,,,ES,2009/9/29,Jones & Bartlett Publishers,,true,1,17029001,1,0,0,0,2009/9/29,,,0,0,0,0,0,0.00,277,ebook,,0,0,Helen Meldrum,,,,,,1,0,,
17029501,0773562753,Poetics of Place: The Poetry of Ralph Gustafson,9780773562752,,,,ES,1990/12/1,McGill-Queen's University Press,,true,3,1446247,2,0,0,0,1990/12/1,A Poetics of Place: The Poetry of Ralph Gustafson,,0,0,0,0,0,0.00,352,ebook,,0,0,Dermot McCarthy,,,,,,2,0,,
17030001,0773568573,Damned Women: Lesbians in French Novel,9780773568570,,,,ES,2000/9/1,McGill-Queen's University Press,,true,3,941607,13,9,2,1,2000/8/24,Damned Women: Lesbians in French Novels 179601996,,1,1,0,0,0,4.50,284,ebook,,0,0,Jennifer R. Waelti-Walters,,,,,,10,5,,"lgbt,non-fiction"
17030501,077357557X,"Innovation, Science, Environment: Canadian Policies and Performance, 2006-2007",9780773575578,,,,ES,2014/6/22,McGill-Queen's University Press,,true,4,13238026,0,0,0,0,2006/2/14,,,0,0,0,0,0,0.00,256,ebook,,0,0,G. Bruce Doern,,,,,,,0,,
17031001,0773584110,"Cross of Gold: Money and the Canadian Business Cycle, 1867-1913",9780773584112,,,,ES,1988/1/1,McGill-Queen's University Press,,true,1,17031001,0,0,0,0,1988/1/15,,,0,0,0,0,0,0.00,306,ebook,,0,0,Georg Rich,,,,,,,0,,
17031501,0774822392,Blue-Green Province: The Environment and the Political Economy of Ontario,9780774822398,,,,ES,2012/1/1,UBC Press,,true,4,14881592,2,3,1,0,2012/1/1,,book,0,0,1,0,0,3.00,296,ebook,,0,0,Mark S. Winfield,,,,,,,0,,
17032001,0774844175,"Canadian Yearbook of International Law, Vol 33, 1995",9780774844178,,,,ES,2011/1/1,UBC Press,,true,2,17032001,0,0,0,0,1996/11/1,,,0,0,0,0,0,0.00,526,ebook,,0,0,,,,D.M. McRae,,,,0,,
17032501,0813932939,Polygraphies: Francophone Women Writing Algeria,9780813932934,,,,ES,2012/1/1,University of Virginia Press,,true,4,15863976,11,9,2,1,2012/1/1,,,1,1,0,0,0,4.50,,ebook,,0,0,Alison Rice,,,,,,7,0,,
17033001,0888688385,Introduction to Recovery: A Facilitator S Guide to Effective Early Recovery Groups,9780888688385,,,,ES,1999/3/1,Centre for Addiction and Mental Health,,true,4,17033001,1,0,0,0,1999/3/1,,,0,0,0,0,0,0.00,176,ebook,,0,0,"Michael Dean,Phillip Lange",,,,,,1,0,,
17033501,0983185603,Sportscasting: Turning Your Passion Into a Profession,9780983185604,,,,ES,2010/12/22,Zane Book Publishing,,true,3,9726091,3,4,1,0,2010/8/1,,,0,1,0,0,0,4.00,193,ebook,,0,0,Merrill Reese,,,,,,1,0,,
17034001,1101620811,Harry Houdini: Prince of Air (The Treasure Chest #4),9781101620816,,,,ES,2012/11/1,Grosset & Dunlap,,true,5,13588129,129,166,43,6,2012/8/7,,book,15,12,12,3,1,3.86,192,ebook,,0,0,Ann Hood,,,,,,51,7,1,"chapter-books,fiction,historical-fiction,middle-grade,school"
17034501,1118586484,Mathematics for Informatics and Computer Science,9781118586488,,,,ES,2013/3/1,Wiley-Iste,,true,5,17034501,2,0,0,0,2010/8/31,,,0,0,0,0,0,0.00,914,ebook,,0,0,Pierre Audibert,,,,,,2,0,,
17035001,1400823528,Covenantal Rights: A Study in Jewish Political Theory,9781400823529,,,,ES,2009/11/2,Princeton University Press,eng,true,5,17035001,3,4,1,0,2001/2/1,,book,0,1,0,0,0,4.00,248,ebook,,1,0,David Novak,,,,,,2,0,,
17035501,1400837782,Why?,9781400837786,,,,ES,2012/8/23,Princeton University Press,,true,9,748568,260,255,74,8,2006/1/1,Why?,book,13,26,19,13,3,3.45,224,ebook,,1,0,Charles Tilly,,,,,,144,2,11,"philosophy,politics,psychology,reference,society,sociology"
17036001,1419942263,Felony Hex,9781419942266,,,,ES,2012/10/1,Ellora's Cave,,true,3,17036001,58,48,12,3,2012/10/19,,book,5,2,5,0,0,4.00,,ebook,,9,3,Saranna DeWylde,,,,,,42,2,2,"erotica,paranormal,romance,science-fiction-fantasy"
17036501,142674434X,"Immersion Bible Studies - Colossians, 1 Thessalonians, 2 Thessalonians",9781426744341,,,,ES,2011/8/1,Abingdon Press,,false,2,14322616,3,0,0,0,2011/5/1,,book,0,0,0,0,0,0.00,96,Unknown Binding,,0,0,Lisa R. Withrow,,,,,,1,1,,faith
17037001,1440222304,Best Workbasket,9781440222306,,,,ES,2015/1/14,Krause Publications,,true,3,16999252,1,0,0,0,2011/1/1,,,0,0,0,0,0,0.00,130,ebook,,0,0,,,,Krause Publications,,,1,0,,
17037501,1440231524,Coins of the World: Pobjoy Mint,9781440231520,,,,ES,2011/11/1,Krause Publications,,true,2,17037501,0,0,0,0,2011/11/1,,,0,0,0,0,0,0.00,1985,ebook,,0,0,,,,"George S. Cuhaj,Thomas Michael",,,,0,,
17038001,1440323127,Above the Fold: Understanding the Principles of Successful Web Site Design,9781440323126,,,,ES,2011/2/15,HOW Books,,true,7,9820935,715,1148,285,14,2011/2/1,Above the Fold: Understanding the Principles of Successful Web Site Design,book,89,123,67,4,2,4.03,272,ebook,,3,0,Brian Miller,,,,,,263,11,15,"class,education,inspirational,non-fiction,reference,textbooks"
17038501,1440517274,Your Pregnancy Devotional: 280 Days of Prayer And Inspiration,9781440517273,,,,ES,2006/12/10,Adams Media,,true,5,2305668,65,117,28,1,2006/1/1,Your Pregnancy Devotional: 280 Days of Prayer And Inspiration,,12,11,4,0,1,4.18,320,ebook,,0,0,"Pamela Fierro,Suzie Chafin",,,,,,15,0,16,
17039001,1440530211,"The Everything Eating Clean Cookbook: Includes - Pumpkin Spice Smoothie, Garlic Chicken Stir-Fry, Tex-Mex Tacos, Mediterranean Couscous, Blueberry Almond Crumble...and hundreds more!",9781440530210,,,,ES,2011/11/15,Everything,,true,5,11526358,129,206,59,6,2011/11/15,,,12,17,21,6,3,3.49,304,ebook,,0,0,Britt Brandon,,,,,,26,4,15,"cookbooks,cooking,health,non-fiction,reference"
17039501,1440540926,Asthma: A troubleshooting guide to common childhood ailments,9781440540929,,,,ES,2012/4/1,Adams Media,,true,2,24872966,3,4,1,0,2012/4/1,,,0,1,0,0,0,4.00,100,ebook,,0,0,Adams Media,,,,,,1,0,1,reference
17040001,144635587X,UFOs Caught on Film: Amazing Evidence of Alien Visitors to Earth,9781446355879,,,,ES,2012/7/12,David & Charles Publishers,,true,3,14468611,54,134,37,6,2012/7/12,,,9,10,13,5,0,3.62,160,ebook,,0,0,B.J. Booth,,,,,,10,2,4,"art,non-fiction"
17040501,1447497562,"The Shuttle-Craft Book on American Hand-Weaving - Being an Account of the Rise, Development, Eclipse, and Modern Revival of a National Popular Art, to",9781447497561,,,,ES,2013/4/16,Mason Press,,true,6,6325759,28,49,11,1,1928/1/1,The Shuttle-Craft Book of American Hand-Weaving,book,6,4,1,0,0,4.45,356,ebook,,0,0,Mary Meigs Atwater,,,,,,2,0,1,
17041001,1449613136,Sap(r) R/3(r) Fi Transactions,9781449613136,,,,ES,2010/10/25,Jones & Bartlett Publishers,,true,1,17041001,11,30,6,0,2010/10/25,,,6,0,0,0,0,5.00,530,ebook,,6,0,V. Narayanan,,,,,,9,0,,
17041501,1449647766,Legal and Ethical Issues for Health Professionals,9781449647766,,,,ES,2012/2/8,Jones & Bartlett Publishers,,true,13,14516820,102,128,37,5,2005/6/6,,book,9,13,7,2,6,3.46,425,ebook,,0,0,George D. Pozgar,,,,,,40,0,7,
17042001,1451129572,Canadian Community as Partner: Theory & Multidisciplinary Practice,9781451129571,,,,ES,2011/11/1,Lww,,true,6,10988611,4,2,1,0,2003/11/1,,,0,0,0,1,0,2.00,512,ebook,,0,0,Ardene Robinson Vollman,,,,,,2,0,,
17042501,145115948X,Sapira's Art and Science of Bedside Diagnosis,9781451159486,,,,ES,2012/3/28,LWW,,true,3,2543438,56,56,12,2,2005/4/1,Sapira's Art and Science of Bedside Diagnosis,,8,4,0,0,0,4.67,688,ebook,,1,0,Jane M Orient,,,,,,28,2,2,textbooks
17043001,1451181671,Study Guide for Focus on Nursing Pharmacology,9781451181678,,,,ES,2012/10/1,Lippincott Williams & Wilkins,,true,7,8026697,30,30,7,0,2002/11/1,,,3,3,1,0,0,4.29,240,ebook,,0,0,Amy M. Karch,,,,,,10,0,1,
17043501,1462906311,The Golden Lotus Volume 2: Jin Ping Mei,9781462906314,,,,ES,2014/5/27,Tuttle Publishing,,true,6,11181981,97,86,22,3,1596/1/1,Chin P'ing Mei,book,6,9,6,1,0,3.91,641,ebook,,0,0,Lanling Xiaoxiao Sheng,,,,,,58,4,4,"classics,fiction,historical-fiction,history,literature"
17044001,1469602652,Music from the True Vine: Mike Seeger's Life and Musical Journey,9781469602653,,,,ES,2011/10/24,University of North Carolina Press,,true,6,11069780,38,77,21,4,2011/10/24,,,4,7,9,1,0,3.67,256,ebook,,0,0,Bill C. Malone,,,,,,5,2,,"biography,history,music"
17044501,1472102061,The Mammoth Book of Best New Erotica: Volume 5,9781472102065,,,,ES,2014/5/14,Robinson Publishing,,true,3,17044501,17,13,3,0,2012/6/21,,,2,0,1,0,0,4.33,291,ebook,,2,0,,,,Maxim Jakubowski,,,13,0,2,erotica
17045001,1480184098,Grandpa's Cabin,9781480184091,,,,ES,2012/10/30,Createspace Independent Publishing Platform,,false,1,17045001,0,0,0,0,2012/10/30,,,0,0,0,0,0,0.00,28,Paperback,,0,0,MR Larry L Pegram,,,,,,,0,,
17045501,1559398558,Opening the Door to Bon,9781559398558,,,,ES,2006/2/25,Snow Lion Publications,,true,3,19249905,19,25,6,0,2005/1/1,,,2,3,1,0,0,4.17,144,ebook,,0,0,Nyima Dakpa,,,,,,7,0,5,spirituality
17046001,,Cesta,9789610104711,,,,ES,2008/1/1,Mladinska knjiga,slv,false,198,6288,881775,2500275,631235,42135,2006/9/26,The Road,book,237593,216754,113802,40802,22284,3.96,280,Hardcover,Zbirka Roman,15,4,Cormac McCarthy,,,,Lili Potpara,,4446,600,8473,"adult,adult-fiction,adventure,american,classics,contemporary,dark,drama,dystopia,family,fantasy,fiction,horror,literary-fiction,literature,modern-classics,novels,post-apocalyptic,school,science-fiction,speculative-fiction,survival,suspense,thriller"
17046501,160936564X,Stories of Comfort to Warm the Heart,9781609365646,,,,ES,2012/4/1,GuidepostsBooks,,false,3,17046500,8,9,2,0,2012/4/4,,,1,1,0,0,0,4.50,193,Unknown Binding,,0,0,Guideposts,,,,,,6,0,,
17047001,1618977229,Hope in the Urban Schools: Love Stories,9781618977229,,,,ES,2012/9/19,"Strategic Book Publishing & Rights Agency, LLC",,false,1,17047001,15,30,6,2,2012/9/19,,,6,0,0,0,0,5.00,168,Paperback,,6,2,Cara Churchich-Riggs,,,,,,8,0,1,teaching
17047501,1780494890,Time and Memory,9781780494890,,,,ES,2007/12/31,Karnac Books,,true,5,1546200,8,15,3,0,2007/7/1,,,3,0,0,0,0,5.00,178,ebook,,0,0,,,,Rosine Jozef Perelberg,,,4,0,,
17048001,178099057X,The High Heeled Guide to Enlightenment,9781780990576,,,,ES,2009/9/25,John Hunt Publishing,,true,3,6677881,37,70,16,3,2009/9/25,The High Heeled Guide to Enlightenment,,9,6,0,0,1,4.38,323,ebook,,0,0,Alice Grist,,,,,,19,0,,spirituality
17048501,1846748208,The Edwardian House Explained,9781846748202,,,,ES,2011/11/1,Countryside Books (GB),,true,4,1192170,62,70,17,0,2006/9/29,The Edwardian House Explained (England's Living History),,6,8,2,1,0,4.12,128,ebook,,0,0,Trevor Yorke,,,,,,35,2,2,"history,non-fiction,reference,research"
17049001,184940416X,Infant-Parent Psychotherapy: A Handbook,9781849404167,,,,ES,2014/12/24,Karnac Books,,true,4,17049001,1,5,1,0,2004/12/31,,,1,0,0,0,0,5.00,308,ebook,,1,0,Stella Acquarone,,,,,,,0,,
17049501,1849650780,The Pyrenees: The High Pyrenees from the Cirque de Lescun to the Carlit Massif,9781849650786,,,,ES,2011/3/1,Cicerone Press,,true,3,2415104,8,23,6,0,2004/6/30,The Pyrenees: The High Pyrenees from the Cirque de Lescun to the Carlit Massif (World Mountain Ranges),,1,3,2,0,0,3.83,464,ebook,,0,0,Kev Reynolds,,,,,,2,0,,
17050001,1920545077,Cape to Cairo: One Family's Adventures Along the Waterways of Africa,9781920545079,,,,ES,2012/10/1,Struik Travel & Heritage (Random House Struik),,true,3,6767825,45,86,20,3,2002/11/1,,book,10,7,2,1,0,4.30,208,ebook,,0,0,Kingsley Holgate,,,,,,18,0,2,
17050501,1935603299,"Redefining Efficiency: Pollution Concerns, Regulatory Mechanisms, and Technological Change in the U.S. Petroleum Industry",9781935603290,,,,ES,2010/11/30,University of Akron Press,,true,6,6278475,4,5,1,1,2001/1/1,"Redefining Efficiency: Pollution Concerns, Regulatory Mechanisms, and Technological Change in the U.S. Petroleum Industry (Technology and the Environment)",,1,0,0,0,0,5.00,469,ebook,,0,0,Hugh S. Gorman,,,,,,2,0,,science
17051001,2812307382,Reine Sammut: Mediterranean Cuisine,9782812307386,,,,ES,2013/1/16,Hachette-Livre,,false,1,17051001,0,0,0,0,2012/12/15,,,0,0,0,0,0,0.00,256,Hardcover,,0,0,Jean-Phillippe Garabedian,,,,,,,0,,
17053001,3862671208,Grieg,9783862671205,,,,ES,2011/3/22,Europaischer Literaturverlag,,false,5,17388550,0,0,0,0,2011/3/22,,,0,0,0,0,0,0.00,232,Paperback,,0,0,Richard H Stein,,,,,,,0,,
17053501,8408111272,Kaymon: El perro gorgona,9788408111276,,,,ES,2012/10/1,Destino Ediciones,,false,17,5111346,911,1843,436,11,2008/10/2,"Kaymon The Gorgon Hound (Beast Quest, #16)",book,245,89,67,26,9,4.23,109,Paperback,,0,0,Adam Blade,,,,,,324,8,18,"adventure,childrens,fantasy,fiction,high-fantasy,magic,middle-grade,picture-books,science-fiction-fantasy,young-adult"
17054001,1283706458,Keeper of the Black Stones,9781283706452,,,,ES,2012/10/23,Glass House Press,eng,true,5,10441563,1193,476,111,47,2012/10/23,,book,52,45,11,0,3,4.29,369,ebook,,2,1,P.T. McHugh,,,,,,1033,12,10,"adventure,fantasy,fiction,historical,science-fiction,teen,time-travel,urban-fantasy,war,young-adult"
17054501,1283713675,Informal Teaching and Learning: A Study of Everyday Cognition in a Greek Community,9781283713672,,,,ES,2014/5/10,Routledge,,true,6,1040583,1,4,1,0,1992/1/1,,,0,1,0,0,0,4.00,203,ebook,,0,0,Rosemary C. Henze,,,,,,,0,,
17055001,0233003797,Jaws,9780233003795,,,,ES,2012/11/1,Carlton Publishing Group,,false,31,126232,158382,482740,121671,2936,1973/5/6,Jaws,book,43970,40886,27903,6725,2187,3.97,272,Hardcover,,12,1,Peter Benchley,,,,,,30467,97,754,"action,adult,adult-fiction,adventure,american,animals,classics,contemporary,crime,drama,fiction,horror,literature,movies,mystery,mystery-thriller,novels,science-fiction,suspense,thriller"
17055501,0812201426,"Dangerous to Know: Women, Crime, and Notoriety in the Early Republic",9780812201420,,,,ES,2013/3/26,University of Pennsylvania Press,,true,3,5208229,50,78,20,7,2008/6/27,"Dangerous to Know: Women, Crime, and Notoriety in the Early Republic",,5,10,3,2,0,3.90,200,ebook,,1,0,Susan Branson,,,,,,22,2,1,"american-history,history,murder-mystery,non-fiction"
17056001,0984634452,Нити Судьбы [Niti Sudby],9780984634453,,,,ES,2011/1/1,Aspekt Publishing,rus,false,1,17056001,0,0,0,0,2011/1/1,,book,0,0,0,0,0,0.00,214,Hardcover,,0,0,Анна Шапиро,,,,,,,0,,
17056501,1139797964,The Cambridge Companion to Literature on Screen,9781139797962,,,,ES,2012/10/31,Cambridge University Press,,true,5,641235,300,294,82,3,2007/5/10,The Cambridge Companion to Literature on Screen (Cambridge Companions to Literature),book,16,29,28,5,4,3.59,290,ebook,,0,0,,,,"Deborah Cartmell,Imelda Whelehan",,,189,2,2,"academic,criticism,essays,film,non-fiction,reference"
17057001,1412993156,An Introduction to Intercultural Communication: Identities in a Global Community,9781412993159,,,,ES,2009/6/1,Sage Publications (CA),,true,20,655214,227,253,68,4,2003/7/21,An Introduction to Intercultural Communication: Identities in a Global Community,,16,26,17,9,0,3.72,440,ebook,,0,0,Fred E. Jandt,,,,,,100,1,13,"anthropology,grad-school,reference,teaching"
17057501,1460202457,For Love Nor Love,9781460202456,,,,ES,2012/11/1,FriesenPress,eng,true,4,17057501,5,12,3,1,2012/10/31,,book,1,1,1,0,0,4.00,424,ebook,,2,1,P.M. Rooney,,,,,,2,0,,
17058001,1555538118,Clergy Sexual Abuse: Social Science Perspectives,9781555538118,,,,ES,2013/6/11,Northeastern University Press,,true,5,16291493,0,0,0,0,2013/1/1,,,0,0,0,0,0,0.00,216,ebook,,0,0,,,,"Claire M. Renzetti,Sandra Yocum",,,,0,,
17058501,160994495X,Leapfrogging: Harness the Power of Surprise for Business Breakthroughs,9781609944957,,,,ES,2012/8/6,Berrett-Koehler Publishers,,true,7,13585877,171,209,62,14,2012/1/1,,,7,18,29,7,1,3.37,224,ebook,,0,0,Soren Kaplan,,,,,,88,0,2,"business,leadership,non-fiction"
17059001,1771271868,Her Last Day,9781771271868,,,,ES,2012/12/10,Smashwords Edition,,true,1,17059001,14,34,7,5,2012/10/19,,,6,1,0,0,0,4.86,,ebook,,7,5,"Kat Holmes,L.J. Holmes",,,,,,6,0,,romance
17059501,1908739657,The Glass Night,9781908739650,,,,ES,2012/11/1,Elliott & Thompson,,true,3,9312708,7,16,4,0,2008/1/1,,,1,2,1,0,0,4.00,367,ebook,,0,0,John de Falbe,,,,,,3,0,,
17060001,7770910633,Battles of Destiny 2-In-1 Vol. 3,,,,,ES,2005/10/13,Multnomah Books,,true,6,300418,41,49,11,1,2005/10/13,Battles of Destiny 2-in-1 Vol. 3 (Battles of Destiny Series),book,8,0,3,0,0,4.45,,ebook,,0,0,Al Lacy,,,,,,24,2,,christian-fiction
17060501,0756690366,Hugo: German in Three Months,9780756690366,,,,ES,2011/8/15,DK Publishing (Dorling Kindersley),,false,16,1752483,127,93,24,3,1969/1/1,German in Three Months (Hugo),,7,9,6,2,0,3.88,272,Paperback,,0,0,"DK Publishing,Sigrid-B. Martin",,,,,,59,0,12,"non-fiction,reference"
17061001,1415904065,Dirty Sally,9781415904060,,,,ES,2004/7/27,Books on Tape,,false,10,122175,196,376,114,17,2004/7/22,Dirty Sally,book,15,30,48,16,5,3.30,,Audio CD,,0,0,Michael Simon,,,,,,44,4,4,"crime,fiction,mystery,mystery-thriller,thriller"
17061501,0393935310,An Introduction to America's Music,9780393935318,,,,ES,2013/9/30,W. W. Norton & Company,,false,6,1314144,66,116,30,0,2000/9/1,An Introduction to America's Music,,9,13,5,1,2,3.87,624,Paperback,,4,0,"Larry Hamberlin,Richard Crawford",,,,,,21,3,1,"college,historical,music,non-fiction,reference"
17062001,0739170643,"Cartographies of Transnationalism in Postcolonial Feminisms: Geography, Culture, Identity, Politics",9780739170649,,,,ES,2012/11/8,Lexington Books,,true,2,17062001,7,0,0,1,2012/11/8,,,0,0,0,0,0,0.00,212,ebook,,0,0,Jamil Khader,,,,,,5,0,,
17062501,095730580X,Sodadi - A Comadre Do Cao,9780957305809,,,,ES,2012/10/1,Bank House Books,,false,1,17062501,1,0,0,0,2012/10/2,,,0,0,0,0,0,0.00,308,Paperback,,0,0,Helio Bandeira,,,,,,1,0,,
17063001,1118600231,Concepts of Combinatorial Optimization,9781118600238,,,,ES,2012/12/27,Wiley-Iste,,true,1,17063001,0,0,0,0,2012/12/27,,,0,0,0,0,0,0.00,368,ebook,,0,0,,,,Vangelis Th Paschos,,,,0,,
17063501,1427190496,The Sahara Desert,9781427190499,,,,ES,2012/11/1,Crabtree Publishing Company,,false,4,13781913,16,17,5,3,2012/9/15,,,0,4,0,0,1,3.40,,Unknown Binding,,0,0,Molly Aloian,,,,,,6,0,,
17064001,1455861057,"The Last Girl (Maeve Kerrigan, #3)",9781455861057,,,,ES,2013/5/21,Brilliance Audio,eng,false,31,16044986,5855,11026,2826,256,2012/1/1,The Last Girl,book,653,1368,699,86,20,3.90,,Audio CD,,0,0,Jane Casey,,,,,,2327,50,56,"adult,adult-fiction,contemporary,crime,detective,fiction,mystery,mystery-thriller,novels,suspense,thriller"
17064501,1470845415,The Fun Stuff,9781470845414,,,,ES,2013/2/1,Blackstone Audiobooks,eng,false,12,13538977,1338,1395,363,56,2012/10/30,,book,82,172,84,20,5,3.84,,Audio,,1,0,James  Wood,,,,,,439,19,1,"anthologies,art,british-literature,contemporary,criticism,essays,fiction,literature,music,non-fiction,writing"
17065001,1486428029,Arsenic - Unabridged Guide,9781486428021,,,,ES,2012/10/24,Emereo Publishing,,true,2,17065001,0,0,0,0,2012/10/24,,,0,0,0,0,0,0.00,296,ebook,,0,0,Kelly Carl,,,,,,,0,,
17065501,1486433642,The Katherine Heigl Handbook - Everything You Need to Know about Katherine Heigl,9781486433643,,,,ES,2012/10/24,Emereo Publishing,,true,2,17078702,1,0,0,0,2012/10/24,,,0,0,0,0,0,0.00,120,ebook,,0,0,Jerry Winner,,,,,,1,0,,
17066001,1581107498,"Subspecialty Update: Am: Stars: Adolescent Medicine: State of the Art Reviews; Apr 2013, Vol 24, No. 1",9781581107494,,,,ES,2013/4/15,American Academy of Pediatrics,,false,1,17066001,0,0,0,0,2013/4/15,,,0,0,0,0,0,0.00,355,Paperback,,0,0,Donald E. Greydanus,,,,,,,0,,
17066501,1623710138,It's Easier to Reach Heaven Than the End of the Street: A Jerusalem Memoir,9781623710132,,,,ES,2012/11/1,Olive Branch Press,,true,7,1240815,354,436,111,28,2006/1/1,It's Easier to Reach Heaven Than the End of the Street: A Jerusalem Memoir,,32,44,30,5,0,3.93,569,ebook,,1,1,Emma Williams,,,,,,207,11,14,"history,memoir,non-fiction,politics,sociology,survival,unfinished"
17067001,1909178306,Manchester City Cult Heroes: City's Greatest Icons,9781909178304,,,,ES,2012/11/6,Pitch Publishing (Brighton) Ltd,,true,3,15806713,2,10,2,0,2012/11/6,,,2,0,0,0,0,5.00,244,ebook,,0,0,David Clayton,,,,,,,0,,
17067501,365301588X,Testo E Ritmi: Zum Rhythmus in Der Italienischen Sprache,9783653015881,,,,ES,2012/7/23,"Peter Lang Gmbh, Internationaler Verlag Der Wissenschaften",,true,2,17067501,0,0,0,0,2012/7/16,,,0,0,0,0,0,0.00,308,ebook,,0,0,,,,"Elmar Schafroth,Maria Selig",,,,0,,
17068001,6028807699,Sistem Peradilan Pidana: Tinjauan Terhadap Beberapa Perkembangan Hukum Pidana,9786028807692,,,,ES,2012/1/1,Referensi,,false,1,17068001,2,0,0,0,2012/1/1,,,0,0,0,0,0,0.00,280,Hardcover,,0,0,Marwan Effendy,,,,,,1,0,1,
17068501,1283742381,"Against the Closet: Identity, Political Longing, and Black Figuration",9781283742382,,,,ES,2012/11/9,Duke University Press,,true,2,17068501,1,0,0,0,2012/8/21,,,0,0,0,0,0,0.00,215,ebook,,0,0,Aliyyah I Abdur-Rahman,,,,,,1,0,,
17069001,1283754215,"Weg Zur Freiheit, Der: Die Friedensnobelpreistragerin Aus Birma Im Gesprach Mit Alan Clements",9781283754217,,,,ES,2012/11/8,Vandehoeck & Rupprecht,,true,1,17069001,2,10,2,0,2012/4/18,,,2,0,0,0,0,5.00,370,ebook,,2,0,Aung San Kyi,,,,,,,0,,"history,psychology"
17069501,1283765039,The Matthew Broderick Handbook - Everything You Need to Know about Matthew Broderick,9781283765039,,,,ES,2012/1/1,Emereo Publishing,,true,1,17069501,2,2,1,0,2012/10/24,,,0,0,0,1,0,2.00,199,ebook,,1,0,Emily   Smith,,,,,,1,0,,
17070001,0615632637,Allister Cromley's Fairweather Belle      (Bedtime Stories For Grownups To Tell),9780615632636,,,,ES,2012/11/1,S. Portman,eng,false,2,17070001,426,109,26,8,2012/11/15,,book,12,9,4,0,1,4.19,76,Paperback,,22,8,Shane Portman,,,,,,391,4,3,"fiction,short-stories"
17070501,0205884008,Government by the People,9780205884001,,,,ES,2012/12/31,Pearson,eng,false,93,11333852,271,241,73,7,1952/1/1,,book,13,17,28,9,6,3.30,608,Paperback,Brief 2012 Election Edition,5,0,David B. Magleby,,,,,,116,3,11,"college,education,history,non-fiction,politics,reference,school,textbooks"
17071001,038723666X,Millimeter-Wave Integrated Circuits,9780387236667,,,,ES,2005/1/1,Springer Science+Business Media,,true,1,17071001,0,0,0,0,2005/1/1,,,0,0,0,0,0,0.00,268,ebook,,0,0,"Eoin Carey,Sverre Lidholm",,,,,,,0,,
17071501,0547558627,"My Blue Bunny, Bubbit",9780547558622,,,,ES,2014/1/7,Clarion Books,,true,2,17165892,134,348,89,22,2013/11/5,,,23,38,25,3,0,3.91,32,ebook,,0,0,Maggie Smith,,,,,,14,13,,"animals,childrens,family,juvenile,love,picture-books,realistic-fiction"
17072001,0764344412,New England: Four Seasons of Wonder,9780764344411,,,,ES,2013/6/28,Schiffer Publishing,,false,1,17072001,0,0,0,0,2013/6/28,,,0,0,0,0,0,0.00,160,Hardcover,,0,0,Michael J. McCormack,,,,,,,0,,
17072501,0882408690,On Patrol: True Adventures of an Alaska Game Warden,9780882408699,,,,ES,2012/11/15,Alaska Northwest Books,,true,1,17072501,9,27,6,1,2012/11/15,,,3,3,0,0,0,4.50,224,ebook,,6,1,Ray Tremblay,,,,,,2,0,,
17073001,1139786393,"Stellar Evolution Physics: Volume 1, Physical Processes in Stellar Interiors",9781139786393,,,,ES,2012/11/8,Cambridge University Press,,true,6,15940942,5,7,2,0,2012/9/29,,,0,1,1,0,0,3.50,864,ebook,,0,0,Icko Iben Jr.,,,,,,2,0,,
17073501,1419942859,Change of Address,9781419942853,,,,ES,2012/11/1,Ellora's Cave,,true,3,17073501,8,20,6,3,2012/11/8,,book,0,2,4,0,0,3.33,,ebook,,6,3,Kate Dolan,,,,,,2,1,,"christmas,historical,holiday,romance"
17074001,1459710703,When Hell Freezes Over,9781459710702,,,,ES,2006/9/1,Napoleon and Co,eng,true,4,1257591,35,82,23,4,2006/9/1,When Hell Freezes Over,book,5,7,8,2,1,3.57,344,ebook,,0,0,Rick Blechta,,,,,,10,-1,,mystery
17074501,1476518130,World War II Pilots: An Interactive History Adventure,9781476518138,,,,ES,2013/1/1,Capstone Press,,false,7,16242469,233,298,77,15,2013/1/1,,,24,24,26,1,2,3.87,114,Unknown Binding,,0,0,Michael Burgan,,,,,,70,9,48,"adventure,childrens,death,fiction,historical-fiction,history,middle-grade,non-fiction,school,war"
17075001,1557289972,Praise Nothing,9781557289971,,,,ES,2013/2/1,University of Arkansas Press,eng,false,3,17075001,49,106,25,4,2013/2/1,Praise Nothing,book,16,3,2,4,0,4.24,74,Paperback,,25,4,Joshua Robbins,,,,,,19,0,,poetry
17075501,1621474992,Legacy of Honor,9781621474999,,,,ES,2013/1/8,Tate Publishing & Enterprises,,false,2,17075501,16,16,4,1,2013/1/8,,,1,2,1,0,0,4.00,336,Paperback,,4,1,Edward Grant Ries,,,,,,9,0,1,
17076001,1847192920,Quality Assurance for Dynamics Ax-Based Erp Solutions,9781847192929,,,,ES,2008/2/29,Packt Publishing,,true,2,17076001,2,0,0,0,2008/1/1,,,0,0,0,0,0,0.00,168,ebook,,0,0,Anil K. Gupta,,,,,,2,0,,
17076501,1935106511,Arkansas Godfather: The Story of Owney Madden and How He Hijacked Middle America,9781935106517,,,,ES,2013/4/1,Butler Center for Arkansas Studies,,false,2,17076501,50,73,17,4,2013/4/1,,,7,8,2,0,0,4.29,290,Paperback,,13,4,Graham Nown,,,,,,27,0,1,"biography,non-fiction"
17077001,364202372X,"Stressmanagement Fa1/4r Teams in Service, Gewerbe Und Produktion - Ein Ressourcenorientiertes Trainingsmanual",9783642023729,,,,ES,2009/8/1,Springer,,true,1,17077001,0,0,0,0,2009/8/1,,,0,0,0,0,0,0.00,,ebook,,0,0,"Antje Ducki,Christine Busch,Susanne Roscher,Tanja Kalytta",,,,,,,0,,
17077501,3990264494,Das Kleine Leuchte-Ding,9783990264492,,,,ES,2012/10/23,Novum Publishing,,false,1,17077501,0,0,0,0,2012/10/23,,,0,0,0,0,0,0.00,36,Paperback,,0,0,Sandra Hofer,,,,,,,0,,
17078001,,Manual para Jovens Sonhadores,,,,,ES,2012/12/1,Nathalie Trutmann,por,true,1,17078001,80,184,49,2,2012/12/1,Manual para Jovens Sonhadores,book,12,15,20,2,0,3.76,133,ebook,e-book,49,2,Nathalie Trutmann,,,,,,18,1,1,"non-fiction,self-help"
17078501,1283815702,Evenings at Donaldson Manor; Or the Christmas Guest - The Original Classic Edition,9781283815703,,,,ES,2012/1/1,Emereo Publishing,,true,19,6658374,5,3,1,0,1851/1/1,Evenings at Donaldson Manor: Or- The Christmas Guest,book,0,0,1,0,0,3.00,140,ebook,,0,0,Maria Jane McIntosh,,,,,,-1,0,,
17079001,1283820781,Adele (Singer) - Unabridged Guide,9781283820783,,,,ES,2012/1/1,Emereo Publishing,,true,2,17079001,0,0,0,0,2012/10/24,,,0,0,0,0,0,0.00,720,ebook,,0,0,Kevin McCormick,,,,,,,0,,
17079501,1283835339,Wild Rangelands,9781283835336,,,,ES,2014/5/10,Wiley-Blackwell,,true,1,17079501,0,0,0,0,2012/11/6,,,0,0,0,0,0,0.00,450,ebook,,0,0,,,,Richard Kock,,,,0,,
17080001,0231501463,Hollywood's Copyright Wars: From Edison to the Internet,9780231501460,,,,ES,2012/4/10,Columbia University Press,,true,5,13607569,96,94,25,1,2012/4/10,,book,4,11,10,0,0,3.76,304,ebook,,0,0,Peter Decherney,,,,,,48,2,,"business,film,history,movies,non-fiction,politics"
17080501,0596107919,Windows 2000 Pro: The Missing Manual: The Missing Manual,9780596107918,,,,ES,2000/11/1,O'Reilly Media,,true,4,17014533,0,0,0,0,2000/11/1,,,0,0,0,0,0,0.00,458,ebook,,0,0,Sharon Crawford,,,,,,,0,,
17081001,0786563613,Kill Me,9780786563616,,,,ES,2006/3/2,Dutton Books,,true,36,382983,5225,13135,3346,342,2006/3/2,Kill Me,book,992,1403,726,160,65,3.93,352,ebook,,0,0,Stephen White,,,,,,1000,16,65,"adult,adult-fiction,adventure,crime,fiction,murder-mystery,mystery,mystery-thriller,psychology,suspense,thriller"
17081501,0985612282,The Love That Moves Me,9780985612283,,,,ES,2013/3/16,Black Widow Press,,false,1,17081501,18,41,9,1,2013/4/16,,book,7,1,0,1,0,4.56,151,Paperback,,9,1,Marilyn Kallet,,,,,,7,0,,
17082001,111852456X,JavaScript Programming: Pushing the Limits,9781118524565,,,,ES,2013/8/12,Wiley,,false,6,17082001,31,53,14,3,2013/1/1,,,2,8,3,1,0,3.79,404,Paperback,,14,3,Jon Raasch,,,,,,9,1,6,
17082501,1118623045,Radio Resources Management in Wimax: From Theoretical Capacity to System Simulations,9781118623046,,,,ES,2013/3/28,Wiley-Iste,,true,2,17082501,0,0,0,0,2013/1/15,,,0,0,0,0,0,0.00,,ebook,,0,0,,,,"Emmanuelle Vivier,Guillaume Vivier",,,,0,,
17083001,1426725469,Earthy Mysticism: Spirituality for Unspiritual People,9781426725463,,,,ES,2014/9/16,Abingdon Press,,true,6,2596843,97,218,50,12,2008/3/1,Earthy Mysticism: Spirituality for Unspiritual People,,24,20,6,0,0,4.36,122,ebook,,0,0,Tex Sample,,,,,,34,1,3,"religion,school,short-stories,spirituality,supernatural,theology"
17083501,1426764308,The Methodist Experience in America Volume II: Sourcebook,9781426764301,,,,ES,2000/11/1,Abingdon Press,,true,2,18905606,6,10,2,0,2000/11/1,,,2,0,0,0,0,5.00,,ebook,,1,0,"Jean Miller Schmidt,Kenneth E. Rowe,Russell E. Richey",,,,,,3,0,,religion
17084001,1447458524,Grimm's Fairy Tales - With Illustrations by Monro S. Orr,9781447458524,,,,ES,2012/8/6,Pook Press,,false,833,19351490,53775,94836,22986,969,1812/1/1,Grimms Märchen,book,9856,7707,4238,829,356,4.13,334,Hardcover,,1,1,Jacob Grimm,,,,,,20774,110,4166,"adventure,amazon,anthologies,childrens,classic-literature,classics,collections,fairy-tales,fantasy,fiction,horror,juvenile,literature,magic,mythology,non-fiction,reference,romance,short-stories,unfinished,young-adult"
17084501,1457100339,Eloquent JavaScript: A Modern Introduction to Programming,9781457100338,,,,ES,2011/1/1,No Starch Press,,true,22,8910666,6393,7628,1848,153,2010/11/15,,book,717,746,307,60,18,4.13,224,ebook,,5,5,Marijn Haverbeke,,,,,,2905,25,1128,"education,non-fiction,reference,science,technology,textbooks,unfinished"
17085001,1475943636,Walking in the Light: Basic Instructions for Every Believer in Christ,9781475943634,,,,ES,2012/11/28,iUniverse,,false,4,17085000,1,5,1,0,2012/11/28,,,1,0,0,0,0,5.00,134,Hardcover,,0,0,Carl V. McCalman,,,,,,,0,,
17085501,1480211850,Help My Dog's on Twitter: A Dogs Guide to Twitter and Life in General,9781480211858,,,,ES,2012/11/29,Createspace Independent Publishing Platform,,false,1,17085501,4,8,2,0,2012/11/29,,,1,0,1,0,0,4.00,66,Paperback,,2,0,"Harry Spaniel,Heather Nesbitt",,,,,,1,0,1,
17086001,1611631939,Constitutional Limitations of Interviewing and Interrogations in American Policing,9781611631937,,,,ES,2013/5/6,Carolina Academic Press,,false,1,17086001,0,0,0,0,2013/1/1,,,0,0,0,0,0,0.00,141,Paperback,,0,0,Ross Wolf,,,,,,,0,,
17086501,1625580924,The Sorrows of Young Werther,9781625580924,,,,ES,2012/11/1,Start Publishing LLC,,true,1111,16640,124183,238980,65438,3285,1774/9/29,Die Leiden des jungen Werthers,book,16806,21458,17612,6720,2842,3.65,92,ebook,,0,0,Johann Wolfgang von Goethe,,,,,,39269,529,2696,"adult,classic-literature,classics,college,drama,european-literature,fiction,historical,historical-fiction,literary-fiction,literature,love,novels,philosophy,romance,school,tragedy"
17087001,1743171471,Dougy,9781743171479,,,,ES,2013/3/18,Bolinda Audio,,false,12,2263267,438,690,227,24,1993/4/1,Dougy (Uqp Young Adult Fiction),book,30,54,69,43,31,3.04,,Audio CD,,0,0,James Moloney,,,,,,136,16,18,"childrens,fiction,school,young-adult"
17087501,1847698557,"Language Learning, Gender and Desire: Japanese Women on the Move",9781847698551,,,,ES,2013/1/22,Multilingual Matters Limited,,true,7,18534405,7,8,2,1,2012/12/1,,,1,0,1,0,0,4.00,224,ebook,,0,0,Kimie Takahashi,,,,,,2,0,,non-fiction
17088001,3034614659,"Building with Large Clay Blocks: Details, Products, Examples",9783034614658,,,,ES,2013/1/9,Birkhauser,,true,1,17088001,0,0,0,0,2004/1/1,,,0,0,0,0,0,0.00,120,ebook,,0,0,"Christine Peter,Klaus Greilich,Theodor Hugues",,,,,,,0,,
17088501,3110197766,Cognitive Linguistics: Current Applications and Future Perspectives,9783110197761,,,,ES,2008/8/22,Walter de Gruyter,,true,3,15067521,3,0,0,0,2006/1/1,,,0,0,0,0,0,0.00,510,ebook,,0,0,,,,"Francisco J Ruiz De Mendoza Ibaaez,Gitte Kristiansen,Michel Achard,René Dirven",,,3,0,,
17089001,311029074X,Ein Antipode Kants?: Johann August Eberhard Im Spannungsfeld Von Sp�taufkl�rerischer Philosophie Und Theologie,9783110290745,,,,ES,2012/8/31,de Gruyter,,true,5,14676078,0,0,0,0,2012/1/1,,,0,0,0,0,0,0.00,358,ebook,,0,0,,,,"Ernst Stöckmann,Hans-Joachim Kertscher",,,,0,,
17089501,3110945940,Die Modalverben Im Deutschen: Grammatikalisierung Und Polyfunktionalit�t,9783110945942,,,,ES,2012/10/25,de Gruyter,,true,1,17089501,0,0,0,0,1999/1/1,,,0,0,0,0,0,0.00,471,ebook,,0,0,Gabriele Diewald,,,,,,,0,,
17090001,3110986922,Kreuzzugsdichtung,9783110986921,,,,ES,1900/4/1,Walter de Gruyter,ger,false,3,14687062,0,0,0,0,1969/1/1,,book,0,0,0,0,0,0.00,166,Hardcover,,0,0,,,,Ulrich Müller,,,,0,,
17090501,3110995379,"Untersuchungen Zur Fr�hmittelhochdeutschen Metrik Am Beispiel Der ""wiener Genesis""",9783110995374,,,,ES,1900/4/1,Walter de Gruyter,,false,1,17090501,0,0,0,0,1968/1/1,,,0,0,0,0,0,0.00,345,Hardcover,,0,0,Ursula Hennig,,,,,,,0,,
17091001,3111003604,Anorganische Chemie,9783111003603,,,,ES,1958/4/1,de Gruyter,,false,22,17114952,0,0,0,0,1935/1/1,,,0,0,0,0,0,0.00,185,Hardcover,,0,0,Wilhelm Klemm,,,,,,,0,,
17091501,3111009831,"Althochdeutsche Litteratur: Mit Grammatik, �bersetzung Und Erl�uterungen",9783111009834,,,,ES,1900/4/1,Walter de Gruyter,,false,1,17091501,0,0,0,0,1896/1/1,,,0,0,0,0,0,0.00,152,Hardcover,,0,0,,,,Theodor Schauffler,,,,0,,
17092001,3111016323,Von Der Entdeckung Des Sauerstoffs Bis Zur Gegenwart,9783111016320,,,,ES,1955/4/1,de Gruyter,,false,2,17092001,0,0,0,0,1955/1/1,,,0,0,0,0,0,0.00,151,Hardcover,,0,0,Georg Lockemann,,,,,,,0,,
17092501,3111022706,Buddha,9783111022703,,,,ES,1900/4/1,de Gruyter,,false,6,10516765,2,0,0,0,1903/1/1,,,0,0,0,0,0,0.00,131,Hardcover,,0,0,Edmund Hardy,,,,,,1,0,,
17093001,311103108X,"Das Reichsgesetz, Betreffend Die Erwerbs- Und Wirtschaftsgenossenschaften: Erl�uterte Textausgabe Mit Einleitung Und Sachregister",9783111031088,,,,ES,1900/4/1,de Gruyter,,false,6,17113326,0,0,0,0,1936/1/1,,,0,0,0,0,0,0.00,407,Hardcover,,0,0,,,,"Adolf Crecelius,Hans Crüger,Johann Lang,Ludolf Parisius,Ludwig Weidmüller",,,,0,,
17093501,3111037797,Dramatische Werke: Bd. 1,9783111037790,,,,ES,1900/4/1,de Gruyter,,false,77,38283469,98,12,3,0,,,,2,0,0,1,0,4.00,314,Hardcover,,0,0,William Shakespeare,,,"August Wilhelm Schlegel,Ludwig Tieck",,,17,0,,fiction
17094001,3111043819,"Othello: Aus: [dramatische Werke] [shakspeare's Dramatische Werke], [bd. 31]",9783111043814,,,,ES,1850/4/1,de Gruyter,,false,1558,12996,425086,1093079,281453,5331,1603/1/1,"The Tragedy of Othello, The Moor of Venice",book,87074,101680,70243,17804,4652,3.88,148,Hardcover,,3,0,William Shakespeare,,,,,,84090,1780,5196,"adult,british-literature,classic-literature,classics,college,drama,english-literature,fiction,high-school,historical,historical-fiction,literary-fiction,literature,novels,plays,poetry,romance,school,theatre,tragedy"
17094501,3111050076,Parzifal Von Claus Wisse Und Philipp Colin (1331-1336): Eine Erg�nzung Der Dichtung Wolframs Von Eschenbach,9783111050072,,,,ES,1900/4/1,Walter de Gruyter,,false,1,17094501,0,0,0,0,1888/1/1,,,0,0,0,0,0,0.00,949,Hardcover,,0,0,"Claus,Philipp Colin",,,Karl Schorbach,,,,0,,
17095001,3111056317,Diplomatie Und Weltkrieg,9783111056319,,,,ES,1917/4/1,de Gruyter,,false,1,17095001,0,0,0,0,1917/1/1,,,0,0,0,0,0,0.00,635,Hardcover,,0,0,Ernst Müller-Meiningen,,,,,,,0,,
17095501,3111063070,"Der Messias; Dritter Theil: Aus: [s�mmtliche Werke] Klopstock's S�mmtliche Werke, Bd. 3",9783111063072,,,,ES,1900/4/1,de Gruyter,,false,1,17095501,0,0,0,0,1856/1/1,,,0,0,0,0,0,0.00,222,Hardcover,,0,0,Friedrich Gottlieb Klopstock,,,,,,,0,,
17096001,3111070638,"Freiherr Georg Von Derfflinger. F�rst Leopold Von Sachsen-Dessau: Aus: Preu�ische Biografische Denkmale, Theil 1",9783111070636,,,,ES,1900/4/1,de Gruyter,,false,1,17096001,0,0,0,0,1825/1/1,,,0,0,0,0,0,0.00,444,Hardcover,,0,0,Karl August Varnhagen von Ense,,,,,,,0,,
17096501,3111078124,"Predigten ...: Aus: S�mmtliche Werke, 2, 7-10, 2,10 = 6",9783111078120,,,,ES,1900/4/1,de Gruyter,,false,1,17096501,0,0,0,0,1856/1/1,,,0,0,0,0,0,0.00,814,Hardcover,,0,0,Friedrich Schleiermacher,,,,,,,0,,
17097001,3111085848,Ausgewahlte Werke: Bd. 14,9783111085845,,,,ES,1865/1/1,Walter de Gruyter,,false,1,17097001,0,0,0,0,1865/1/1,,book,0,0,0,0,0,0.00,276,Hardcover,,0,0,Jean Paul Friedrich Richter,,,,,,,0,,
17097501,3111092062,Wissenschaft Und Romantik: �ffentliche Sitzung Zur Feier Des Geburtsfestes Sr. Majest�t Des Kaisers Und K�nigs Und Des Jahrestages K�nig Friedrich's II.,9783111092065,,,,ES,1900/4/1,de Gruyter,,false,1,17097501,0,0,0,0,1902/1/1,,,0,0,0,0,0,0.00,,Hardcover,,0,0,Hermann Alexander Diels,,,,,,,0,,
17098001,3111097552,"Ewigkeit: Weltkriegsgedanken �ber Leben Und Tod, Religion Und Entwicklungslehre",9783111097558,,,,ES,1900/4/1,de Gruyter,,false,5,22136405,0,0,0,0,1917/1/1,,,0,0,0,0,0,0.00,128,Hardcover,,0,0,Ernst Haeckel,,,,,,,0,,
17098501,3111103560,Zur Fl�chentopologie: Kurven- Und Abbildungstypen,9783111103563,,,,ES,1900/4/1,de Gruyter,,false,1,17098501,0,0,0,0,1928/1/1,,,0,0,0,0,0,0.00,,Hardcover,,0,0,Reinhold Baer,,,,,,,0,,
17099001,3111109704,"Ausw�rtige Acten; Bd. 4, Teil 2. (Frankreich): 1667 - 1688, Aus: Urkunden Und Actenst�cke Zur Geschichte Des Kurf�rsten Friedrich Wilhelm Von Brandenburg: Auf Veranlassung Seiner K�niglichen Hoheit Des Kronprinzen Von Preu�en, Bd. 20,2",9783111109701,,,,ES,1900/4/1,de Gruyter,,false,1,17099001,0,0,0,0,1911/1/1,,,0,0,0,0,0,0.00,606,Hardcover,,0,0,,,,Ferdinand Fehling,,,,0,,
17099501,3111115267,Proze�f�hrungsrecht Und Rechtskraftserstreckung Bei Bedingten Ver�u�erungen,9783111115269,,,,ES,1900/4/1,de Gruyter,,false,1,17099501,0,0,0,0,1956/1/1,,,0,0,0,0,0,0.00,25,Hardcover,,0,0,Rudolf Pohle,,,,,,,0,,
17100001,3111120694,"Dom [!] Karlos, Infant Von Spanien",9783111120690,,,,ES,1900/4/1,de Gruyter,,false,137,1097271,2194,4511,1297,38,1787/1/1,Don Karlos: Infant von Spanien,book,269,385,398,187,58,3.48,437,Hardcover,,0,0,Friedrich Schiller,,,,,,518,15,14,"adult,classics,drama,fiction,historical-fiction,history,literature,love,novels,plays,poetry,school,theatre,tragedy"
17100501,3111126315,Ueber Das Sogenannte Memnons-Bild Im Brittischen Museum in London: [m. 2 Kupfertaf.],9783111126319,,,,ES,1900/4/1,de Gruyter,,false,1,17100501,0,0,0,0,1822/1/1,,,0,0,0,0,0,0.00,67,Hardcover,,0,0,Georg Heinrich Noehden,,,,,,,0,,
17101001,3111131920,�ber Den Apoll Des Kanachos,9783111131924,,,,ES,1900/4/1,de Gruyter,,false,1,17101001,0,0,0,0,1904/1/1,,,0,0,0,0,0,0.00,,Hardcover,,0,0,Reinhard Kékulé von Stradonitz,,,,,,,0,,
17101501,3111139247,"Reisebericht Der Expedition. Topographie Und Geschichte Aksums: Aus: Deutsche Aksum-Expedition, Bd. 1",9783111139241,,,,ES,1900/4/1,de Gruyter,,false,2,15603062,2,0,0,0,1913/1/1,,,0,0,0,0,0,0.00,70,Hardcover,,0,0,Enno Littmann,,,"K Nigliche Museen,Theodor L Pke",,,,0,,
17102001,3111146677,"Deutscher Dokumentartag 1982, L�beck-Travem�nde Vom 27.9. Bis 30.9.1982: Fachinformation Im Zeitalter Der Informationsindustrie",9783111146676,,,,ES,1900/4/1,de Gruyter,,false,1,17102001,0,0,0,0,1983/1/1,,,0,0,0,0,0,0.00,477,Hardcover,,0,0,,,,Hilde Strohl-Goebel,,,,0,,
17102501,3111154467,"Das Reichsgesetz, Betreffend Die Erwerbs- Und Wirtschaftsgenossenschaften: Kommentar Zum Praktischen Gebrauch F�r Juristen, Genossenschaften Und Ihre Mitglieder",9783111154466,,,,ES,1900/4/1,de Gruyter,,false,1,17102501,0,0,0,0,1932/1/1,,,0,0,0,0,0,0.00,676,Hardcover,,0,0,,,,"Adolf Crecelius,Fritz [Bearb ] Citron,Hans Crüger,Ludolf Parisius",,,,0,,
17103001,3111160807,Deutsche Reichs-Gewerbe-Ordnung: . Nebst Den Vom Bundesrath Beschlossenen Ausf�hrungs-Bestimmungen. Text-Ausg. Mit Anm. U. Sachreg. Von T. Ph. Berger [d.I. Arnold Nieberding],9783111160801,,,,ES,1900/4/1,de Gruyter,,false,1,17103001,0,0,0,0,1872/1/1,,,0,0,0,0,0,0.00,223,Hardcover,,0,0,,,,T. Ph Berger,,,,0,,
17103501,3111167070,Anthropologie �conomique Des Gouro de C�te D' Ivoire. de L' �conomie de Subsistance � L' Agriculture Commerciale,9783111167077,,,,ES,1900/4/1,Walter de Gruyter,,false,2,17103501,0,0,0,0,1970/1/1,,,0,0,0,0,0,0.00,382,Hardcover,,0,0,Claude Meillassoux,,,,,,,0,,
17104001,3111173356,Hamitische Typen,9783111173351,,,,ES,1900/4/1,de Gruyter,,false,1,17104001,0,0,0,0,1912/1/1,,,0,0,0,0,0,0.00,,Hardcover,,0,0,Felix von Luschan,,,,,,,0,,
17104501,3111179621,"Aeschyli Choephori: Aus: [tragoediae] Aeschyli Quae Supersunt Tragoediae, Vol. 1, Sect. 2",9783111179629,,,,ES,1900/4/1,de Gruyter,,false,102,6251772,3302,6586,1731,85,-458/1/1,Χοηφόροι,book,485,603,496,114,33,3.80,148,Hardcover,,0,0,Aeschylus,,,Henricus Weil,,,1123,15,13,"adult,classics,college,drama,fantasy,fiction,historical,history,literature,mythology,non-fiction,philosophy,plays,poetry,school,theatre,tragedy"
17105001,3111185613,The Reluctant Pessimist: A Study of Franz Kafka,9783111185613,,,,ES,1900/4/1,Walter de Gruyter,,false,1,17105001,0,0,0,0,1967/1/1,,,0,0,0,0,0,0.00,176,Hardcover,,0,0,Albert Peter Foulkes,,,,,,,0,,
17105501,3111192067,Dom Karlos: Infant Von Spanien: 2. Abtheilung,9783111192062,,,,ES,1900/4/1,Walter de Gruyter,,false,3,17095005,0,0,0,0,,,,0,0,0,0,0,0.00,,Hardcover,,0,0,Friedrich Schiller,,,,,,,0,,
17106001,3111198642,"Telegraphen- Und Fernsprechrecht: (mit Ausschlu� Des Internationalen Rechts), Aus: Die Deutsche Post- Und Telegraphengesetzgebung, Teil 2",9783111198644,,,,ES,1900/4/1,de Gruyter,,false,1,17106001,0,0,0,0,1930/1/1,,,0,0,0,0,0,0.00,543,Hardcover,,0,0,,,,"Erich Staedler,Paul D. Fischer",,,,0,,
17106501,3111206408,"Sozialbiologie: Bev�lkerungswissenschaft Und Gesellschaftshygiene, Aus: Handbuch Der Wirtschafts- Und Sozialwissenschaften: In Einzelb�nden, 8",9783111206400,,,,ES,1900/4/1,de Gruyter,,false,1,17106501,0,0,0,0,1923/1/1,,,0,0,0,0,0,0.00,489,Hardcover,,0,0,Alexander Nikolaus Elster,,,"Adolf Günther,Gerhard Kessler",,,,0,,
17107001,3111213331,"de Interioribus Aedium Homericarum Partibus: Aus: de Aedibus Homericis, Pars 2, [1]",9783111213330,,,,ES,1900/4/1,de Gruyter,,false,1,17107001,0,0,0,0,1858/1/1,,,0,0,0,0,0,0.00,27,Hardcover,,0,0,H Rumpf,,,,,,,0,,
17107501,3111219623,Achmet Und Zenide: Ein Schauspiel in F�nf Aufz�gen,9783111219622,,,,ES,1900/4/1,de Gruyter,,false,2,17107501,0,0,0,0,1798/1/1,,,0,0,0,0,0,0.00,152,Hardcover,,0,0,August Wilhelm Iffland,,,,,,,0,,
17108001,3111225437,[s�mmtliche Werke] A. M. Von Thuemmels S�mmtliche Werke: Bd. 1,9783111225432,,,,ES,1900/4/1,de Gruyter,,false,1,17108001,0,0,0,0,1844/1/1,,,0,0,0,0,0,0.00,224,Hardcover,,0,0,Moritz August von Thummel,,,,,,,0,,
17108501,3111231453,Grundsteuergesetz Vom 1. Dezember 1936 Mit Durchf�hrungsbestimmungen: Durch Eine Ausf�hrliche Einf�hrung Erl�uterte Textausgabe: Nachtr.,9783111231457,,,,ES,1900/4/1,de Gruyter,,false,1,17108501,0,0,0,0,1938/1/1,,,0,0,0,0,0,0.00,424,Hardcover,,0,0,,,,Ernst Dziegalowski,,,,0,,
17109001,3111238326,"Licht Und W�rme: Aus: Theoretische Physik, 2",9783111238326,,,,ES,1900/4/1,de Gruyter,,false,3,17092185,0,0,0,0,1898/4/1,,,0,0,0,0,0,0.00,153,Hardcover,,0,0,Gustav Jäger,,,,,,,0,,
17109501,3111246000,"Das Nymphaeum Von Milet: Aus: Milet: Ergebnisse Der Ausgrabungen Und Untersuchungen Seit Dem Jahre 1899, Bd. 1, H. 5, Tafeln",9783111246000,,,,ES,1900/4/1,de Gruyter,,false,1,17109501,0,0,0,0,1919/1/1,,,0,0,0,0,0,0.00,,Hardcover,,0,0,"Julius H Lsen,Julius K Nigliche Museen",,,"Hermann Dessau,Theodor Wiegand,West> Deutsches Arch Ologisches Institut",,,,0,,
17110001,3111253856,"Indogermanische Ablautprobleme: Untersuchungen �ber Schwa Secundum, Einen Zweiten Indogermanischen Murmelvokal",9783111253855,,,,ES,1900/4/1,Walter de Gruyter,,false,1,17110001,0,0,0,0,1916/1/1,,,0,0,0,0,0,0.00,168,Hardcover,,0,0,Hermann Güntert,,,,,,,0,,
17110501,3111260151,Palaion,9783111260150,,,,ES,1853/4/1,de Gruyter,,false,2,17110501,0,0,0,0,1853/1/1,,,0,0,0,0,0,0.00,605,Hardcover,,0,0,A. Lionnet,,,,,,,0,,
17111001,3111266303,"Die Wellentelegraphie Und Wellentelephonie: Lehrbuch F�r Real-, Mittel-, Fortbildungs- Und Berufsschulen Sowie Verwandte Lehranstalten",9783111266305,,,,ES,1926/1/1,Walter de Gruyter,,false,1,17111001,0,0,0,0,1926/1/1,,,0,0,0,0,0,0.00,132,Hardcover,,0,0,M G Weinholz,,,,,,,0,,
17111501,311127263X,"Bericht uber die Abfassung der ""Geschichte der Koniglich Preussischen Akademie der Wissenschaften zu Berlin""",9783111272634,,,,ES,1900/4/1,de Gruyter,ger,false,1,17111501,0,0,0,0,1900/4/1,,book,0,0,0,0,0,0.00,,Hardcover,,0,0,Adolf von Harnack,,,,,,,0,,
17112001,3111278697,"�ber Grossknotige Tumor�hnliche Tuberkulose Der Leber, Wahrscheinlich Kombiniert Mit Syphilis",9783111278698,,,,ES,1900/4/1,de Gruyter,,false,1,17112001,0,0,0,0,1907/1/1,,,0,0,0,0,0,0.00,14,Hardcover,,0,0,Walther Fischer,,,,,,,0,,
17112501,3111285022,Zur Geschichte Des Heidnischen Ritus,9783111285023,,,,ES,1900/4/1,de Gruyter,,false,1,17112501,0,0,0,0,1896/1/1,,,0,0,0,0,0,0.00,,Hardcover,,0,0,Karl Weinhold,,,,,,,0,,
17113001,3111291472,Geschichte Der Griechischen Literatur,9783111291475,,,,ES,1900/4/1,de Gruyter,,false,2,17113001,0,0,0,0,1961/1/1,,,0,0,0,0,0,0.00,144,Hardcover,,0,0,Willhelm Nestle,,,Werner Liebich,,,,0,,
17113501,3111298183,Beschreibung Und Allgemeine Theorie Einer Neuen Wage. Gelesen Den 2. Mai 1805,9783111298184,,,,ES,1900/4/1,de Gruyter,,false,1,17113501,0,0,0,0,1815/1/1,,,0,0,0,0,0,0.00,,Hardcover,,0,0,Johann Georg Tralles,,,,,,,0,,
17114001,3111304043,Lebensf�hrung,9783111304045,,,,ES,1900/4/1,de Gruyter,,false,18,17114001,0,0,0,0,1904/1/1,,,0,0,0,0,0,0.00,321,Hardcover,,0,0,Friedrich Wilhelm Förster,,,,,,,0,,
17114501,3111310558,Spogli Elettronici Dell'italiano Delle Origini E del Duecento: A Linguistic Inventory of Thirteenth-Century Italian,9783111310558,,,,ES,1900/4/1,Walter de Gruyter,,false,2,17114501,0,0,0,0,1968/1/1,,,0,0,0,0,0,0.00,,Hardcover,,0,0,Mario Alinei,,,Alfredo [Ed] Schiaffini,,,,0,,
17115001,3111319431,Die Agada Der Tannaiten Und Amoraer: Bibelstellenregister. Nebst Einem Anhange: Namen-Register Zur Agada Der Babylonischen Amoraer,9783111319438,,,,ES,1902/4/1,Walter de Gruyter,,false,3,17115001,0,0,0,0,1902/1/1,,,0,0,0,0,0,0.00,94,Hardcover,,0,0,Wilhelm Bacher,,,,,,,0,,
17115501,3484502169,Raetia Antiqua Et Moderna: W. Theodor Elwert Zum 80. Geburtstag,9783484502161,,,,ES,1900/4/1,de Gruyter,,false,2,17115501,0,0,0,0,1986/1/1,,,0,0,0,0,0,0.00,660,Hardcover,,0,0,,,,Günter Holtus,,,,0,,
17116001,3598202598,"Deutscher Dokumentartag, 1979, Willingen, Hochsauerland, Vom 1.10.-5.10.1979: Das Iud-Programm Heute, Online-Benutzergruppe, Bisiometrie, Scientometrie, Terminologiearbeit, Datenschutz, Tariffragen, Berufsbilder, Informationsmarkt, Gespr�chskreise",9783598202599,,,,ES,1900/4/1,K.G. Saur Verlag,,false,1,17116001,0,0,0,0,1980/1/1,,,0,0,0,0,0,0.00,594,Hardcover,,0,0,,,,Mathilde von der Laake,,,,0,,
17116501,3764376627,In Gardens: Profiles of Contemporary European Landscape Architecture,9783764376628,,,,ES,2005/5/24,Birkhauser,,true,1,17116501,0,0,0,0,2005/5/24,,,0,0,0,0,0,0.00,183,ebook,,0,0,"Rita Weilacher,Udo Weilacher",,,,,,,0,,
17117001,3865204635,Wem Die Liebe Begegnet,9783865204639,,,,ES,2012/11/2,Ciando,,false,1,17117001,1,0,0,0,2012/11/2,,,0,0,0,0,0,0.00,248,Paperback,,0,0,Heli E Hartleb,,,,,,1,0,,
17117501,8389693224,Kreatywne Przemysy - Kreatywne Aglomeracje =: Creative Industries - Creative Agglomerations,9788389693228,,,,ES,2011/1/1,Komitet Przestrzennego Zagospodarowania Kraju Pan,,false,1,17117501,0,0,0,0,2011/1/1,,,0,0,0,0,0,0.00,157,Hardcover,,0,0,,,Andrzej Klasik,,,,,0,,
17118001,9031349518,Engels - Burgerschap Voor AG,9789031349517,,,,ES,2010/11/2,Springer,,false,1,17118001,0,0,0,0,2010/11/2,,,0,0,0,0,0,0.00,164,Paperback,,0,0,A.N.M. Wiel,,,,,,,0,,
17118501,1283839172,"Type II Uses of Technology in Education: Projects, Case Studies, and Software Applications",9781283839174,,,,ES,2014/5/10,Routledge,,true,6,1595915,2,0,0,0,2006/10/16,"Type II Uses of Technology in Education: Projects, Case Studies, and Software Applications",,0,0,0,0,0,0.00,217,ebook,,0,0,,,,"Cleborne D. Maddux,D. Lamont Johnson",,,1,0,,
17119001,0199992924,"Philosophical Troubles: Collected Papers, Volume 1",9780199992928,,,,ES,2013/5/23,,,false,3,12790568,191,142,33,2,2011/9/22,,book,18,10,3,1,1,4.30,,Paperback,,0,0,Saul A. Kripke,,,,,,48,1,13,"language,non-fiction,philosophy,politics"
17119501,041563752X,Overcoming Masculine Depression: The Pain Behind the Mask,9780415637527,,,,ES,2013/5/15,Routledge,,false,14,81676,26,20,5,1,1999/3/11,The Pain Behind the Mask: Overcoming Masculine Depression,book,1,3,1,0,0,4.00,207,Paperback,,1,0,"Christopher T. Kilmartin,John R.  Lynch",,,,,,17,0,,philosophy
17120001,071819540X,Ladybird Stories for 5 Year Olds,9780718195403,,,,ES,2013/1/1,Penguin UK,,false,2,17120001,23,18,5,0,2013/1/1,,,2,0,2,1,0,3.60,32,Hardcover,,4,0,Ladybird Books,,,,,,11,0,,
17120501,0854901256,"Cases, Causes and Controversies: Fifty Tales from the Law",9780854901258,,,,ES,2012/12/20,"Wildy, Simmonds & Hill Publishing",,false,1,17120501,4,4,2,0,2012/12/1,,,0,0,0,2,0,2.00,250,Hardcover,,2,0,James Wilson,,,,,,2,0,,
17121001,111821465X,Managerial Accounting: Tools for Business Decision Making,9781118214657,,,,ES,2012/4/13,Wiley,eng,true,37,1086256,218,339,97,3,1999/4/19,Managerial Accounting: Tools for Business Decision Making,book,26,24,30,6,11,3.49,768,ebook,Sixth Edition,0,0,Jerry J. Weygandt,,,,,,84,2,4,"business,non-fiction,reference,school,textbooks"
17121501,1136229353,The Role of American NGOs in China's Modernization: Invited Influence,9781136229350,,,,ES,2012/11/27,Routledge,,true,7,18816675,3,3,1,1,2012/8/1,,,0,0,1,0,0,3.00,220,ebook,,0,0,Norton Wheeler,,,,,,2,0,,
17122001,1409400743,Women and Literary Celebrity in the Nineteenth Century: The Transatlantic Production of Fame and Gender,9781409400745,,,,ES,2012/6/1,Ashgate Publishing,,true,6,15063166,4,0,0,0,2012/6/1,,,0,0,0,0,0,0.00,274,ebook,,0,0,Brenda R. Weber,,,,,,3,0,1,
17122501,1439124744,"Hugs for Those in Love GIFT: Stories, Sayings, and Scriptures to Encourage and",9781439124741,,,,ES,,Howard Books,,true,5,336303,42,47,12,0,2000/1/1,"Hugs for Those in Love: Stories, Sayings, and Scriptures to Encourage and Inspire (Hugs Series)",book,6,3,0,2,1,3.92,128,ebook,,0,0,"Lyn  Rose,Ron Rose",,,,,,18,0,,inspirational
17123001,1447484738,How to Make Hats with Fancy and Draped Crowns - A Milliner's Guide,9781447484738,,,,ES,2013/4/16,Lowe Press,,true,3,17123001,4,0,0,0,2011/6/1,,,0,0,0,0,0,0.00,38,ebook,,0,0,Anonymous,,,,,,4,0,,
17123501,1452279748,"Stand Tall Teacher's Manual, Grades 4-6: Lessons That Teach Respect and Prevent Bullying",9781452279749,,,,ES,2012/1/30,Corwin Publishers,,true,2,17123501,0,0,0,0,2012/1/30,,,0,0,0,0,0,0.00,112,ebook,,0,0,Suzanne W Peck,,,,,,,0,,
17124001,1466967846,Concise Ict Fundamentals Volume Two,9781466967847,,,,ES,2012/12/3,Trafford Publishing eBooks,,true,2,17084890,1,0,0,0,2012/11/28,,,0,0,0,0,0,0.00,,ebook,,0,0,Bright Siaw Afriyie,,,,,,1,0,,
17124501,1480501824,Three Sisters,9781480501829,,,,ES,2013/3/22,Brilliance Audio,,false,38,15803746,18550,40505,10280,925,2013/1/1,Three Sisters,book,2980,4300,2494,417,89,3.94,,Audio CD,,1,1,Susan Mallery,,,,,,384,115,678,"adult,adult-fiction,chick-lit,contemporary,drama,family,fiction,novels,realistic-fiction,romance"
17125001,1612053165,"Texting Toward Utopia: Kids, Writing, and Resistance",9781612053165,,,,ES,2013/9/30,Paradigm Publishers,,true,7,17124999,7,0,0,0,2013/5/1,,book,0,0,0,0,0,0.00,192,ebook,,0,0,Ben Agger,,,,,,5,0,,
17125501,178003458X,Trust Me I'm a Doctor,9781780034584,,,,ES,2012/12/17,New Generation Publishing,eng,false,1,17125501,1,0,0,0,2012/12/1,,book,0,0,0,0,0,0.00,162,Paperback,,0,0,Harald J. Copenhagen,,,,,,1,0,,
17126001,1848215339,Multimedia Ontology Driven Architecture for Qos Management in Home Networks,9781848215337,,,,ES,2019/9/18,Wiley-Iste,,false,3,17244979,0,0,0,0,2013/6/10,,,0,0,0,0,0,0.00,192,Hardcover,,0,0,Jorge Ernesto Esposito,,,,,,,0,,
17126501,190818969X,Speak Easy: 52 Brilliant Ideas for Giving Stunning Speeches,9781908189691,,,,ES,2007/4/23,Infinite Ideas,,true,3,17173455,1,2,1,0,2007/4/1,,,0,0,0,1,0,2.00,358,ebook,,0,0,Barry Gibbons,,,,,,,0,,
17127001,3110259974,"Narrative, Interrupted: The Plotless, the Disturbing and the Trivial in Literature",9783110259971,,,,ES,2012/8/31,de Gruyter,,true,5,16699168,8,0,0,0,2012/7/20,,,0,0,0,0,0,0.00,344,ebook,,0,0,,,,"Laura Karttunen,Maria Mäkelä,Markku Lehtimäki",,,8,0,,
17127501,3110944987,"Forward and Inverse Problems for Hyperbolic, Elliptic and Mixed Type Equations",9783110944983,,,,ES,2012/5/24,de Gruyter,,true,1,17127501,0,0,0,0,2003/1/1,,,0,0,0,0,0,0.00,237,ebook,,0,0,Alexander G. Megrabov,,,,,,,0,,
17128001,3848241048,Loslassen - Neues erwarten: Ein Prozess in 12 Tagen,9783848241040,,,,ES,2012/11/21,Books on Demand,,false,2,17128001,0,0,0,0,2012/11/21,,,0,0,0,0,0,0.00,56,Paperback,,0,0,Jörg Schmidt,,,,,,,0,,
17128501,9587610865,Fuentes del Mal,9789587610864,,,,ES,2012/1/1,Universidad del Rosario Facultad de Rehabilitacion y Desarro,,false,1,17128501,1,0,0,0,2012/1/1,,,0,0,0,0,0,0.00,253,Hardcover,,0,0,,,Aangela Uribe,,,,1,0,,
17129001,1283843943,Defences of the Weak (Routledge Revivals): A Sociological Study of a Norwegian Correctional Institution,9781283843942,,,,ES,2012/11/21,Routledge,,true,7,18180701,1,0,0,0,2012/1/1,,,0,0,0,0,0,0.00,264,ebook,,0,0,Thomas Mathiesen,,,,,,1,0,,
17129501,1283851695,The Accidental Orphan,9781283851695,,,,ES,1998/1/1,Dundurn Group (CA),,true,6,2116354,40,68,20,4,1998/3/1,The Accidental Orphan,book,2,7,9,1,1,3.40,140,ebook,,0,0,Constance Horne,,,,,,6,1,2,"fiction,historical-fiction,middle-grade,travel"
17130001,1283860848,Society and Democracy in Europe,9781283860840,,,,ES,2012/12/4,Routledge,,true,6,17534723,0,0,0,0,2012/1/1,,,0,0,0,0,0,0.00,313,ebook,,0,0,,,,"Oscar W. Gabriel,Silke I. Keil",,,,0,,
17130501,,Guidepost to Tomorrow (2),9781300107828,,,,ES,2012/11/1,,eng,false,1,17130501,6,22,6,0,2012/11/1,,book,4,0,0,0,2,3.67,61,,,6,0,Lionel Suggs,,,,,,1,0,,
17131001,,Accord de l'État et droit des Nations Unies,9782110053015,,,,ES,,La Documentation Française,,false,1,17131001,1,0,0,0,,,book,0,0,0,0,0,0.00,,,,0,0,Jean-Francois Marchi,,,,,,,0,,
17131501,1479265071,Opportunity Calls: Chinavare's Find,9781479265077,,,,ES,2012/10/1,Createspace,,false,3,17131501,4,13,3,1,2012/10/3,,book,1,2,0,0,0,4.33,362,Paperback,,2,0,M.A.  Roberts,,,,,,1,0,,
17132501,3861955148,Die hundertjährige Eisenbahn,9783861955146,,,,ES,2011/3/21,Salzwasser-Verlag Gmbh,,false,3,17132501,1,0,0,0,1925/1/1,,book,0,0,0,0,0,0.00,136,Paperback,,0,0,Artur Fürst,,,,,,,0,,
17133001,0132977605,Pottermore Secrets and Mysteries Revealed: The Unofficial Guide to Pottermore.com,9780132977609,,,,ES,2012/12/4,Que,,true,4,13787403,72,50,13,2,2012/7/28,,,6,2,3,1,1,3.85,159,ebook,,0,0,Jason R. Rich,,,,,,45,0,4,"fantasy,literature"
17133501,0415838274,Iran's Struggle for Economic Independence: Reform and Counter-Reform in the Post-Revolutionary Era,9780415838276,,,,ES,2013/3/7,Routledge,,false,8,17860085,52,27,7,0,2011/4/25,,book,1,4,2,0,0,3.86,240,Paperback,,1,0,Evaleila Pesaran,,,,,,39,0,,"economics,politics"
17134001,0802734820,The Eternal War,9780802734822,,,,ES,2013/1/1,Walker & Company,,true,3,10726285,5367,11091,2739,160,2011/7/14,The Eternal War,book,1008,1039,539,125,28,4.05,,ebook,,0,0,Alex Scarrow,,,,,,2011,25,60,"action,adventure,childrens,dystopia,fantasy,fiction,historical,historical-fiction,history,mystery,romance,science-fiction,teen,thriller,time-travel,travel,urban-fantasy,war,young-adult"
17134501,0985524812,Spy Flash,9780985524814,,,,ES,2012/12/7,Phyllis Anne Duncan,,false,4,17134501,154,28,7,5,2012/12/7,,book,3,2,1,1,0,4.00,156,Paperback,,5,4,Phyllis Anne Duncan,,,,,,146,2,,short-stories
17135001,1134061951,"Invasive and Introduced Plants and Animals: Human Perceptions, Attitudes and Approaches to Management",9781134061952,,,,ES,2012/12/6,Routledge,,true,5,17242803,1,2,1,0,2012/12/1,,,0,0,0,1,0,2.00,392,ebook,,0,0,,,,"Ian D. Rotherham,Robert A Lambert",,,,0,,
17135501,1134853335,From Heaven to Earth: Images and Experiences of Development in China,9781134853335,,,,ES,2002/9/11,Routledge,,true,4,17135501,0,0,0,0,2002/9/11,,,0,0,0,0,0,0.00,336,ebook,,0,0,Elizabeth Croll,,,,,,,0,,
17136001,1135670897,The Developmental Social Psychology of Gender,9781135670894,,,,ES,2012/12/6,Psychology Press,,true,5,17710135,3,0,0,0,2000/1/1,,,0,0,0,0,0,0.00,488,ebook,,0,0,,,,"Hanns M. Trautner,Thomas Eckes",,,3,0,,
17136501,1136052828,"The Technique of Film and Video Editing: History, Theory, and Practice",9781136052828,,,,ES,2013/4/26,Focal Press,,true,29,581585,434,372,96,7,1993/1/1,"The Technique of Film and Video Editing, Fourth Edition: History, Theory, and Practice",,32,33,21,7,3,3.88,512,ebook,,0,0,Ken Dancyger,,,,,,246,6,37,"academic,art,criticism,film,non-fiction,reference"
17137001,1136410082,Intimate Violence: Contemporary Treatment Innovations,9781136410086,,,,ES,2013/5/13,Routledge,,true,6,1151635,6,5,1,0,2003/9/4,Intimate Violence: Contemporary Treatment Innovations,,1,0,0,0,0,5.00,358,ebook,,0,0,"Daniel Jay Sonkin,Donald G. Dutton",,,,,,5,0,,
17137501,1136832319,The Elizabethan Dumb Show (Routledge Revivals): The History of a Dramatic Convention,9781136832314,,,,ES,2012/12/6,Routledge,,true,10,17137500,3,3,1,0,1982/1/1,,,0,0,1,0,0,3.00,208,ebook,,0,0,Dieter Mehl,,,,,,2,0,,
17138001,1440331049,A Genealogist's Guide to Greek Names: A Reference for First Names from Greece,9781440331046,,,,ES,2012/12/14,Family Tree Books,,true,2,17138001,0,0,0,0,2012/12/14,,,0,0,0,0,0,0.00,30,ebook,,0,0,Connie Ellefson,,,,,,,0,,
17138501,1457654032,Real Skills with Readings 3e  Quick Reference Card for Real Skills 3e,9781457654039,,,,ES,2013/2/8,Bedford/St. Martin's,,false,55,15794235,47,30,7,0,2007/7/1,,book,4,2,0,1,0,4.29,,Unknown Binding,,0,0,Susan Anker,,,,,,19,0,3,
17139001,1461349168,Physical Methods in Agriculture: Approach to Precision and Quality,9781461349167,,,,ES,2012/10/6,Springer,,false,2,13699772,0,0,0,0,2003/1/31,,,0,0,0,0,0,0.00,454,Paperback,,0,0,,,,"Jiri Blahovec,Miroslav Kut Lek",,,,0,,
17139501,1466835397,I'd Kill For That,9781466835399,,,,ES,2005/8/2,Minotaur Books,,true,6,697982,1177,921,304,37,2004/1/1,I'd Kill For That,book,41,55,112,64,32,3.03,256,ebook,,1,1,,,,Marcia Talley,,,710,6,13,"collections,economics,fiction,murder-mystery,mystery,short-stories"
17140001,1477247122,A Spoon Full of Sugar,9781477247129,,,,ES,2012/12/6,Authorhouse,,false,4,17140001,2,0,0,0,2012/12/6,,,0,0,0,0,0,0.00,146,Paperback,,0,0,Elizabeth Jane Winters,,,,,,,0,,
17140501,1572937459,The Sweet Side of Suffering: Recognizing God's Best When Facing Life's Worst,9781572937451,,,,ES,2013/2/1,Discovery House,,false,2,17140501,91,144,34,13,2013/2/1,,,15,14,3,2,0,4.24,160,Paperback,,30,11,M. Esther Lovejoy,,,,,,32,7,8,"health,non-fiction,religion"
17141001,1616674768,195 Nations,9781616674762,,,,ES,2012/11/1,Raider Publishing International,,false,1,17141001,0,0,0,0,2012/11/2,,,0,0,0,0,0,0.00,104,Paperback,,0,0,Brighton Kaonga,,,,,,,0,,
17141501,1742698808,Bucket List of an Idiot,9781742698809,,,,ES,2012/10/1,Allen & Unwin,,true,3,16087474,156,335,88,18,2012/9/26,,,25,34,18,9,2,3.81,276,ebook,,0,0,Dom Harvey,,,,,,42,3,3,"biography,comedy,non-fiction,travel"
17142001,1890117323,Estate Planning for Gay and Lesbian Couples: How to Get Your Affairs in Order and Achieve Peace of Mind,9781890117320,,,,ES,2012/11/18,Demery Publishing,eng,false,3,27204867,1,1,1,0,2012/11/18,,,0,0,0,0,1,1.00,52,Paperback,,0,0,Julie A. Calligaro,,,,,,,0,,
17142501,3527700501,Word 2002 für Dummies,9783527700509,,,,ES,2001/3/12,Mitp,ger,false,4,87937,11,9,3,0,,,book,1,0,1,0,1,3.00,408,Paperback,,0,0,Dan Gookin,,,,Petra Heubach-Erdmann,,5,0,,
17143001,3828882412,Deutsche Firmen in Ru Land,9783828882416,,,,ES,2011/7/15,Tectum - Der Wissenschaftsverlag,,false,1,17143001,0,0,0,0,2011/7/15,,,0,0,0,0,0,0.00,150,Paperback,,0,0,Thomas Falk,,,,,,,0,,
17143501,3849173127,"The Eugenic Marriage, Volume IV. (of IV.) a Personal Guide to the New Science of Better Living and Better Babies",9783849173128,,,,ES,2012/12/4,Tredition Gmbh,,false,8,22401276,8,5,1,0,2011/3/24,,,1,0,0,0,0,5.00,236,Paperback,,0,0,W. Grant Hague,,,,,,7,0,,
17144001,9400733739,George Berkeley: Religion and Science in the Age of Enlightenment,9789400733732,,,,ES,2012/12/1,Springer,,false,3,9607488,3,0,0,0,2010/10/4,,,0,0,0,0,0,0.00,204,Paperback,,0,0,,,,Silvia Parigi,,,1,0,,
17144501,9870804500,Una Muerte En La Familia y Otros Cuentos,9789870804505,,,,ES,2011/1/1,de Los Cuatro Vientos Editorial,,false,1,17144501,1,0,0,0,2011/1/1,,,0,0,0,0,0,0.00,126,Hardcover,,0,0,Eduardo Loedel,,,,,,1,0,,
17145001,1280084057,Agriculture in Nicaragua: Promoting Competitiveness and Stimulating Broad-Based Growth,9781280084058,,,,ES,2003/4/29,World Bank Group,,true,4,7130954,0,0,0,0,2003/6/12,,,0,0,0,0,0,0.00,61,ebook,,0,0,World Bank Group,,,,,,,0,,
17145501,1280183535,Reporting Test Results for Students with Disabilities and English-Language Learners: Summary of a Workshop,9781280183539,,,,ES,2009/3/20,National Academies Press,,true,2,3612457,0,0,0,0,2002/1/1,Reporting Test Results for Students with Disabilities and English-Language Learners: Summary of a Workshop,,0,0,0,0,0,0.00,90,ebook,,0,0,National Research Council,,,,,,,0,,
17146001,1280209305,Prime Obsession: Bernhard Riemann and the Greatest Unsolved Problem in Mathematics,9781280209307,,,,ES,2009/3/21,Joseph Henry Press,,true,11,218392,8243,12082,2956,149,2003/1/1,Prime Obsession: Bernhard Riemann and the Greatest Unsolved Problem in Mathematics,book,1199,1049,531,121,56,4.09,422,ebook,,0,0,John Derbyshire,,,,,,4769,18,178,"biography,biography-memoir,canon,education,historical,history,non-fiction,philosophy,science"
17146501,1280260637,"Night Vision: Current Research and Future Directions, Symposium Proceedings",9781280260636,,,,ES,2011/10/11,National Academies Press,,true,2,17146501,0,0,0,0,1987/1/1,,,0,0,0,0,0,0.00,356,ebook,,0,0,Working Group on Night Vision,,,,,,,0,,
17147001,1280714239,Post Keynesian Monetary Economics,9781280714238,,,,ES,2010/1/10,Palgrave MacMillan,,true,11,6002442,9,8,2,0,1986/1/1,Post Keynesian Monetary Economics,book,0,2,0,0,0,4.00,168,ebook,,0,0,Stephen Rousseas,,,,,,5,0,1,economics
17147501,,Angels Unawares,9781476150109,,,,ES,2012/3/19,Smashwords Edition,eng,true,2,17147501,3,0,0,1,2011/7/3,,book,0,0,0,0,0,0.00,,ebook,,0,1,Stoney M. Setzer,,,,,,1,0,,
17148001,1281971707,Children Learn Mathematics,9781281971708,,,,ES,2014/5/9,Sense Publishers,,true,2,17148001,1,5,1,0,2008/1/1,,,1,0,0,0,0,5.00,260,ebook,,0,0,Marja van den Heuvel-Panhuizen,,,,,,,0,,
17148501,1282234897,Theorizing Sexual Violence,9781282234895,,,,ES,2014/5/9,Taylor & Francis Group,,true,4,7270196,17,5,1,0,2009/1/1,,book,1,0,0,0,0,5.00,220,ebook,,0,0,Renee Heberle,,,,,,9,0,,
17149001,1282414402,"Vittorio de Sica: Actor, Director, Auteur",9781282414402,,,,ES,2010/3/18,Cambridge Scholars Publishing,,true,3,11122025,5,3,1,1,2005/8/31,,,0,0,1,0,0,3.00,250,ebook,,0,0,Bert Cardullo,,,,,,4,-1,,
17149501,1282703161,Watching Communism Fail: A Memoir of Life in the Soviet Union,9781282703162,,,,ES,2010/8/19,McFarland & Company,,true,3,13784726,3,9,2,0,2008/8/1,,,1,1,0,0,0,4.50,306,ebook,,0,0,Gary Berkovich,,,,,,1,0,,
17150001,1282907557,Cooler Than Fiction: A Planning Guide for Teen Nonfiction Booktalks,9781282907553,,,,ES,2011/2/16,McFarland & Company,,true,1,17150001,2,0,0,0,2010/11/8,,,0,0,0,0,0,0.00,201,ebook,,0,0,Jill S Jarrell,,,,,,2,0,,
17150501,1283535017,"IMF Survey No.17, 2002",9781283535014,,,,ES,2002/1/1,International Monetary Fund,,true,3,16443528,0,0,0,0,,,,0,0,0,0,0,0.00,17,ebook,,0,0,International Monetary Fund,,,,,,,0,,
17151501,1283868857,Red Light Women of the Rocky Mountains,9781283868853,,,,ES,2014/5/10,University of New Mexico Press,,true,4,6216350,69,56,19,4,2009/3/1,Red Light Women of the Rocky Mountains,book,0,4,10,5,0,2.95,482,ebook,,0,0,Jan MacKell,,,,,,42,1,2,"american-history,biography,history,non-fiction,social-issues"
17152501,0982468369,Escaping the Corner,9780982468364,,,,ES,2013/1/1,Richard McKnight & Associates,,false,1,17152501,1,0,0,0,2013/1/1,,,0,0,0,0,0,0.00,138,Hardcover,,0,0,Karol M Wasylyshyn,,,,,,1,0,,
17153001,1477242937,"The Treasure Beneath Our Feet: The Gauntlet, Glastonbury",9781477242933,,,,ES,2012/12/3,Authorhouse,,false,4,17152999,11,15,11,6,2012/12/3,,,1,0,0,0,10,1.36,108,Paperback,,0,0,Doug Hill,,,,,,,0,,
17153501,1590060512,The David Embrace,9781590060513,,,,ES,2010/1/1,Stonehouse Press,,false,5,29546984,13,24,6,2,2010/1/1,,book,3,0,3,0,0,4.00,322,Paperback,,0,0,Warren Adler,,,,,,5,0,2,
17154001,2253133302,D-Day Et La Bataille de Normandie,9782253133308,,,,ES,2010/6/16,Livre de Poche,,false,62,2455549,13630,31723,7632,387,2009/1/1,D-Day: The Battle for Normandy,book,3027,3146,1173,199,87,4.16,864,Paperback,,4,0,Antony Beevor,,,,,,4679,28,456,"american-history,fiction,france,historical,history,non-fiction,war"
17154501,9031361577,Neem de tijd voor de kindertijd,9789031361571,,,,ES,2009/9/10,Bohn Stafleu Van Loghum,nl,false,1,17154501,0,0,0,0,2009/9/10,,book,0,0,0,0,0,0.00,312,Paperback,,0,0,David F. Bjorklund,,,,,,,0,,
17155001,2915621268,Le Monde D'Edward Craft: Niveau 1 : Les Bas De Larguevent,9782915621266,,,,ES,2009/10/1,,fre,false,1,17155001,11,17,4,0,2009/10/1,Le Monde D'Edward Craft: Niveau 1 : Les Bas De Larguevent,book,2,1,1,0,0,4.25,266,,,4,0,Pierre Grimbert,,,,,,4,0,,fantasy
17155501,9780988781,Dead Blow Hammer,,,,,ES,2012/12/17,Steve George,eng,true,2,17155501,88,84,25,5,2012/12/16,,book,2,10,8,5,0,3.36,200,ebook,,12,5,Steve  George,,,,,,51,3,1,"mystery,suspense"
17156001,0380003058,Foundation and Empire,9780380003051,,,,ES,1971/10/1,"Doubleday & Company, Inc",eng,false,162,29581,188087,560199,132865,2538,1952/1/1,Foundation and Empire,book,57432,50892,20940,3050,551,4.22,224,Mass Market Paperback,,9,0,Isaac Asimov,,,,,,35039,175,2321,"adult,adventure,american,classics,dystopia,epic,fantasy,fiction,literature,novels,politics,science,science-fiction,science-fiction-fantasy,speculative-fiction,unfinished"
17156501,1742200230,Lonely Planet Pocket Rome,9781742200231,,,,ES,2012/11/1,Lonely Planet,eng,false,10,17156501,233,426,102,6,2010/1/1,,book,40,41,20,1,0,4.18,208,Paperback,3rd edition,37,5,"Cristian Bonetto,Duncan Garwood",,,,,,22,2,68,"non-fiction,reference,travel"
17157001,,Mama,,,,,ES,1996/1/1,Houghton Mifflin Company,eng,false,27,122210,13025,37168,8879,197,1987/1/1,Mama,book,4132,2770,1577,297,103,4.19,260,Paperback,Quality Paperback Book Club,1,0,Terry McMillan,,,,,,2528,19,80,"adult-fiction,american,chick-lit,contemporary,drama,fiction,literature,novels,romance,school"
17157501,,O capuchinho vermelho em Manhattan,9789727084975,,,,ES,1998/1/1,Relógio d'Água,por,false,22,370361,2371,4791,1435,102,1990/1/1,Caperucita en Manhattan,book,249,381,503,211,91,3.34,182,Paperback,,4,2,Carmen Martín Gaite,,,,,,516,16,35,"childrens,classics,fantasy,fiction,middle-grade,school,young-adult"
17158001,,"The Lord of Death (Inspector Shan, #6)",,,,,ES,2009/1/1,Soho Crime,eng,false,12,5445346,955,2283,533,58,2009/1/1,The Lord of Death,book,236,221,68,7,1,4.28,314,Hardcover,,1,0,Eliot Pattison,,,,,,318,2,13,"crime,detective,fiction,historical-fiction,history,international,mystery,mystery-thriller,suspense,thriller"
17158501,,"Buda, Vol. 1",,,,,ES,2002/1/1,Planeta DeAgostini,spa,false,22,209577,12392,26798,6465,518,1972/1/1,Kapilavastu (Buddha Volume 1),book,2650,2416,1131,223,45,4.15,304,Paperback,,2,0,Osamu Tezuka,,,,,,4660,31,107,"adult,adventure,art,biography,classics,comics,fantasy,fiction,graphic-novels,graphic-novels-comics,historical,historical-fiction,history,humor,literature,manga,mythology,non-fiction,novels,philosophy,religion,spirituality,teen"
17159001,,"No Words Left to Say (The Billionaire's Baby, #3)",,B00APOV30W,,,ES,2012/12/16,,en-GB,true,1,17159001,932,1843,499,11,2012/12/16,,book,132,150,164,38,15,3.69,,Kindle Edition,,499,11,Helen    Cooper,,,,,,295,14,5,"adult,bdsm,contemporary,erotica,love,non-fiction,romance,short-stories"
17159501,,"The Odyssey of Homer, Books I-XII",,,,,ES,1886/1/1,Macmillan,eng,false,37,101495,2335,6165,1515,43,-750/1/1,,book,704,400,277,80,54,4.07,306,Hardcover,,1,0,Homer,,,,"George Herbert, 5th Earl of Carnarvon",,51,17,,"adventure,classics,cultural,epic,family,fantasy,fiction,historical,historical-fiction,history,literature,mythology,philosophy,poetry,romance,school,survival,unfinished"
17160001,0143182234,Y,9780143182238,,,,ES,2013/6/25,Penguin Canada,,false,24,13547191,10029,11010,3058,615,2012/8/1,,book,499,1232,996,268,63,3.60,376,Paperback,,31,10,Marjorie Celona,,,,,,5976,90,81,"adult,adult-fiction,contemporary,drama,family,fiction,literary-fiction,literature,novels,realistic-fiction,relationships,teen,young-adult"
17160501,,Miss Farkku-Suomi,9789520108212,,,,ES,2012/6/1,Like,fin,false,2,10484463,394,817,250,13,2003/1/1,Miss Farkku-Suomi,book,25,73,106,36,10,3.27,303,Paperback,,10,3,Kauko Röyhkä,,,,,,80,17,3,"fiction,novels,realistic-fiction"
17161001,8877990090,Inverno - Carnevale,,,,,ES,1990/1/1,Claudio Lombardi Editore,ita,false,1,17161001,1,4,1,0,1990/1/1,,book,0,1,0,0,0,4.00,,Hardcover,,1,0,Gianfranco Draghi,,,,,,,0,,
17161501,,"discriminatie, diversiteit en migratie (enerzijds, anderzijds)",9789401400381,,,,ES,,Lannoocampus,nl,false,1,17161501,2,5,2,0,,,book,0,0,1,1,0,2.50,,Paperback,,2,0,Jozef De Witte,,,,,,,0,,
17162001,,"The Hidden (The Hidden, #1)",,B00ARPRXIA,,,ES,2012/12/21,,en-GB,true,3,18073246,3052,3686,957,61,2012/12/21,,book,307,333,221,60,36,3.85,482,Kindle Edition,,283,7,Kelley R. Martin,,,,,,1810,17,30,"amazon,chick-lit,college,fantasy,fiction,magic,new-adult,paranormal,romance,science-fiction,supernatural,young-adult"
17162501,030782702X,Clemmie,9780307827029,,,,ES,2013/6/11,Random House,eng,true,13,3170437,242,486,127,10,1958/1/1,Clemmie,book,33,51,34,6,3,3.83,240,ebook,,0,0,John D. MacDonald,,,,,,80,7,2,"fiction,mystery,novels"
17163001,,Face Blind,,B007NM95IG,,,ES,2012/3/1,FlashBang Books,en-GB,true,1,17163001,15,21,6,0,2012/3/1,,book,2,2,0,1,1,3.50,28,ebook,,6,0,Henry Carver,,,,,,6,1,2,mystery
17163501,,"Her Şeyi Satarım, Ruhum Hariç",9789752108509,,,,ES,2007/4/1,Altın Kitaplar,tur,false,1,17163501,4,4,1,0,2007/4/1,,book,0,1,0,0,0,4.00,214,Paperback,,1,0,Hakan Yel,,,,,,2,0,1,
17164001,,The Silver Cape,,B0072VQ3A6,,,ES,2012/1/27,Kenidjack Press,en-GB,true,4,17164001,31,19,7,2,2012/1/27,,book,0,1,4,1,1,2.71,138,Kindle Edition,,4,0,Adam Radcliffe,,,,,,10,2,,"amazon,contemporary"
17164501,,In The Balance,,,,,ES,,,eng,false,24,2886947,1353,2394,640,71,1941/1/1,Danger Point,book,146,246,195,42,11,3.74,,,,18,1,Patricia Wentworth,,,,,,363,12,175,"cozy-mystery,crime,detective,fiction,historical-fiction,mystery,mystery-thriller"
17165001,,The Iliad,,,,,ES,1942/1/1,Walter J. Black,,false,2172,1371,550665,1201805,312412,5863,-720/1/1,Ἰλιάς,book,101691,101984,76721,23235,8781,3.85,,Hardcover,,2,0,Homer,,,,,,174940,1208,10536,"adult,adult-fiction,adventure,classic-literature,classics,college,epic,fantasy,fiction,high-school,historical,historical-fiction,history,literature,mythology,non-fiction,novels,philosophy,plays,poetry,school,unfinished,war"
17165501,1449357962,Microsoft Project 2013: The Missing Manual,9781449357962,,,,ES,2013/4/30,Pogue Press,en-US,false,7,17165501,75,81,24,2,2013/1/1,,book,4,8,8,1,3,3.38,810,Paperback,,19,2,Bonnie Biafore,,,,,,26,1,17,"business,personal-development,reference,science"
17166001,0544104943,Curious George Makes Maple Syrup,9780544104945,,,,ES,2014/1/14,HMH Books for Young Readers,,false,4,17165960,146,260,70,8,2014/1/14,,book,19,22,20,8,1,3.71,24,Hardcover,,17,1,H.A. Rey,,,,,,21,17,1,"animals,childrens,picture-books"
17166501,,"Vojniče, ne pitaj",9789536234226,,,,ES,1996/1/1,Zagrebačka Naklada,scr,false,27,1133489,3442,9368,2374,56,1964/10/1,"Soldier, Ask Not",book,722,924,615,104,9,3.95,311,Hardcover,,4,0,Gordon R. Dickson,,,,Vlatko Jurić Kokić,,570,15,11,"fantasy,fiction,religion,science,science-fiction,science-fiction-fantasy,short-stories,speculative-fiction,war"
17167001,,Frozen Throne 3 (Battle Cards),9781301810956,,,,ES,2012/12/3,Smashwords Edition,eng,true,1,17167001,0,0,0,0,2012/12/3,,book,0,0,0,0,0,0.00,,ebook,,0,0,Adrianna  White,,,,,,,0,,
17167501,,Rudyard Kipling's Verse Inclusive Edition: 1885-1918,,,,,ES,1919/1/1,"Double, Page & Company",eng,false,17,10074081,24,37,9,0,1918/1/1,,book,4,2,3,0,0,4.11,783,Hardcover,,0,0,Rudyard Kipling,,,,,,11,1,1,poetry
17168001,032188759X,Study Guide for Anatomy & Physiology,9780321887597,,,,ES,2013/2/8,Benjamin-Cummings Publishing Company,eng,false,11,13705292,27,42,10,0,2015/4/20,,book,6,1,2,1,0,4.20,744,Paperback,Fifth Edition,0,0,"Elaine N. Marieb,Katja Hoehn",,,,,,11,0,1,health
17168501,,This Is Life,,B00ASBI6CA,,,ES,2012/12/22,Infinite Source Publishing LLC ,eng,true,4,17168501,422,1128,248,33,2012/12/22,,book,161,71,9,5,2,4.55,,Kindle Edition,,109,16,Shakara Cannon,,,,,,124,3,11,"contemporary,drama,fiction,romance"
17169001,0857010689,Shamanism and Spirituality in Therapeutic Practice: An Introduction,9780857010681,,,,ES,2012/6/15,Singing Dragon,,true,4,14483175,59,79,18,1,2012/1/1,,,9,7,2,0,0,4.39,320,ebook,,0,0,Christa Mackinnon,,,,,,27,0,6,"nature,psychology,spirituality"
17169501,1101657146,"The Inn BoonsBoro Trilogy (Inn BoonsBoro Trilogy, #1-3)",9781101657140,,,,ES,2012/12/4,Berkley,,true,12,17169501,6023,15220,3423,128,2012/12/4,,book,2058,949,329,60,27,4.45,1040,ebook,,1953,83,Nora Roberts,,,,,,1292,18,346,"adult-fiction,contemporary,fiction,love,novels,paranormal,relationships,romance"
17170001,1406263982,Happy to Be Me,9781406263985,,,,ES,2013/1/1,Capstone Global Library Ltd,,false,2,17170001,0,0,0,0,2013/1/1,,,0,0,0,0,0,0.00,16,Paperback,,0,0,Kelly Gaffney,,,,,,,0,,
17170501,1433974207,Cree History and Culture,9781433974205,,,,ES,2012/8/1,Gareth Stevens Publishing,,true,5,14457033,9,5,1,0,2012/8/1,,,1,0,0,0,0,5.00,48,ebook,,0,0,"Helen Dwyer,Mary A. Stout",,,,,,6,-1,,
17171001,1466638869,"Small and Medium Enterprises: Concepts, Methodologies, Tools, and Applications",9781466638860,,,,ES,2013/4/30,Business Science Reference,,false,1,17171001,1,3,1,0,2013/4/30,,,0,0,1,0,0,3.00,2150,Hardcover,,1,0,,,,Irma International,,,,0,,
17171501,1486458041,"Spring Onion Greats: Delicious Spring Onion Recipes, the Top 94 Spring Onion Recipes",9781486458042,,,,ES,2012/12/14,Emereo Publishing,,true,3,17171501,0,0,0,0,2012/12/14,,,0,0,0,0,0,0.00,110,ebook,,0,0,Jo Franks,,,,,,,0,,
17172001,1616381353,Angels on Assignment: God's Relentless Protection of Your Loved Ones and You,9781616381356,,,,ES,2010/9/24,Charisma House,,true,14,6921831,472,733,169,12,2009/1/1,,,88,56,21,2,2,4.34,176,ebook,,0,0,Perry Stone,,,,,,266,3,18,"angels,christian,inspirational,non-fiction,religion,theology"
17172501,1845024613,"Glorious Gentlemen: Tales from Scotland's Stalkers, Gillies and Keepers",9781845024611,,,,ES,2012/10/1,Black & White Publishing,,true,4,19397181,23,43,11,1,2012/9/1,,,3,5,2,1,0,3.91,119,ebook,,0,0,Bruce Sandison,,,,,,6,1,7,
17173001,1846427096,A Supported Employment Workbook: Using Individual Profiling and Job Matching,9781846427091,,,,ES,2002/1/15,Jessica Kingsley Publishers,,true,4,3776047,3,13,3,0,2002/1/1,A Supported Employment Workbook: Using Individual Profiling and Job Matching,,1,2,0,0,0,4.33,224,ebook,,0,0,Steve Leach,,,,,,,0,,
17173501,1908864346,"Looking Gorgeous: Head-Turning, Eye-Popping, Jaw-Dropping Quick Fix Beauty Secrets",9781908864345,,,,ES,2011/12/1,Infinite Ideas,,true,1,17173501,1,0,0,0,2011/12/23,,,0,0,0,0,0,0.00,,ebook,,0,0,"Elisabeth Wilson,Infinite Ideas",,,,,,1,0,,non-fiction
17174001,3842890575,PR-Handbuch F R Games: Einf Hrung in Die PR-Kampagnenerstellung F R Ein Computer- Oder Videospiel,9783842890572,,,,ES,2012/12/4,Diplomica Verlag Gmbh,,false,1,17174001,0,0,0,0,2012/12/4,,,0,0,0,0,0,0.00,134,Paperback,,0,0,Kerstin Strangfeld,,,,,,,0,,
17174501,8437083281,El Proceso de Expulsion de Los Moriscos de Espana (1609-1614),9788437083285,,,,ES,2011/1/1,Servicio de Publicaciones de la Universidad de Zaragoza,,false,3,17174469,0,0,0,0,2011/1/1,,,0,0,0,0,0,0.00,582,Hardcover,,0,0,Manuel Lomas Cortaes,,,,,,,0,,
17175001,1280631090,Science of Heat and Thermophysical Studies,9781280631092,,,,ES,2005/1/1,Elsevier Science,,true,4,17175001,1,0,0,0,2005/1/1,,,0,0,0,0,0,0.00,472,ebook,,0,0,Jaroslav Sestak,,,,,,1,0,,
17175501,1282262866,Understanding Conflict and Conflict Analysis,9781282262867,,,,ES,2008/1/1,Sage Publications Ltd,,true,8,4403991,40,46,12,0,2008/1/1,Understanding Conflict and Conflict Analysis,,3,4,5,0,0,3.83,264,ebook,,0,0,Ho-Won Jeong,,,,,,14,1,2,"international,non-fiction,psychology,science,social,society,sociology"
17176001,1282381369,"Fault Detection, Supervision and Safety of Technical Processes 2006",9781282381360,,,,ES,2007/1/1,Elsevier Science,,true,1,17176001,0,0,0,0,2007/1/1,,,0,0,0,0,0,0.00,1576,ebook,,0,0,,,,Hong-Yue Zhang,,,,0,,
17176501,1282560166,Anti-Oppressive Practice in Health and Social Care,9781282560161,,,,ES,2008/1/1,Sage Publications Ltd,,true,7,17176501,4,0,0,0,2008/1/1,,,0,0,0,0,0,0.00,223,ebook,,0,0,"Paul Williams,Viola Nzira",,,,,,4,0,,
17177001,128295542X,The Ancient Human Occupation of Britain,9781282955424,,,,ES,2011/2/2,Elsevier Science & Technology,,true,4,9673105,12,3,1,1,2010/5/13,,book,0,0,1,0,0,3.00,322,ebook,,0,0,,,,"Chris B. Stringer,Nick Ashton,Simon G. Lewis",,,11,0,,non-fiction
17177501,0615719910,All Flavors a Book of Erotic Short Stories,9780615719917,,,,ES,2012/11/1,New Flavor Books,,false,1,17177501,3,14,3,0,2012/11/26,,,2,1,0,0,0,4.67,110,Paperback,,3,0,"Donaze M. Gaines,Tiffany L. Rucker",,,,,,,0,1,
17178001,0987813609,"Staying Power: Age-Proof Your Home for Comfort, Safety and Style",9780987813602,,,,ES,2012/11/12,Sage Tree Publishing,,false,2,17178001,5,8,2,0,2012/11/12,,,1,0,1,0,0,4.00,230,Paperback,,2,0,Rachel Adelson,,,,,,,0,2,
17178501,1475021658,School of Life,9781475021653,,,,ES,2012/11/24,Createspace Independent Publishing Platform,,false,2,17178501,0,0,0,0,2012/11/23,,,0,0,0,0,0,0.00,138,Paperback,,0,0,Ron J. Ben-Dov,,,,,,,0,,
17179001,1480180408,"Commissioned in White (Art of Love, #4)",9781480180406,,,,ES,2012/12/8,Createspace Independent Publishing Platform,,false,4,21574093,734,1692,396,32,2011/12/1,,book,188,137,64,5,2,4.27,204,Paperback,,1,0,Donna McDonald,,,,,,234,16,34,"adult-fiction,chick-lit,contemporary,fiction,funny,romance"
17179501,1612529712,The Hollow King,9781612529714,,,,ES,2012/12/5,"Desert Breeze Publishing, Incorporated",,false,3,11090979,9,14,4,1,2011/4/4,,,1,1,1,1,0,3.50,140,Paperback,,0,0,Tasarla Romaney,,,,,,4,0,,
17180001,3828881718,Aus Dem Wortschatz Der F.D.P.,9783828881716,,,,ES,2011/7/15,Tectum - Der Wissenschaftsverlag,,false,1,17180001,0,0,0,0,2011/7/15,,,0,0,0,0,0,0.00,132,Paperback,,0,0,Kirsten Rollig,,,,,,,0,,
17180501,3849165302,"Rowena & Harold a Romance in Rhyme of an Olden Time, of Hastyngs and Normanhurst",9783849165307,,,,ES,2012/12/4,Tredition Gmbh,,false,3,22625868,0,0,0,0,2012/12/4,,,0,0,0,0,0,0.00,68,Paperback,,0,0,William Stephen Pryer,,,,,,,0,,
17181001,9609312470,Killing the Cancer Beast,9789609312479,,,,ES,2011/10/18,Maria D.Georga,,false,2,17181001,0,0,0,0,2011/10/18,,,0,0,0,0,0,0.00,78,Paperback,,0,0,Maria Georga,,,,,,,0,,
17181501,,Satan und Ischariot,,,,,ES,,,,false,25,768620,299,730,188,1,1897/1/1,Satan und Ischariot,book,48,79,52,9,0,3.88,,,,0,0,Karl May,,,,,,35,4,,"adventure,fiction"
17182001,9780615643,Cursed To Survive (Volume 1),,,,,ES,2012/11/28,,eng,false,4,17182001,24,44,10,4,2012/11/28,Cursed To Survive,book,6,2,2,0,0,4.40,540,Paperback,,9,4,Rimma Rose,,,,,,12,1,2,"drama,historical,romance"
17183001,,Getekende Klanken: Over grafische partituren,,,,,ES,,,,false,1,17183001,0,0,0,0,,,book,0,0,0,0,0,0.00,,,,0,0,,,,Jan Christiaens,,,,0,,
17183501,9510245143,Jedien lapset,,,,,ES,2000/1/1,Wsoy,fin,false,24,555313,12492,26895,8216,152,1995/5/1,Star Wars: Children of the Jedi,book,1485,1919,2832,1318,662,3.27,419,Hardcover,,5,1,Barbara Hambly,,,,Ilkka Äärelä,,2061,34,57,"adult,adventure,aliens,fantasy,fiction,novels,romance,science,science-fiction,science-fiction-fantasy,speculative-fiction"
17184001,,Черт из табакерки,,,,,ES,,,rus,false,4,1785527,157,267,87,0,2000/1/1,Чёрт из табакерки,book,12,21,28,13,13,3.07,,Paperback,,29,0,Дарья Донцова,,,,,,31,7,1,"chick-lit,crime,detective,mystery,realistic-fiction"
17184501,,Beyond Parallel,,B00ATNX1SG,,,ES,2013/1/8,Turndog Publishing,en-GB,true,4,17184501,293,279,77,35,2013/1/1,,book,14,32,22,6,3,3.62,202,Kindle Edition,1st Edition,74,35,Matthew  Turner,,,,,,190,13,1,"adventure,chick-lit,contemporary,new-adult,paranormal,romance"
17185001,3353002766,Sokrates,9783353002761,,,,ES,1978/1/1,Verlag Volk und Welt,ger,false,4,7799370,118,239,55,0,1975/1/1,Sokrates,book,34,10,7,4,0,4.35,580,Hardcover,,2,0,"Josef Toman,Miroslava Tomanova",,,,Karl Klausnitzer,,42,0,2,"historical-fiction,philosophy"
17185501,,Vixotica: Sexy Short Stories by the Best-Selling Erotica Authors,9780988667709,,,,ES,,,,false,1,17185501,1,0,0,0,,,book,0,0,0,0,0,0.00,,,,0,0,Vixely,,,,,,1,0,,
17186001,9792448160,Dear Miss Blue,,,,,ES,2006/1/1,Puspa Swara,ind,false,1,17186001,170,181,51,3,2006/1/1,,book,16,12,12,6,5,3.55,145,Paperback,,51,3,Retty Tania,,,,,,99,0,11,
17186501,,L'informazione,,,,,ES,1997/1/1,CDE SpA,ita,false,40,380017,10460,18515,5168,282,1995/1/1,The Information,book,1089,1801,1530,528,220,3.58,440,Hardcover,,1,0,Martin Amis,,,,Gaspare Bona,,4166,125,92,"adult,adult-fiction,british-literature,classics,comedy,contemporary,dark,drama,fiction,humor,literary-fiction,literature,mystery,novels,suspense,thriller"
17187001,,Hotel Tussentijd,9789025750039,,,,ES,2012/1/1,gottmer,nl,false,1,17187001,19,56,13,2,2012/1/1,,book,6,5,2,0,0,4.31,148,Hardcover,,13,2,Lisa Boersen,,,,,,1,0,,
17187501,0752222589,The Amalgam Age Of Comics: The Marvel Comics Collection,9780752222585,,,,ES,1996/1/1,Boxtree,,false,2,830202,156,267,77,8,1996/4/1,The Amalgam Age of Comics: The Marvel Comics Collection,book,15,21,28,11,2,3.47,160,Paperback,,0,0,"Barbara Randall Kesel,Chuck Dixon,Gerard Jones,Howard Mackie,James Felder,John Ostrander,Karl Kesel",Dave Gibbons,,,,,60,3,2,"comics,fiction,graphic-novels,graphic-novels-comics,marvel,science-fiction,superheroes"
17188001,0981656005,Every Day Is Monday,,,,,ES,2009/1/1,Scout Writer Books,eng,true,1,17188001,4,15,3,0,2009/1/1,,book,3,0,0,0,0,5.00,,Kindle Edition,,3,0,J. Michael Raab,,,,,,1,0,,
17188501,,Miles,,,,,ES,2012/1/1,Anvil Press ,,true,1,17188501,5,5,1,0,2012/1/1,,book,1,0,0,0,0,5.00,,Kindle Edition,,1,0,Adam Carrierre,,,,,,2,1,,romance
17189501,,"Historia del Pensamiento en el Mundo Islámico, II: El pensamiento de Al-Andalus (ss. IX-XIV)",,,,,ES,2012/1/1,Alianza Editorial,spa,false,2,17189501,30,9,2,1,2012/1/1,,book,1,1,0,0,0,4.50,312,Paperback,,1,0,Miguel Cruz Hernandez,,,,,,24,1,,teaching
17190001,1480223999,High,9781480223998,,,,ES,2012/12/28,French Press Publishing,eng,false,2,17190001,615,216,59,12,2012/12/28,,book,16,20,13,7,3,3.66,248,Paperback,First Edition,34,9,Corey M.P.,,,,,,-22,12,,"adult,adult-fiction,adventure,chick-lit,contemporary,drama,fiction,new-adult,realistic-fiction,romance,science-fiction"
17190501,,Skårunger (Tre søstre #38),9788251659161,,,,ES,2011/1/1,schibsted,nor,false,1,17190501,4,9,3,0,2011/1/1,,book,0,1,1,1,0,3.00,,Mass Market Paperback,,3,0,Bente Pedersen,,,,,,1,2,,
17191001,,Al chiaro di luna ( La figlia della luna # 2 ),,,,,ES,,,ita,false,1,17191001,2,5,1,0,2013/11/17,,book,1,0,0,0,0,5.00,,,,1,0,Daisy Honeywell,,,,,,1,0,,
17191501,,A Critical Examination of Psycho-Analysis,,,,,ES,1923/1/1,Allen & Unwin,,false,6,17191501,1,0,0,0,1923/1/1,,book,0,0,0,0,0,0.00,250,Hardcover,,0,0,A. Wohlgemuth,,,,,,1,0,,
17192001,098304340X,Dancing with the Midwives: A Memoir of Art and Grief,9780983043409,,,,ES,2011/1/1,Black Dragonfly Books,eng,false,1,17192001,23,34,9,2,2011/1/1,,book,3,2,3,1,0,3.78,139,Paperback,,9,2,Ann Faison,,,,,,9,1,1,memoir
17192501,8878992542,Uno studio in rosso,9788878992542,,,,ES,2008/11/1,Barbera,ita,false,37,102868,411762,1107852,266719,8465,1887/1/1,A Study in Scarlet,book,109397,102093,45214,6838,3177,4.15,176,Hardcover,,34,1,Arthur Conan Doyle,,,,,,111402,1131,6477,"adult,adult-fiction,adventure,british-literature,classic-literature,classics,crime,detective,english-literature,fiction,historical,historical-fiction,literature,murder-mystery,mystery,mystery-thriller,novels,school,short-stories,suspense,thriller,victorian"
17193001,9138014548,Teknisk 'Oversyn AV Studiemedelssystemet: Bet'ankande,9789138014547,,,,ES,1973/1/1,Alm'anna F'Orlaget,,false,1,17193001,0,0,0,0,1973/1/1,,,0,0,0,0,0,0.00,227,Hardcover,,0,0,Sweden,,,,,,,0,,
17193501,0970834349,Muckwhip's Guide to Capturing the Latter-Day Soul,9780970834348,,,,ES,2012/12/18,Heimerdinger Entertainment,,false,3,17063517,113,144,38,10,2012/11/26,,book,12,12,9,4,1,3.79,191,Paperback,,3,0,Chris Heimerdinger,,,,,,56,0,4,"adult,fantasy,fiction,religion,supernatural"
17194001,1461375819,VHDL Answers to Frequently Asked Questions,9781461375814,,,,ES,2012/10/8,Springer,,false,6,996633,2,0,0,0,1996/1/31,VHDL Answers to Frequently Asked Questions,,0,0,0,0,0,0.00,384,Paperback,,0,0,Ben Cohen,,,,,,2,0,,
17194501,1594734720,Pilgrimage--The Sacred Art: Journey to the Center of the Heart,9781594734724,,,,ES,2013/6/1,Skylight Paths Publishing,,false,4,17194501,41,49,14,3,2013/5/29,,,4,3,3,4,0,3.50,240,Paperback,,11,3,Sheryl A. Kujawa-Holbrook,,,,,,5,0,8,spirituality
17195001,1938922093,Fire Island Modernist: Horace Gifford and the Architecture of Seduction,9781938922091,,,,ES,2013/5/30,Metropolis Books,,false,1,17195001,48,77,18,2,2013/4/30,,,8,7,3,0,0,4.28,202,Hardcover,,18,2,,,Alastair Gordon,,,,25,1,1,art
17195501,3850408736,Komm Mir Nicht Zu Nah,9783850408738,,,,ES,2012/12/12,Vindobona Verlag,,false,1,17195501,0,0,0,0,2012/12/12,,,0,0,0,0,0,0.00,202,Paperback,,0,0,Nicole Woitzik,,,,,,,0,,
17196001,0205936970,The Struggle for Democracy,9780205936977,,,,ES,2012/12/21,Pearson Custom Publishing,eng,false,64,17070505,695,284,89,6,1961/12/12,,book,16,18,31,15,9,3.19,720,Unbound,,1,0,"Benjamin I. Page,Edward S. Greenberg",,,,,,277,3,13,"academic,college,history,non-fiction,politics,school,textbooks"
17197001,1118473582,Human Geography in Action,9781118473580,,,,ES,2012/12/1,John Wiley & Sons,,true,24,690219,34,56,15,0,1998/2/28,Human Geography in Action,book,3,6,5,1,0,3.73,,ebook,,0,0,Michael Kuby,,,,,,8,1,1,textbooks
17197501,140704558X,Midnight,9781407045580,,,,ES,2008/9/4,RHCP Digital,,true,29,1527187,9094,20674,5594,181,2003/1/1,Midnight,book,1496,1771,1614,555,158,3.70,208,ebook,,2,0,Jacqueline Wilson,,,,,,1215,72,68,"childrens,contemporary,drama,family,fantasy,fiction,middle-grade,novels,realistic-fiction,teen,young-adult"
17198001,1447483367,The History of Corporal Punishment - A Survey of Flagellation in Its Historical Anthropological and Sociological Aspects,9781447483366,,,,ES,2013/4/16,Boughton Press,,true,2,20883817,2,4,1,0,2012/12/20,,,0,1,0,0,0,4.00,324,ebook,,0,0,George Scott,,,,,,1,0,,
17198501,1458419827,The Best of Audra McDonald,9781458419828,,,,ES,2013/1/1,Hal Leonard Publishing Corporation,,false,1,17198501,2,0,0,0,2013/6/1,,,0,0,0,0,0,0.00,144,Paperback,,0,0,,,Audra McDonald,,,,1,0,,
17199001,1475965265,Dream: Great Secrets Are Revealed in Your Dreams,9781475965261,,,,ES,2012/12/1,iUniverse,,false,4,17220852,0,0,0,0,2012/12/26,,,0,0,0,0,0,0.00,96,Hardcover,,0,0,Matthew Ogbonmwan,,,,,,,0,,
17199501,1619213036,Killer's Diary,9781619213036,,,,ES,2013/7/1,"Samhain Publishing, Ltd.",,true,6,17199501,443,614,156,18,2010/1/1,,book,51,59,34,9,3,3.94,244,ebook,,41,11,Brian Pinkerton,,,,,,223,13,27,"fiction,horror,mystery,romance,thriller"
17200001,1939055059,Assault: The Crippled Champion,9781939055057,,,,ES,2012/12/1,Bright Sky Press,,true,3,2647846,16,23,6,0,2004/4/1,Assault: The Crippled Champion: The King Ranch Racehorse,,0,5,1,0,0,3.83,81,ebook,,0,0,Marjorie Hodgson Parker,,,,,,4,0,,
17201501,,Richard Nixon: A Very Brief History,,,,,ES,2012/12/22,,eng,true,2,18895499,56,80,25,4,2012/12/22,,book,3,5,13,2,2,3.20,,Kindle Edition,,5,2,Mark Black,,,,,,21,3,6,"biography,history"
17202501,,A Will to Win,9780956296535,,,,ES,2010/1/1,Ryedale Folk Museum,eng,false,1,17202501,1,4,1,0,2010/1/1,,book,0,1,0,0,0,4.00,,Hardcover,,1,0,Robin Butler,,,,,,,0,,
17203001,1468149865,The Death and Life of Sherlock Holmes,9781468149869,,,,ES,2012/11/17,CreateSpace Independent Publishing Platform,eng,false,3,17203001,461,200,50,10,2012/11/17,,book,23,10,13,2,2,4.00,289,Paperback,,44,10,Grace Best-Page,,,,,,408,4,,"historical,mystery,thriller,time-travel"
17203501,,Search for some dogs I have known and other sermons...,,B0007EVWHY,,,ES,1953/1/1,Sword of the Lord Publishers,eng,false,1,17203501,2,3,1,0,1953/1/1,,book,0,0,1,0,0,3.00,142,Hardcover,,1,0,Bob Shuler,,,,,,1,0,,
17204001,,The Far Bank,9780986967863,,,,ES,2013/1/2,yatscoff books ,eng,true,2,17204001,2,10,2,2,2013/1/2,,book,2,0,0,0,0,5.00,,ebook,,2,2,E.R. Yatscoff,,,,,,,1,,
17205001,1478124825,A Scoop of Desert,9781478124825,,,,ES,2012/11/26,CreateSpace Independent Publishing Platform,eng,false,1,17205001,11,34,7,3,2012/11/26,,book,6,1,0,0,0,4.86,97,,,7,3,,,,,,,3,0,,
17205501,,Ο δρόμος του όρκου,9789609786003,,,,ES,2012/1/1,Βορειοδυτικές Εκδόσεις,gre,false,1,17205501,3,5,1,1,2012/1/1,,book,1,0,0,0,0,5.00,480,Paperback,,1,1,Ελευθερία Δημητρομανωλάκη,,,,,,1,0,,contemporary
17206001,4757511302,"Tales of Destiny 2, Volume 1",9784757511309,,,,ES,2004/1/1,Square Enix,,false,1,17206001,2,8,2,1,2004/1/1,テイルズ　オブ　デスティニー２　（１）,book,0,2,0,0,0,4.00,,,,2,1,MAKOTO2号,,,,,,,0,,manga
17206501,,All That Matters,,B009F7435W,,,ES,2012/9/1,,,true,2,1804170,43,40,12,1,1995/2/1,All That Matters,book,1,5,3,3,0,3.33,475,Kindle Edition,,1,0,Marietta Garcia,,,,,,22,2,,"historical,romance"
17207001,0615691323,Emerald Tears,9780615691329,,,,ES,2012/6/29,Word Branch Publishing,eng,false,4,32052504,151,115,27,9,2012/6/29,,book,14,9,2,1,1,4.26,330,Paperback,1,9,6,Stacy Bender,,,,,,76,0,32,fantasy
17207501,,Kleine Zeit Geschichten,9783765540950,,,,ES,2010/1/1,Brunnen,ger,false,1,17207501,2,5,2,0,2010/1/1,,book,0,0,1,1,0,2.50,58,Paperback,,2,0,Petra Hahn-Lütjen,,,,,,,0,,
17208001,9711803682,By Faith: 31 Days of Faith and Bible Translation,,,,,ES,2002/1/1,50th Anniversary Publications,,false,1,17208001,2,4,1,0,2002/1/1,,book,0,1,0,0,0,4.00,69,Paperback,,1,0,"Diana Stuhr,Jean Lieffers",,,,,,,0,,theology
17208501,881158373X,Lo spleen di Parigi,9788811583738,,,,ES,1989/2/1,Garzanti,ita,false,218,24601,18632,40662,9460,311,1869/1/1,Le Spleen de Paris,book,4826,3062,1225,262,85,4.30,232,Paperback,I grandi libri,40,2,Charles Baudelaire,,,,Alfonso Berardinelli,,7267,25,289,"art,classics,collections,college,essays,fiction,france,literature,non-fiction,philosophy,poetry,reference,school,short-stories,unfinished"
17209001,9549745198,Деветата порта,,,,,ES,2000/1/1,Еднорог ,bul,false,78,7194,52552,118094,30961,1763,1993/1/1,El club Dumas,book,8338,11964,7834,2221,604,3.81,431,Paperback,,32,3,Arturo Pérez-Reverte,,,,Боряна Василева,,17211,87,659,"adult,adult-fiction,adventure,classics,contemporary,crime,detective,fantasy,fiction,france,gothic,historical,historical-fiction,history,horror,literary-fiction,literature,magical-realism,mystery,mystery-thriller,novels,suspense,thriller,unfinished"
17209501,9781884238,reality and spirituality of life in the universe,,,,,ES,,New Knowledge Library,,false,1,17209501,5,25,5,0,,,book,5,0,0,0,0,5.00,,,,5,0,The New Message from God,,,,,,1,0,,
17210001,9632811089,"Claudius, az Isten",,,,,ES,1982/1/1,Gondolat,hun,false,96,52251,18641,46654,11047,458,1934/1/1,Claudius the God and His Wife Messalina,book,4776,4309,1659,258,45,4.22,442,,,3,1,Robert Graves,,,,,,5784,24,263,"adult,biography,british-literature,classic-literature,classics,drama,english-literature,fiction,historical,historical-fiction,history,literary-fiction,literature,modern-classics,non-fiction,novels,politics,religion,war"
17211001,9544072888,Петте езика на любовта,9789544072889,,,,ES,2008/1/1,Нов Човек,bul,false,180,23878688,414847,989868,233398,9569,1990/1/1,The Five Love Languages: How to Express Heartfelt Commitment to Your Mate,book,114447,74679,33659,7327,3286,4.24,169,Paperback,,32,4,Gary Chapman,,,,,,143209,337,16498,"adult,christian,christianity,faith,family,health,inspirational,love,marriage,non-fiction,parenting,personal-development,philosophy,psychology,reference,relationships,religion,romance,self-help,spirituality,theology"
17211501,4088705548,"Beelzebub, Vol. 19: Pompadour (Beelzebub, #19)",9784088705545,,,,ES,2012/12/4,Shueisha,jpn,false,7,17211501,464,1410,331,8,2012/12/4,ベルゼバブ 19,book,165,103,49,12,2,4.26,192,Paperback,,314,5,Ryūhei Tamura,,,,,,51,10,1,"action,comedy,comics,demons,fantasy,graphic-novels,humor,magic,manga,paranormal,supernatural"
17212001,,"Molly, Stan in his own words (Stan series # 4)",,,,,ES,2011/5/23,,eng,true,3,20645984,0,0,0,0,2011/5/23,,book,0,0,0,0,0,0.00,,ebook,,0,0,Heather Mar-Gerrison,,,,,,,0,,
17212501,,Август. Первый Император Рима,,,,,ES,2003/1/1,Центрполиграф,rus,false,4,189564,35,50,14,2,1937/6/1,Augustus,book,2,6,5,0,1,3.57,,,,3,0,George Philip Baker,,,,,,16,1,,"biography,history,unfinished"
17213001,,The Senior Moment,,,,,ES,2013/1/3,Two Pies Press,eng,true,4,17213001,634,401,105,13,2013/1/3,,book,28,43,22,11,1,3.82,325,Kindle Edition,,28,9,Eva Hudson,,,,,,430,12,14,"comedy,fiction,humor,mystery,mystery-thriller"
17213501,5973902013,О революции,9785973902018,,,,ES,2011/1/1,Европа ,rus,false,38,127232,7310,6658,1654,88,1956/1/1,On Revolution,book,594,649,306,69,36,4.03,464,Hardcover,,0,0,"Hannah Arendt,Ханна Арендт",,,,,,4968,17,182,"academic,american-history,classics,college,economics,essays,grad-school,history,literature,non-fiction,philosophy,politics,psychology,reference,research,school,science,society,sociology"
17214001,,My Secret Life In Paris,,B009UL1JCI,,,ES,2012/11/22,Mischief Books,en-GB,true,1,17214001,26,37,10,0,2012/11/22,,book,5,1,2,0,2,3.70,,ebook,,10,0,Lucy Salisbury,,,,,,15,1,1,"bdsm,erotica"
17214501,0199565082,Fresh Water in International Law,9780199565085,,,,ES,2013/12/1,"Oxford University Press, USA",,false,4,26262196,5,5,1,0,2013/8/15,,,1,0,0,0,0,5.00,265,Hardcover,,0,0,Laurence Boisson de Chazournes,,,,,,2,0,,
17215001,0787629030,Magill's Cinema Annual: 2000,9780787629038,,,,ES,2000/8/8,Gale Cengage,,false,1,17215001,0,0,0,0,2000/8/8,,,0,0,0,0,0,0.00,656,Hardcover,,0,0,Michelle Banks,,,,,,,0,,
17215501,0787666491,"Authors and Artists for Young Adults, Volume 61",9780787666491,,,,ES,2005/3/21,Gale,,false,1,17215501,0,0,0,0,,,,0,0,0,0,0,0.00,272,Hardcover,,0,0,Dwayne D. Hayes,,,,,,,0,,
17216001,0787687170,"Poetry for Students, Volume 27",9780787687175,,,,ES,2007/11/14,Gale Cengage,,false,2,17216001,2,0,0,0,,,book,0,0,0,0,0,0.00,379,Hardcover,,0,0,,,,Ira Mark Milne,,,2,0,,
17216501,0810301245,"Contemporary Literary Criticism, Volume 13",9780810301245,,,,ES,1979/12/31,Gale,,false,1,17216501,0,0,0,0,,,,0,0,0,0,0,0.00,640,Hardcover,,0,0,,,,Sharon R. Gunton,,,,0,,
17217001,1414419163,"Contemporary Authors, Volume 273",9781414419169,,,,ES,2008/12/5,Gale Cengage,,false,2,17217001,0,0,0,0,2008/12/5,,book,0,0,0,0,0,0.00,445,Hardcover,,0,0,,,,"Amy Elisabeth Fuller,Dana Ferguson,Jennifer Mossman,Joseph M. Palmisano,Lisa Kumar,Michelle Kazensky",,,,0,,
17217501,141446830X,"Awards, Honors & Prizes: International",9781414468303,,,,ES,2012/3/15,Gale Cengage,,false,4,17217501,0,0,0,0,2002/4/1,,,0,0,0,0,0,0.00,600,Paperback,,0,0,Gale Cengage Learning,,,,,,,0,,
17218501,3846016098,Franz Schubert,9783846016091,,,,ES,2012/12/20,Salzwasser-Verlag Gmbh,,false,4,17218501,1,0,0,0,2012/4/18,,,0,0,0,0,0,0.00,132,Paperback,,0,0,Richard Heuberger,,,,,,,0,1,
17219001,9780007420,Arabian Nights,,,,,ES,2011/1/2,HarperPress,eng,false,351,93101,75786,261339,64453,1965,800/1/1,'كِتَاب أَلْف لَيْلَة وَلَيْلَة‎‎ [kitāb ʾalf layla wa-layla],book,24776,22714,13479,2682,802,4.05,432,Paperback,Collins Classics,2,0,Anonymous,,,,Richard Francis Burton,,66051,385,10105,"adventure,childrens,classic-literature,classics,fairy-tales,fantasy,fiction,historical,historical-fiction,history,literature,magic,medieval,mythology,novels,poetry,romance,school,short-stories,unfinished,young-adult"
17219501,0891123857,"The American College Presidency as Vocation: Easing the Burden, Enhancing the Joy",9780891123859,,,,ES,2013/10/1,ACU Press/Leafwood Publishers,,false,3,17219501,5,9,3,0,2012/12/4,,,0,2,0,0,1,3.00,175,Paperback,,2,0,William V. Frame,,,,,,2,0,,
17220001,1139628321,Handbook of Implementation Science for Psychology in Education,9781139628327,,,,ES,2013/1/2,Cambridge University Press,,true,5,13725876,4,4,1,0,2012/8/1,,,0,1,0,0,0,4.00,500,ebook,,0,0,,,,"Barbara Kelly,Daniel F. Perkins",,,2,0,,
17220501,1446257363,Voluntary and Non-Profit Management,9781446257364,,,,ES,2013/7/18,Sage Publications Ltd,,false,1,17220501,1,0,0,0,2013/6/30,,,0,0,0,0,0,0.00,1568,Hardcover,,0,0,,,,Stephen P. Osborne,,,1,0,,
17221001,1591934133,Ole & Sven's Bucket List,9781591934134,,,,ES,2013/4/23,Adventure Publications,,false,1,17221001,2,5,2,0,2013/3/1,,,0,0,1,1,0,2.50,96,Paperback,,2,0,Bob Bergstrom,,Bruce Danielson,,,,,0,,
17221501,1620879352,Real Irish Food: 150 Classic Recipes from the Old Country,9781620879351,,,,ES,2012/12/18,Skyhorse,,true,5,14568171,441,513,132,18,2012/11/1,,book,41,52,25,11,3,3.89,320,ebook,,1,0,David Bowers,,,,,,112,4,153,"cookbooks,cooking,food,non-fiction,reference"
17222001,1938788168,2013 Rapid Coder for Nephrology 24x35.5,9781938788161,,,,ES,2012/8/1,Coding Institute,,false,1,17222001,0,0,0,0,2012/8/1,,,0,0,0,0,0,0.00,,Hardcover,,0,0,,,,,,,,0,,
17222501,078761324X,Directory of Special Libraries and Information Centers: 2 Volumes,9780787613242,,,,ES,1998/1/1,Gale Cengage,,false,2,21881125,0,0,0,0,1996/1/1,,,0,0,0,0,0,0.00,2750,Hardcover,,0,0,Gale Cengage Learning,,,,,,,0,,
17223001,0787661201,SUPERLCCS 02 Schedule S Microfiche,9780787661205,,,,ES,2003/4/1,Gale Cengage,,false,2,17223001,0,0,0,0,,,,0,0,0,0,0,0.00,,Paperback,,0,0,,,,,,,,0,,
17223501,0787688118,Subject Directory of Special Libraries: Health Science,9780787688110,,,,ES,2005/5/1,Gale Cengage,,false,4,17222716,0,0,0,0,,,,0,0,0,0,0,0.00,,Hardcover,,0,0,,,,,,,,0,,
17224001,1280266651,Toss of the Dice: Stories from a Pediatrician's Practice,9781280266652,,,,ES,2006/3/10,Jessica Kingsley Publishers,,true,2,17224001,0,0,0,0,2004/10/15,,,0,0,0,0,0,0.00,178,ebook,,0,0,Natasha T Hays,,,,,,,0,,
17224501,1282538829,"History of the Federal Reserve, Volume 1: 1913-1951",9781282538825,,,,ES,2014/5/10,University of Chicago Press,,true,7,1686235,253,139,35,5,2003/1/1,"A History of the Federal Reserve, Volume 1: 1913-1951",book,12,16,3,2,2,3.97,815,ebook,,0,0,Allan H. Meltzer,,,,,,177,5,17,"american-history,business,economics,history,non-fiction"
17225001,1414401132,Job Hunters Sourcebook 7,9781414401133,,,,ES,2006/9/1,Gale Cengage,,false,1,17225001,1,0,0,0,2006/9/1,,,0,0,0,0,0,0.00,1200,Hardcover,,0,0,,,,,,,,0,,
17225501,9639857,Claymore and Kilt: Tales of Scottish Kings and Castles,,,,,ES,1967/1/1,"Holt, Rinehart, and Winston",eng,false,9,17225501,110,114,30,7,1967/1/1,Claymore and Kilt: Tales of Scottish Kings and Castles,book,5,14,11,0,0,3.80,157,Hardcover,1st edition,19,5,Sorche Nic Leodhas,"Diane Dillon,Leo Dillon",,,,,19,6,4,"childrens,education,fantasy,fiction,historical-fiction,history,non-fiction"
17226001,1481278525,1000 Real Answers,9781481278522,,,,ES,2012/12/21,Createspace,eng,false,2,17226001,17,35,8,2,2012/12/21,,book,6,0,1,1,0,4.38,134,Paperback,,7,2,Paul Andrew Jarvis,,,,,,4,0,,
17226501,,"Sweet Ride (Ride, #2)",9780991840205,,,,ES,2013/5/24,Maegan Lynn Moores,eng,true,2,17226501,5224,11163,2757,112,2013/5/23,Sweet Ride,book,1030,1055,502,117,53,4.05,254,ebook,,2543,108,Maegan Lynn Moores,,,,,,2019,24,44,"abuse,adult,adult-fiction,contemporary,crime,drama,erotica,romance,suspense"
17227001,3463406411,Und dann kam Paulette,9783463406411,,,,ES,2013/3/8,Kindler,ger,false,34,13508019,1608,3644,977,141,2012/1/1,"Et puis, Paulette...",book,217,389,280,72,19,3.73,320,Hardcover,,36,7,Barbara Constantine,,,,Ina Kronenberger,,442,13,14,"adult,contemporary,drama,fiction,france"
17227501,,Secrets of the Ages,9781300595298,,,,ES,2013/1/1,Midwest Journal Press,eng,true,1,17227501,2,0,0,0,2013/1/1,,book,0,0,0,0,0,0.00,,ebook,,0,0,Robert Collier,,,Robert C. Worstell,,,1,0,,
17228001,,Double Pleasure,9781301586998,,,,ES,2012/12/1,Smashwords,,true,2,17228001,104,142,37,0,2012/12/1,,book,13,9,11,4,0,3.84,,ebook,,26,0,Adriana Hunter,,,,,,55,3,1,"adult,adult-fiction"
17228501,,Gourmet! Vol. 1,9786020202563,,,,ES,2013/1/16,Level Comics,ind,false,1,17228501,36,41,11,5,2013/1/16,,book,0,8,3,0,0,3.73,184,Paperback,,11,5,"Mitsuru Nishimura,Mitsuru Ōsaki",,,,,,20,0,1,"comics,drama,manga"
17230001,,"The Elite (The Selection, #2)",,B00AQLGXTU,,,ES,2013/4/23,HarperCollinsChildren'sBooks,,true,94,16248068,510514,1335611,331972,24809,2013/4/23,The Elite,book,129600,111587,65654,19170,5961,4.02,272,Kindle Edition,UK,1246,22,Kiera Cass,,,,,,91704,3506,6785,"chick-lit,contemporary,dystopia,fantasy,fiction,love,post-apocalyptic,romance,science-fiction,teen,young-adult"
17230501,,"Brass Monkey (James Acton Thrillers, #2)",,B005L40KBO,,,ES,,,eng,true,5,17230501,853,1898,471,21,2011/9/1,,book,156,196,101,13,5,4.03,331,Kindle Edition,,460,20,J. Robert Kennedy,,,,,,161,7,89,"action,adventure,contemporary,fiction,mystery,politics,suspense,thriller"
17231001,,Det Målade Huset,9789100576912,,,,ES,2001/1/1,Albert Bonniers förlag AB,swe,false,105,5360,104382,259852,70423,3746,2001/1/1,A Painted House,book,17725,24119,19743,6686,2150,3.69,416,Hardcover,,19,1,John Grisham,,,,,,14543,55,1144,"adult,adult-fiction,american,contemporary,crime,drama,family,fiction,historical,historical-fiction,literary-fiction,literature,mystery,mystery-thriller,novels,realistic-fiction,school,suspense,thriller"
17231501,9020404946,Sprookjes van moeder de gans,9789020404944,,,,ES,1975/1/1,Uitgeverij L.J. Veen B.V.,nl,false,162,1125366,2524,4519,1146,56,1697/1/1,Les contes de ma mère l'Oye - Histoires ou Contes du temps passé,book,389,387,306,44,20,3.94,120,Paperback,,0,0,"Charles Perrault,I.E. Prins-Willekes Macdonald",,,,,,1064,19,33,"childrens,classics,fairy-tales,fantasy,fiction,france,literature,novels,poetry,short-stories"
17232001,,The Apartment Theater,B00AZCCYD4,,,,ES,2013/1/10,lorgean theatre,eng,true,2,16142958,11,18,4,0,2012/11/1,,book,2,2,0,0,0,4.50,,Kindle Edition,,0,0,Jean-Lorin Sterian,,,,,,7,0,,
17232501,,Like Slow Sweet Molasses,9781454302568,,,,ES,2013/1/10,Red Rose Publishing,eng,true,2,17232501,10,11,4,0,2013/1/10,Like Slow Sweet Molasses,book,0,1,1,2,0,2.75,448,ebook,,1,0,Mickie Sherwood,,,,,,5,0,,
17233501,,Divided Realms (Aarabassa Trilogy #1),,B00A8YTHNE,,,ES,2012/11/16,,,true,1,17233501,14,0,0,0,2012/11/16,,book,0,0,0,0,0,0.00,268,Kindle Edition,,0,0,Catherine L. Vickers,,,,,,12,1,,"fantasy,vampires"
17234001,,Sklený vrch,,,,,ES,1986/1/1,Tatran,slo,false,3,17234001,87,171,44,1,1968/1/1,,book,15,14,11,3,1,3.89,412,Hardcover,,41,1,Alfonz Bednár,,,,,,28,2,2,classics
17235001,8838918066,L'Italia al dente,9788838918063,,,,ES,2002/1/1,Sellerio,ita,false,2,17235001,15,25,7,5,,,book,0,5,1,1,0,3.57,124,Paperback,La memoria #554,7,5,Gian Carlo Fusco,,Beppe Benvenuto,,,,2,0,,non-fiction
17235501,9021813106,Sprankelend blauwzuur,9789021813103,,,,ES,1991/1/1,Sijthoff,nl,false,206,212622,27272,60254,15576,887,1944/1/1,Sparkling Cyanide,book,3952,6375,4574,597,78,3.87,207,Paperback,,15,1,Agatha Christie,,,,,,6222,103,538,"adult,adult-fiction,british-literature,classics,cozy-mystery,crime,detective,fiction,historical,murder-mystery,mystery,mystery-thriller,novels,romance,suspense,thriller"
17236001,,Bravest Warriors 4,,,,,ES,,,,false,4,17234302,87,207,50,2,2013/1/1,,book,23,16,6,5,0,4.14,,,,2,0,,,,,,,27,0,,"adventure,comics,death,funny,graphic-novels,graphic-novels-comics,magic"
17236501,,Mirada de Piedra,,,,,ES,2010/9/1,,spa,false,1,17236501,3,10,2,1,2010/9/1,,book,2,0,0,0,0,5.00,,Paperback,,2,1,Marcela Garcia Robles Gil,,,,,,1,0,,
17237001,,Idea and Ideology,,,,,ES,1959/1/1,Ananda Marga Publications,eng,false,1,17237001,7,20,4,0,1959/1/1,,book,4,0,0,0,0,5.00,96,Paperback,,4,0,Shrii Prabhat Ranjan Sarkar,,,,,,3,0,1,
17237501,,Мөрөн голын шулам бүсгүй,,,,,ES,2011/1/1,,mon,false,2,15844319,224,234,55,5,2010/1/1,,book,32,11,9,0,3,4.25,,Paperback,,10,2,Жинь Цуань,,,,Болдбаатар. Д,,129,0,6,"fiction,non-fiction"
17238001,,Storia dell'Architettura - 5. Impero bizantino,,,,,ES,2009/1/1,Electa,ita,false,1,17238001,2,0,0,0,2009/1/1,,book,0,0,0,0,0,0.00,175,Hardcover,Edizione speciale per La Bibblioteca di Repubblica e L'Espresso,0,0,,,,Ada Gabucci,,,2,0,,
17239001,,La Patología del Ser,,,,,ES,2009/8/24,,spa,false,1,17239001,6,12,3,0,2009/8/24,,book,1,1,1,0,0,4.00,,Unknown Binding,,3,0,Ramón Martínez Ocaranza,,,,,,3,0,,
17239501,1453256261,A Promise Is a Promise,9781453256268,,,,ES,2013/2/19,Annick Press,,true,15,285744,2061,5584,1409,64,1988/1/1,A Promise is a Promise,book,539,429,319,94,28,3.96,32,ebook,,0,0,"Michael Arvaarluk Kusugak,Robert Munsch",,,,,,357,12,15,"childrens,classics,cultural,fantasy,fiction,humor,juvenile,mythology,picture-books,teaching"
17240001,8870789691,Chance: Dai giochi d'azzardo agli affari (di cuore),9788870789690,,,,ES,2005/1/1,Raffaello Cortina,ita,false,10,441215,637,897,263,35,2003/11/30,"Chance: A Guide to Gambling, Love, the Stock Market, and Just About Everything Else",book,37,86,96,36,8,3.41,141,Paperback,,2,0,Amir D. Aczel,,,,,,167,4,3,"economics,education,non-fiction,philosophy,politics,psychology,science"
17240501,145256163X,The Spirituality Trap: The Importance of Remaining One with Yourself on Your Spiritual Journey,9781452561639,,,,ES,2012/12/28,Balboa Press,,false,2,17240501,0,0,0,0,2012/12/28,,,0,0,0,0,0,0.00,108,Paperback,,0,0,Donna Lee,,,,,,,0,,
17241001,,Una noia diferent,9788499305981,,,,ES,2013/1/1,labutxaca,cat,false,21,120354,3990,6561,1833,118,1957/1/1,Odd Girl Out,book,404,530,673,176,50,3.58,291,Paperback,,1,1,Ann Bannon,,,,,,1796,20,42,"adult-fiction,american,classics,feminism,fiction,gay,historical,historical-fiction,lgbt,new-adult,non-fiction,novels,parenting,queer,realistic-fiction,romance"
17241501,,White Magic,,,,,ES,1975/1/1,Rex Collings,eng,false,2,2341318,13,11,3,0,1975/1/1,White Magic,,0,2,1,0,0,3.67,,,,0,0,Mary Hoffman,,,,,,7,0,,speculative-fiction
17242001,0077862007,Booth's Administrative Medical Assisting,9780077862008,,,,ES,2013/2/1,McGraw-Hill Europe,,false,1,17242001,0,0,0,0,2013/2/1,,,0,0,0,0,0,0.00,576,Paperback,,0,0,Kathryn A. Booth,,,,,,,0,,
17242501,8875020191,Black Jack n. 24,9788875020194,,,,ES,2005/2/1,Hazard Edizioni,ita,false,1,17242501,36,75,17,0,,,book,9,6,2,0,0,4.41,216,Paperback,,17,0,Osamu Tezuka,,,,,,12,1,,manga
17243001,0470299800,"Pricing Communication Networks: Economics, Technology and Modelling",9780470299807,,,,ES,2007/12/10,Wiley,,true,5,689059,7,9,2,1,2003/4/18,,,1,1,0,0,0,4.50,378,ebook,,0,0,"Costas Courcoubetis,Richard Weber",,,,,,4,0,,
17243501,0470365226,Clinical Measurement in Drug Evaluation,9780470365229,,,,ES,2008/3/11,Wiley,,true,3,7182020,0,0,0,0,1995/8/29,,,0,0,0,0,0,0.00,344,ebook,,0,0,,,,"Geoffrey T. Tucker,Walter S. Nimmo",,,,0,,
17244001,0596528868,Oracle PL/SQL Language Pocket Reference: A Guide to Oracle's PL/SQL Language Fundamentals,9780596528867,,,,ES,2004/4/6,O'Reilly Media,,true,15,2063377,117,221,58,1,2003/2/1,Oracle PL/SQL Language Pocket Reference,book,18,14,24,1,1,3.81,160,ebook,,0,0,"Bill Pribyl,Chip Dawes,Steven Feuerstein",,,,,,30,1,2,"non-fiction,reference,technology"
17244501,0856471089,Face to Face =: Mukhamukham,9780856471087,,,,ES,2012/1/1,Seagull Books,,false,1,17244501,0,0,0,0,2012/1/1,,,0,0,0,0,0,0.00,76,Hardcover,,0,0,Adoor Gopalakrishnan,,,,,,,0,,
17245001,1118649494,"Co-Clustering: Models, Algorithms and Applications",9781118649497,,,,ES,2013/12/11,Wiley-Iste,,true,4,17245001,2,3,1,0,2013/1/1,,,0,0,1,0,0,3.00,256,ebook,,1,0,"Gérard Govaert,Mohamed Nadif",,,,,,,0,,
17245501,1410953688,Shaka Zulu,9781410953681,,,,ES,2013/7/1,Raintree,,false,6,17245495,9,2,1,0,2013/7/1,,,0,0,0,1,0,2.00,48,Paperback,,0,0,Richard Spilsbury,,,,,,6,0,1,
17246001,1452556873,This Is Not It!: A Journey Through Trauma,9781452556871,,,,ES,2012/11/27,Balboa Press,,true,2,17246001,2,4,1,0,2012/11/27,,,0,1,0,0,0,4.00,,ebook,,0,0,Brett Green,,,,,,,0,,
17246501,1475960425,A Brooklyn Heights Boy Remembers,9781475960426,,,,ES,2012/12/5,iUniverse,,true,3,17246501,1,5,1,0,2012/12/1,,,1,0,0,0,0,5.00,,ebook,,0,0,Howard B. Moshman,,,,,,,0,1,
17247001,1481820427,Why We Have Sex: Solving the Darwinian Puzzles of Sex and Speciation,9781481820424,,,,ES,2013/1/1,Createspace Independent Publishing Platform,,false,1,17247001,0,0,0,0,2013/1/1,,,0,0,0,0,0,0.00,146,Paperback,,0,0,Richard C. Weisenberg,,,,,,,0,,
17247501,1604065206,Operative Exposures in Peripheral Nerve Surgery,9781604065206,,,,ES,2004/12/1,Tny,,true,2,21138125,5,6,2,0,2004/12/15,,,1,0,0,0,1,3.00,153,ebook,,0,0,,,,Allen Maniker,,,3,0,,
17248001,,Otra Vida en la Maleta,9788415689065,,,,ES,2012/10/1,Acantilado,spa,false,1,17248001,3,5,1,0,2012/1/1,Otra Vida en la Maleta,book,1,0,0,0,0,5.00,240,Paperback,,1,0,"A.G. Porta,Gregorio Casamayor",,,,,,1,0,,
17248501,1781041881,How to Start and Run Your Own Home-Based Business,9781781041888,,,,ES,2012/1/11,W&h Publishing,,true,2,17248501,4,0,0,0,2012/1/10,,,0,0,0,0,0,0.00,265,ebook,,0,0,Matthew Thomas,,,,,,3,0,,
17249001,1908457090,Remember Me for My Football: The Complete Playing Career of George Best,9781908457097,,,,ES,2012/11/1,Bluecoat Press,,false,1,17249001,0,0,0,0,2012/11/1,,book,0,0,0,0,0,0.00,112,Paperback,,0,0,Paul  Collier,,,,,,,0,,
17249501,3131494212,Plastic and Reconstructive Surgery of the Breast,9783131494214,,,,ES,2008/10/27,Training Implementation Services,,true,2,17249501,0,0,0,0,2008/10/27,,,0,0,0,0,0,0.00,292,ebook,,0,0,"Christian Gabka,Heinz Bohmert",,,,,,,0,,
17250001,3846016985,Geschichte Des Protestantismus in Frankreich Bis Zum Tode Karls IX.,9783846016985,,,,ES,2013/1/9,Salzwasser-Verlag Gmbh,,false,1,17250001,0,0,0,0,2013/1/9,,,0,0,0,0,0,0.00,616,Paperback,,0,0,Wilhelm Gottlieb Soldan,,,,,,,0,,
17250501,,The Way of the Wandering Wizard,,2940016151,,,ES,2012/11/29,Black Rose Writing,eng,true,4,17086038,23,20,5,4,2012/11/29,,,3,1,0,0,1,4.00,332,ebook,,1,1,Michael E. Novak,,,,,,14,-1,1,fantasy
17251001,,The Woman Who Wasn't There: The True Story of an Incredible Deception,,,,,ES,,,,false,8,12933641,5602,9015,2415,456,2012/5/23,The Woman Who Wasn't There: The True Story of an Incredible Deception,book,500,996,720,172,27,3.73,,,,1,1,Robin Gaby Fisher,,,,,,923,46,60,"americana,biography,biography-memoir,crime,history,memoir,mental-illness,mystery,non-fiction,psychology,true-crime"
17251501,,Travels With Charley,,,,,ES,,,,false,143,5306,112193,246068,60375,4479,1962/1/1,Travels with Charley: In Search of America,book,22611,23482,11269,2265,748,4.08,,,,3,2,John Steinbeck,,,,,,41537,98,2298,"adult,adventure,american,american-history,americana,animals,autobiography,biography,biography-memoir,classic-literature,classics,essays,fiction,historical,history,humor,literature,memoir,modern-classics,non-fiction,novels,school,travel,unfinished"
17252001,1481275062,The Missing Calico,9781481275064,,,,ES,2012/12/23,CreateSpace,eng,false,5,26239181,225,104,28,7,2012/12/23,,book,8,7,10,3,0,3.71,244,Paperback,,8,6,Sylvia A. Nash,,,,,,165,3,11,"classics,cozy-mystery,mystery"
17252501,0969441819,Finding the Church,,,,,ES,1993/1/1,Abundant Publishers,eng,false,3,17252501,4,0,0,0,1993/1/1,,book,0,0,0,0,0,0.00,139,Paperback,,0,0,Albert Zehr,,,,,,2,1,,
17253001,,The Pickwick Papers,,,,,ES,1996/7/1,Project Gutenburg,eng,true,871,229432,55079,84958,22196,1398,1837/1/1,The Posthumous Papers of the Pickwick Club,book,6759,7650,5568,1640,579,3.83,3177,ebook,Project Gutenberg EBook #580,0,0,Charles Dickens,,,,,,25907,169,1921,"adult-fiction,british-literature,classic-literature,classics,comedy,english-literature,fiction,funny,historical,historical-fiction,humor,literary-fiction,literature,novels,unfinished,victorian"
17253501,,"Love Through Cobra's Eye (Love Poison, #1)",B00AXIXFNI,,,,ES,2012/12/31,Amazon Kindle,eng,true,7,17253501,34,32,10,4,2012/12/31,Love Through Cobra's Eye,book,3,1,2,3,1,3.20,114,Kindle Edition,,6,2,Koushambi Dixit,,,,,,12,2,4,fantasy
17254001,,Legasea,9781620071625,,,,ES,2013/1/28,Curiosity Quills Press,eng,true,3,17254001,394,145,35,18,2013/1/28,,book,16,12,4,2,1,4.14,220,ebook,,32,17,Krystalyn Drown,,,,,,352,6,,"fantasy,mystery,romance"
17254501,975510058X,Dünyanın Sonundaki Dünya,9789755100586,,,,ES,1994/1/1,Can Yayınları,tur,false,35,234277,2261,4954,1368,89,1989/1/1,Mundo del fin del mundo,book,253,525,440,119,31,3.62,110,Paperback,,37,3,Luis Sepúlveda,,,,Engin Bilginer,,413,9,16,"adventure,contemporary,fiction,literature,novels,politics,romance,travel"
17255001,,Improving One of Your Core Processes Meetings,,,,,ES,,,,false,1,17255001,1,0,0,0,,,book,0,0,0,0,0,0.00,,,,0,0,Help Desk Institute,,,,,,,0,,
17255501,,Singularidades de uma Rapariga Loura / Seis Cartas de Fradique Mendes,9789898014016,,,,ES,2006/1/1,"Guerra & Paz, Editores S.A.",por,false,1,17255501,15,20,6,1,1874/1/1,Singularidades de uma Rapariga Loura / Seis Cartas de Fradique Mendes,book,0,3,2,1,0,3.33,123,Paperback,,6,1,Eça de Queirós,,,,,,4,2,,school
17256001,,Born of Water Novel Companion,9781476312361,,,,ES,2012/8/12,Autumn M. Birt,eng,true,4,25635316,37,39,10,4,2012/7/22,,book,2,6,1,1,0,3.90,63,ebook,,3,1,Autumn M. Birt,,,,,,19,0,2,fantasy
17256501,2266223933,Janus,9782266223935,,,,ES,2012/6/14,Pocket,fre,false,2,89186,21669,51911,12854,716,2005/10/27,Pushing Ice,book,4195,5609,2503,444,103,4.04,890,Mass Market Paperback,,6,3,Alastair Reynolds,,,,,,1152,76,172,"adventure,aliens,fantasy,fiction,mystery,novels,science,science-fiction,science-fiction-fantasy,speculative-fiction,survival,time-travel,travel,unfinished"
17257001,,Nikolenka's Childhood,,,,,ES,1963/1/1,Pantheon Books,,false,172,2359878,1518,2696,709,50,1852/1/1,,book,170,277,222,32,8,3.80,173,Hardcover,An Edition for Young Readers,13,3,Leo Tolstoy,Maurice Sendak,,,"Aylmer Maude,Louise Maude",,529,8,37,"autobiography,biography,classic-literature,classics,fiction,literature,non-fiction,novella,novels"
17257501,8852020640,"È la vita, Stella!",9788852020643,,,,ES,2011/9/28,Mondadori,ita,true,14,8625461,489,1000,302,16,2010/1/1,Bara vanligt vatten,book,38,93,110,47,14,3.31,496,ebook,Oscar bestsellers,0,0,Kajsa Ingemarsson,,,,Renato Zatti,,84,14,5,"chick-lit,contemporary,fiction,food,language,relationships,romance"
17258001,,"Poetry, drama, fiction; an introduction to literature",,,,,ES,1967/1/1,Random House,eng,false,1,17258001,3,0,0,0,1967/1/1,,book,0,0,0,0,0,0.00,808,Hardcover,,0,0,Edmond L. Volpe,,,,,,1,0,,"poetry,reference"
17258501,9775810698,مدخل الى علم اللغة,,,,,ES,2004/1/1,دار قباء للطباعة والنشر,ara,false,1,17258501,146,69,21,3,2004/1/1,مدخل الى علم اللغة,book,2,8,7,2,2,3.29,249,Paperback,,21,3,محمود فهمي حجازي,,,,,,93,1,6,
17259501,,Özgürlük Hukuku,9789754063660,,,,ES,2002/4/1,Cem Yayınevi,tur,false,2,25617573,3,10,2,0,,,book,2,0,0,0,0,5.00,130,Paperback,,0,0,Vehbi Hacıkadiroğlu,,,,,,,0,,
17260501,,Um Natal,,,,,ES,1998/1/1,Difel,por,false,13,911316,651,1455,375,40,1982/1/1,One Christmas,book,106,147,97,21,4,3.88,28,Unknown Binding,,6,1,Truman Capote,,,,"Dinis Machado,Rita Alves Machado",,191,15,,"american,christmas,classics,fiction,holiday,memoir,non-fiction,novella,philosophy,plays,short-stories,young-adult"
17261001,1447225449,A Dedicated Man,9781447225447,,,,ES,2013/2/14,Pan,en-GB,false,46,102154,7833,18479,4907,323,1988/1/1,A Dedicated Man,book,962,2171,1483,245,46,3.77,304,Paperback,,47,10,Peter Robinson,,,,,,1402,16,250,"adult,contemporary,crime,detective,fiction,historical,murder-mystery,mystery,mystery-thriller,suspense,thriller"
17261501,0781765595,Radiology Recall (Recall Series),9780781765596,,,,ES,2007/11/1,Lippincott Williams & Wilkins for JP,eng,false,1,17261501,4,0,0,0,2007/11/1,,book,0,0,0,0,0,0.00,656,Paperback,,0,0,,,,"Spencer B Gay, Richard J. Woodcock",,,4,0,,
17262001,,100% FS,9789949939800,,,,ES,2012/1/1,Jumalikud ilmutused,est,false,1,17262001,29,87,21,1,2012/1/1,100% FS,book,9,8,2,2,0,4.14,170,Paperback,,21,1,fs,,,,,,6,0,,
17262501,1583946772,"Jackleg Opera: Collected Poems, 1990 to 2013",9781583946770,,,,ES,2013/9/10,North Atlantic Books,,false,3,17262501,34,83,18,4,2013/9/10,,,11,7,0,0,0,4.61,272,Paperback,,14,4,B.J. Ward,,,,,,5,1,1,poetry
17263001,0345807812,The Reason I Jump: The Inner Voice of a Thirteen-Year-Old Boy with Autism,9780345807816,,,,ES,2013/8/27,Knopf Canada,eng,true,65,16113737,90280,135229,35562,4631,2005/1/1,自閉症の僕が跳びはねる理由～会話のできない中学生がつづる内なる心～,book,10070,12645,9419,2614,814,3.80,128,ebook,,13,2,Naoki Higashida,,,,"David Mitchell,K.A. Yoshida",,46564,379,2636,"adult,autobiography,biography,biography-memoir,contemporary,education,fiction,health,inspirational,medical,memoir,mental-health,mental-illness,non-fiction,parenting,psychology,science,unfinished,young-adult"
17263501,,The White Sail: a collection of 31 read-aloud stories for kids (Volume 2),,B00AVNMAVS,,,ES,2012/12/31,CreateSpace Independent Publishing Platform,,true,2,17263470,13,20,4,0,2012/12/17,"The White Sail: a collection of 31 read-aloud stories for kids (Knowonder! stories, #2)",book,4,0,0,0,0,5.00,222,Kindle Edition,,0,0,Knowonder Publishing,,"Adelaide B. Shaw,Alicia McHugh,Carrie Martin,David Turnball,Dulcinea Norton Smith,Holly Stacey,Kai Strand,Kathy Sattem Rygg,Kevin J. Doyle,Kimberly Solis,Laird Long,Max Elliot Anderson,Michelle L. Brown,Nancy Julien Kopp,Rolli,Suzanne Purvis,Tracy Helixon",,,,10,1,,
17264001,,Le Livre de l'oubli,9782818017043,,,,ES,2012/1/1,P.O.L.,fre,false,2,17264001,19,18,6,4,2012/1/1,,book,1,0,4,0,1,3.00,72,Paperback,,6,4,Bernard Noël,,,,,,11,0,1,
17264501,,X-Men First Class: Seeing Red,,,,,ES,2011/4/6,"Marvel Entertainment, LLC",eng,true,5,17264501,43,86,25,1,2006/12/20,X-Men First Class: Seeing Red,periodical,3,8,12,1,1,3.44,25,ebook,Digital comic,15,0,Jeff Parker,"Roger Cruz,Val Staples,Victor Olazaba",,,,,11,6,,"comics,graphic-novels,marvel"
17265001,1452609276,Highland Knight,9781452609270,,,,ES,2013/2/25,Tantor Media,,false,22,226078,5454,13812,3233,94,2001/1/1,Highland Knight,book,1572,1073,497,78,13,4.27,,Audio CD,,0,0,Hannah Howell,,,,,Angela Dawe,1425,12,95,"adult,adult-fiction,adventure,family,fiction,historical,historical-fiction,medieval,paranormal,romance"
17265501,1280275405,Axiomatic Quality,9781280275401,,,,ES,2006/3/25,Wiley-Interscience,,true,4,3288820,4,0,0,0,2005/1/1,"Axiomatic Quality: Integrating Axiomatic Design with Six-Sigma, Reliability, and Quality Engineering",,0,0,0,0,0,0.00,285,ebook,,0,0,Basem S. El-Haik,,,,,,2,0,1,
17266001,1282557556,Corporate Finance and Investments eBook,9781282557550,,,,ES,2010/5/19,FT Press,,true,16,8584533,56,65,19,0,1993/3/1,Corporate Finance and Investment: Decisions and Strategies(paperback),book,1,9,6,3,0,3.42,824,ebook,,0,0,"Bill Neale,Richard Pike",,,,,,20,0,3,"business,economics"
17266501,1481876120,Line of Attachment,9781481876124,,,,ES,2013/1/20,Pat Anvil,eng,false,2,17266509,20,7,2,1,2013/1/19,,book,1,0,0,1,0,3.50,350,Paperback,,0,1,Pat Anvil,,,,,,14,0,1,"fantasy,fiction,romance,teen,young-adult"
17267001,0988294060,"Maine Driver's License Suspensions, Revocations and Related Offenses (Non-Oui)",9780988294066,,,,ES,2012/12/1,Bryson Taylor Publishing,,false,1,17267001,0,0,0,0,2012/12/12,,,0,0,0,0,0,0.00,142,Paperback,,0,0,Edmund R. Folsom,,,,,,,0,,
17267501,,Kannatuste rada II: Kaheksateistkümnes aasta,,,,,ES,1959/1/1,Eesti Riiklik Kirjastus,est,false,33,245719,363,541,134,6,1928/1/1,Хождение по мукам: 2. Восемнадцатый год,book,58,40,21,13,2,4.04,,Hardcover,,2,0,Aleksey Nikolayevich Tolstoy,,,,,,178,4,9,"classics,fiction,historical,literature,novels"
17268001,8879282433,Il Conte Petöfy,9788879282437,,,,ES,1994/6/1,Ponte alle Grazie,ita,false,17,6413615,36,57,18,1,1884/1/1,Graf Petöfy,book,3,4,6,3,2,3.17,207,Paperback,Letture,0,0,Theodor Fontane,,,,Liana Biondi-Bini,,11,2,2,
17268501,3844839739,Die Mozart Entführung,9783844839739,,,,ES,2012/9/18,Books on Demand,,false,1,17268501,0,0,0,0,2012/9/18,,,0,0,0,0,0,0.00,364,Paperback,,0,0,Klaus-Dieter Klormann,,,,,,,0,,
17269001,012396461X,Computational Toxicology: Methods and Applications for Risk Assessment,9780123964618,,,,ES,2013/7/10,Academic Press,,false,4,17269001,3,0,0,0,2013/1/1,,,0,0,0,0,0,0.00,274,Hardcover,,0,0,,,,Bruce A. Fowler,,,1,0,1,
17269501,0415845653,The Life of Buddha,9780415845656,,,,ES,2013/2/15,Routledge,,false,17,6943610,68,73,19,2,1969/12/1,,book,5,8,5,0,1,3.84,332,Paperback,,0,0,Edward J. Thomas,,,,,,10,1,4,"historical,history,non-fiction,religion"
17270001,0415850819,Sport as History: Essays in Honour of Wray Vamplew,9780415850810,,,,ES,2013/6/2,Routledge,,false,6,7558248,1,0,0,0,2010/8/18,,,0,0,0,0,0,0.00,230,Paperback,,0,0,,,,Tony Collins,,,1,0,,
17270501,0545393078,Plunked,9780545393072,,,,ES,2012/3/1,Scholastic Press,,true,4,12326211,945,1635,450,106,2012/3/1,,book,110,132,155,39,14,3.63,256,ebook,,0,0,Michael Northrop,,,,,,367,15,34,"childrens,class,fiction,juvenile,middle-grade,realistic-fiction,school,sports"
17271001,0786723955,"Nonlinear Dynamics and Chaos: With Applications to Physics, Biology, Chemistry, and Engineering",9780786723959,,,,ES,2008/8/1,Westview Press,,true,14,116164,3102,4876,1132,46,1994/1/1,"Nonlinear Dynamics and Chaos: With Applications to Physics, Biology, Chemistry and Engineering",book,616,316,150,32,18,4.31,352,ebook,,0,0,Steven H. Strogatz,,,,,,1724,6,110,"academic,non-fiction,philosophy,reference,science,social,technology,textbooks"
17271501,1101620366,"Rush (Breathless, #1)",9781101620366,,,,ES,2013/2/5,Penguin Group (USA),eng,true,54,16033902,104676,244481,61802,3835,2013/2/5,Rush,book,22869,20777,12540,3792,1824,3.96,358,ebook,,229,48,Maya Banks,,,,,,28460,388,1589,"adult,adult-fiction,bdsm,chick-lit,contemporary,erotica,fiction,love,new-adult,romance"
17272001,1406802719,The Closed Book,9781406802719,,,,ES,2012/12/18,Echo Library,,false,23,19172466,98,135,37,2,1904/1/1,,book,9,12,10,6,0,3.65,192,Paperback,,0,0,William Le Queux,,,,,,49,1,8,"classic-literature,classics,crime,mystery,non-fiction,thriller"
17272501,1444768387,Love Story,9781444768381,,,,ES,2013/2/1,Hodder & Stoughton,en-GB,false,124,73968,72669,175796,48681,2535,1970/2/14,Love Story,book,12060,15127,13926,5642,1926,3.61,133,Paperback,,38,7,Erich Segal,,,,,,16762,328,734,"adult,adult-fiction,american,chick-lit,classics,college,contemporary,death,drama,fiction,literature,love,love-story,movies,novels,realistic-fiction,relationships,romance,tragedy,young-adult"
17273001,1447476611,Symphony No.6 Pauer - A Score for Solo Piano Op.68 (1808),9781447476610,,,,ES,2013/1/9,Delany Press,,false,44,254581,11,18,4,0,1863/4/2,"Symphony No. 6 in F Major, Op. 68, ""Pastorale"" (Dover Miniature Scores)",book,3,0,1,0,0,4.50,56,Paperback,,0,0,Ludwig van Beethoven,,,,,,5,0,,music
17273501,1459716884,Nip and Tuck,9781459716889,,,,ES,1990/10/1,Napoleon and Co,,true,8,7009128,1,3,1,0,1990/10/1,Nip and Tuck,,0,0,1,0,0,3.00,48,ebook,,0,0,Robert McConnell,,,,,,,0,,
17274001,1475934041,The Legend of Zye: X48,9781475934045,,,,ES,2013/1/15,iUniverse,,false,4,17273999,8,5,2,0,2013/1/15,,book,0,1,0,0,1,2.50,154,Hardcover,,0,0,Rachel     Carter,,,,,,4,0,,
17274501,1480515639,Case of Lies,9781480515635,,,,ES,2013/4/1,Brilliance Audio,,false,27,85336,2351,4744,1251,75,2005/6/1,Case of Lies (Nina Reilly),book,289,513,369,60,20,3.79,,Audio CD,,1,0,Perri O'Shaughnessy,,,,,,537,12,20,"fiction,mystery,suspense,thriller"
17275001,1596386347,Is Jesus in the Old Testament?,9781596386341,,,,ES,2013/2/14,P & R Publishing,eng,false,2,17275001,131,242,60,16,2013/2/4,Is Jesus in the Old Testament: Basics of the Faith,book,20,26,10,4,0,4.03,40,Paperback,,48,12,Iain M. Duguid,,,,,,22,2,3,"christian,christianity,non-fiction,reference,religion,theology"
17275501,1617472255,Road Trip: Five Adventures You're Meant to Live,9781617472251,,,,ES,2014/2/27,NavPress Publishing Group,,true,4,1088721,676,286,72,2,2006/7/5,Road Trip: Five Adventures You're Meant to Live,,24,26,18,4,0,3.97,192,ebook,,0,0,Jen Hatmaker,,,,,,396,3,11,"christian,faith,non-fiction,religion,spirituality"
17276001,1743172257,Licorice Shorts,9781743172254,,,,ES,2013/4/8,Bolinda Audio,,false,5,17266139,2,2,1,0,2013/4/8,,,0,0,0,1,0,2.00,,Audio CD,,0,0,Margaret Clark,,,,,,,0,,
17276501,1905499418,Who Else Writes Like--?: A Readers' Guide to Fiction Authors.,9781905499410,,,,ES,2012/11/1,Lisu,,false,1,17276501,3,3,1,0,2012/11/1,,,0,0,1,0,0,3.00,351,Paperback,,1,0,Ian Baillie,,,,,,2,1,,
17277001,3642357180,Progress in Nanophotonics 2,9783642357183,,,,ES,2013/3/21,Springer,,false,3,17277001,1,0,0,0,2013/3/31,,,0,0,0,0,0,0.00,169,Hardcover,,0,0,,,,Motoichi Ohtsu,,,,0,,
17277501,8792130453,Philosophical Practice: 5 Questions,9788792130457,,,,ES,2013/1/6,Automatic Press Publishing,,false,1,17277501,1,0,0,0,2013/1/6,,,0,0,0,0,0,0.00,264,Paperback,,0,0,,,,"Jan Kyrre Olsen Friis,Jeanette Bresson Ladegaard Knox",,,,0,,
17278001,0373207239,My Boyfriend and Other Enemies,9780373207237,,,,ES,2013/6/18,Harlequin KISS,,false,10,17278001,385,555,158,15,2013/1/1,,book,36,45,50,18,9,3.51,224,Paperback,,135,12,Nikki Logan,,,,,,186,13,6,"chick-lit,contemporary,family,harlequin,romance,unfinished"
17278501,,Koloniekak,9789065091901,,,,ES,2012/6/1,,nl,false,2,16025759,36,67,21,4,2012/5/1,,book,1,7,8,5,0,3.19,142,Paperback,,3,0,Mariët Meester,,,,,,10,0,-1,"history,non-fiction"
17279501,,Lords and Ladies: Two Medieval Spanking Novellas,,B00B40JEZM,,,ES,2013/1/21,Stormy Night Publications,en-US,true,1,17279501,214,292,75,11,2013/1/21,,book,26,22,20,7,0,3.89,120,ebook,,75,11,"Korey Mae Johnson,Renee Rose",,,,,,94,5,21,"anthologies,bdsm,contemporary,erotica,fiction,historical,historical-fiction,medieval,regency,romance,short-stories"
17280001,0394308492,Marxism and Communism: Essential Readings,,,,,ES,1965/1/1,Random House,eng,false,1,17280001,9,12,4,0,1965/1/1,,book,1,0,2,0,1,3.00,178,Mass Market Paperback,,4,0,,,"Alexander Herzen,Communist Party of China,Eduard Bernstein,Fidel Castro,Friedrich Engels,Georgi Plekhanov,Joseph Stalin,Karl Marx,League of Communists of Yugoslavia,Leon Trotsky,Mao Zedong,Nikita Khrushchev,Vladimir Lenin",Robert V. Daniels,,,6,0,,"economics,history,philosophy,politics"
17280501,,Lupta cu necredinta,9789738010659,,,,ES,2012/1/1,Neemia,rum,false,16,45351,1395,2141,499,47,2007/1/12,Battling Unbelief: Defeating Sin with Superior Pleasure,book,236,180,76,6,1,4.29,170,Paperback,,1,0,John Piper,,,,,,633,12,80,"christian,christianity,faith,non-fiction,spirituality,theology"
17281001,,"Destined (Desolation, #3)",,B00AM4HW82,,,ES,2012/12/10,Novel Ninjutsu,en-GB,true,5,16147006,1133,1013,239,26,2012/12/10,,book,117,78,29,14,1,4.24,379,Kindle Edition,,57,4,Ali Cross,,,,,,,0,,
17281501,,DoS-sama no Iutoori,,,,,ES,,,,false,1,17281501,3,0,0,0,,ドSさまの言うとおりっ!,book,0,0,0,0,0,0.00,,,,0,0,Yuna Anisaki,,,,,,2,1,,
17282001,,Tooth and Nailed,,B009TRA9IS,,,ES,2012/10/3,sA Penguin,eng,true,3,9305008,87,65,18,5,2010/7/1,,book,5,6,3,3,1,3.61,289,Kindle Edition,,1,0,Sarah Lotz,,,,,,66,1,1,fiction
17282501,1481073915,Arabelle's Shadows,9781481073912,,,,ES,2012/11/25,CreateSpace Independent Publishing Platform,eng,false,3,17282501,143,213,61,46,2012/11/15,,book,9,27,14,7,4,3.49,268,Paperback,,49,39,Fleur Gaskin,,,,,,52,10,4,"adult,adult-fiction,amazon,autobiography,contemporary,dark,drama,inspirational,lgbt,new-adult"
17283001,,Impacto económico y organizativo de las nuevas especialidades de enfermería,9788439379379,,,,ES,2007/1/1,Agència d'Avaluació de Tecnologia i Recerca Mèdiques de Cataluña,spa,false,1,17283001,0,0,0,0,2007/1/1,Impacto económico y organizativo de las nuevas especialidades de enfermería,book,0,0,0,0,0,0.00,181,Paperback,,0,0,"Laia Pellejà Adalid,Lena Ferrús Estopà,Mireia Subirana Casacuberta",,,,,,,0,,
17283501,4862371213,Le Rose di Versailles Vol. 4,9784862371218,,,,ES,2008/1/1,d/visual,ita,false,4,7877373,276,763,179,2,1973/8/20, ベルサイユのばら 4,book,88,58,26,6,1,4.26,320,Paperback,,14,0,Riyoko Ikeda,,,,,,58,4,,"classics,comics,fiction,france,historical-fiction,manga,romance"
17284501,,The Window (I Know Where They Went) (Audiobook),,B0097F5284,,,ES,2012/9/6,Dana Hollister,eng,false,1,17284501,1,0,0,0,2012/9/6,,book,0,0,0,0,0,0.00,,Audiobook,,0,0,Dana Hollister,,,,,,,0,,
17285501,,First Course In Algebra,,,,,ES,1945/1/1,American Book Company,eng,false,1,17285501,1,5,1,1,1933/1/1,First Course in Algebra,book,1,0,0,0,0,5.00,400,Hardcover,Second,1,1,"Walter F. Downey,William James Milne",,,,,,,0,,
17286001,,Anna Seghers. Ein Porträt.,9783746671024,,,,ES,2012/1/1,atb,ger,false,1,17286001,4,7,2,0,2012/1/1,,book,0,1,1,0,0,3.50,207,,,2,0,Wilhelm von Sternburg,,,,,,1,0,,
17286501,0439586534,I Can Draw,9780439586535,,,,ES,2003/1/1,scholastic,eng,false,2,17286501,9,0,0,0,2003/1/1,,book,0,0,0,0,0,0.00,8,Paperback,,0,0,Deborah Schecter,,,,,,3,1,,
17287001,1623360854,Inches Off! Your Butt and Thighs: Discover the New 5-Minute Formula for a Slimmer You in 6 Days,9781623360856,,,,ES,2014/4/22,Rodale Books,,false,1,17287001,3,5,1,0,2013/12/24,,,1,0,0,0,0,5.00,288,Paperback,,1,0,Jorge Cruise,,,,,,3,0,,
17287501,,Nero Wolfe: Eeny Meeny Murder Mo,,B00AJB3VMO,,,ES,2012/1/1,Amazon,,true,2,1025085,231,638,149,4,1999/1/1,A Nero Wolfe Mystery: Eeny Meeny Murder Mo,book,68,56,24,1,0,4.28,68,Kindle Edition,,9,2,Rex Stout,,,,,,57,2,,"crime,detective,mystery"
17288001,,Tokyo Doll,,,,,ES,1953/1/1,Fawcett Gold Medal,eng,false,5,2556688,19,24,7,1,1953/1/1,Tokyo Doll,,1,3,1,2,0,3.43,160,Mass Market Paperback,,2,0,John McPartland,,,,,,8,1,,fiction
17288501,0091106303,Sounding Brass,9780091106300,,,,ES,1972/1/1,Hutchinson Universal Book Club,eng,false,2,17288501,5,2,1,1,1926/1/1,,book,0,0,0,1,0,2.00,254,Hardcover,,0,0,Ethel Mannin,,,,,,3,1,,
17289001,,Følg meg,9788202395995,,,,ES,2012/10/22,Cappelen damm,nor,false,1,17289001,5,7,2,0,2012/10/22,,book,0,1,1,0,0,3.50,262,Hardcover,,2,0,Nils Gullak Horvei,,,,,,2,0,,"contemporary,fiction"
17289501,,Design Gráfico em Portugal - Formas e Expressões da Cultura Visual do séc. XX,9789722417167,,,,ES,2012/4/1,Livros Horizonte,por,false,1,17289501,11,6,2,0,2012/4/1,,book,0,0,2,0,0,3.00,328,Paperback,,2,0,Margarida Fragoso,,,,,,3,0,,
17290001,,S Tinom: Sjećanja 1945-1955,,,,,ES,2007/1/1,Prometej,,false,1,17290001,2,5,1,0,2007/1/1,,book,1,0,0,0,0,5.00,182,Hardcover,,1,0,Ante Ujević,,,,,,,0,,
17290501,1613755279,A Revelation in Autumn,9781613755273,,,,ES,2013/6/1,Oasis Audio,,false,6,15812379,1881,4116,984,94,2013/6/1,,book,460,311,160,39,14,4.18,2,Audio CD,,3,0,Wanda E. Brunstetter,,,,,Heather Henderson,294,23,19,"adult,christian,christian-fiction,family,fiction,love,novella,religion,romance,young-adult"
17291001,1280059206,The Self and Memory,9781280059209,,,,ES,2004/11/18,Psychology Press,,true,7,20222818,0,0,0,0,2004/1/1,,,0,0,0,0,0,0.00,336,ebook,,0,0,,,,"Denise R. Beike,Douglas A. Behrend,James Michael Lampinen",,,,0,,
17291501,1280158263,A Lexicon of Economics,9781280158261,,,,ES,1988/1/1,Routledge,,true,8,3665581,2,0,0,0,1988/1/1,A Lexicon of Economics (Social Science Lexicons),,0,0,0,0,0,0.00,,ebook,,0,0,,,,"Jessica Kuper,Phyllis Deane",,,1,0,,economics
17292001,1280268514,Abolition and Its Aftermath in the Indian Ocean Africa and Asia,9781280268519,,,,ES,2005/1/3,Routledge,,true,8,3429346,8,0,0,0,2004/1/1,"Abolition and Its Aftermath in the Indian Ocean, Africa and Asia (Studies in Slave and Post-Slave Societies and Cultures)",,0,0,0,0,0,0.00,256,ebook,,0,0,,,,Gwyn Campbell,,,8,0,,
17293001,,رساله‌ی حقوق امام سجّاد,9789648732009,,,,ES,2008/1/5,مؤسسه‌ی انتشاراتِ حضور,per,false,1,17293001,11,17,4,1,2008/1/5,,book,3,0,0,1,0,4.25,80,Paperback,pocketbook,4,1,علی‌بن‌الحسین (ع)‏,,,,احمد رنجبری,,6,0,,
17293501,,Angel Hunt Vol. 1,,,,,ES,2003/12/1,m&c!,ind,false,2,17293501,24,25,7,0,2002/1/1,エンジェル〓ハント (1) (ちゃおフラワーコミックス),book,2,1,3,1,0,3.57,,Paperback,,7,0,Miyuki Obayashi,,,,,,9,0,1,comics
17294501,1478363061,Briefings from a Doctor's Foxhole,9781478363064,,,,ES,2013/1/15,Createspace Independent Publishing Platform,,false,1,17294501,1,0,0,0,2013/1/15,,,0,0,0,0,0,0.00,240,Paperback,,0,0,M Colin Jordan,,,,,,1,0,,
17295001,1481708163,Mom's New Testament Bible Stories: Heroes and Scoundrels,9781481708166,,,,ES,2013/1/17,Authorhouse,,false,2,17295001,0,0,0,0,2013/1/17,,,0,0,0,0,0,0.00,72,Paperback,,0,0,Shirley Fillmore Ness,,,,,,,0,,
17295501,,Todas las miradas del mundo,9788483654583,,,,ES,2013/1/16,Suma de letras,spa,false,3,17295501,8,14,5,1,2013/1/16,,book,0,1,3,0,1,2.80,320,Paperback,,5,1,Miguel Mena,,,,,,3,0,,
17296001,1847304052,The Boy in the Bubble: Education as Personal Relationship,9781847304056,,,,ES,2012/11/29,Veritas Books (IE),en-GB,false,3,17296001,12,8,2,0,2012/11/29,,book,0,2,0,0,0,4.00,201,Paperback,,1,0,Mark Patrick Hederman,,,,,,7,0,,"education,non-fiction"
17296501,3954725843,Il Pantegan,9783954725847,,,,ES,2013/1/13,Antigonos,,false,4,17296501,0,0,0,0,2013/1/13,,,0,0,0,0,0,0.00,62,Paperback,,0,0,Victor Hadwiger,,,,,,,0,,
17297001,0252093925,A People's History of Baseball,9780252093920,,,,ES,2014/5/14,University of Illinois Press,,true,5,13222568,103,142,40,7,2012/1/1,,,3,20,14,2,1,3.55,298,ebook,,0,0,Mitchell Nathanson,,,,,,53,2,2,"history,non-fiction,sports"
17297501,0717156648,"Step Into Writing: Your Guide to Writing, Punctuation and Grammar",9780717156641,,,,ES,2013/4/5,Gill Education,,false,1,17297501,0,0,0,0,2013/3/29,,,0,0,0,0,0,0.00,224,Paperback,,0,0,William John Casey,,,,,,,0,,
17298001,425321326X,Clover Volume 6,,,,,ES,2008/7/8,Akita Shoten,jpn,false,2,17298001,15,44,10,0,2008/7/8,,book,5,4,1,0,0,4.40,,,,9,0,Tetsuhiro Hirakawa,,,,,,3,4,,"humor,manga"
17298501,1118651014,Capture One Pro 7: The Official Guide,9781118651018,,,,ES,2014/3/31,Wiley,,false,4,17298501,0,0,0,0,2013/7/29,,,0,0,0,0,0,0.00,288,Paperback,,0,0,Michael Corsentino,,,,,,,0,,
17299001,1436207282,This Thing Called You,9781436207287,,,,ES,2007/12/27,Tarcher,,true,15,161111,1079,1727,384,31,1956/1/1,This Thing Called You,,238,111,24,10,1,4.50,192,ebook,,0,0,Ernest Holmes,,,,,,498,16,117,"christian,christianity,classics,inspirational,non-fiction,personal-development,philosophy,psychology,self-help,spirituality"
17299501,1459717759,Flying Canucks II: Pioneers of Canadian Aviation,9781459717756,,,,ES,2016/2/22,Dundurn,,true,4,2801660,4,13,3,1,1997/9/29,Flying Canucks II: Pioneers of Canadian Aviation,,1,2,0,0,0,4.33,144,ebook,,0,0,Peter Pigott,,,,,,,0,,history
17300001,1481087134,Rembrandt's Ghost in the New Machine,9781481087131,,,,ES,2012/12/1,Createspace,,false,2,17300001,0,0,0,0,2012/12/17,,,0,0,0,0,0,0.00,434,Paperback,,0,0,Bill H. Ritchie,,,,,,,0,,
17300501,1612477089,Creature,9781612477084,,,,ES,2013/5/1,"Saddleback Educational Publishing, Inc.",,true,1,17300501,0,0,0,0,2013/5/1,,,0,0,0,0,0,0.00,51,ebook,,0,0,,,,Saddleback Educational Publishing,,,,0,,
17301001,1842175297,Celtic from the West 2: Rethinking the Bronze Age and the Arrival of Indo-European in Atlantic Europe,9781842175293,,,,ES,2013/1/31,Oxbow Books Limited,,false,2,17301001,41,61,14,3,2013/4/1,,,5,9,0,0,0,4.36,237,Hardcover,,14,3,,,,John T. Koch,,,26,0,,history
17301501,7770870704,The Wisdom of Your Dreams,,,,,ES,2009/10/15,Tarcher,,true,5,7008467,189,390,94,9,2009/1/1,,,41,32,16,4,1,4.15,352,ebook,,1,0,Jeremy  Taylor,,,,,,58,7,23,"non-fiction,personal-development,reference,school"
17302001,,Love On The Rocks (and other romantic short stories),,B009UWZNF6,,,ES,2012/10/21,SoundHaven.com,en-GB,true,1,17302001,11,11,3,1,2012/10/21,,book,1,1,0,1,0,3.67,47,Kindle Edition,,3,1,Della Galton,,,,,,7,0,,
17302501,,A Morte do Brasil,9788573587289,,,,ES,2007/8/1,Editora Leitura,por,false,2,17302501,12,13,4,0,1984/1/1,A Morte do Brasil,book,0,1,3,0,0,3.25,207,Paperback,3ª Edição,4,0,Lêdo Ivo,,,,,,6,1,,
17303001,,"The Blue Dolphin (Desert Heat, #2)",,BooB507J4U,,,ES,2013/1/24,The Wild Rose Press,eng,true,4,17986318,315,146,41,10,2013/1/24,The Blue Dolphin,book,12,12,9,3,5,3.56,285,Kindle Edition,Amazon KDP Select,10,3,Robena Grant,,,,,,256,7,1,"chick-lit,crime,romance,suspense"
17303501,,A Red Carpet for the Sun,,,,,ES,1959/1/1,McClelland & Stewart,,false,1,17303501,16,22,6,1,1959/1/1,A Red Carpet for the Sun,book,1,3,1,1,0,3.67,,,,6,1,Irving Layton,,,,,,9,0,,poetry
17304001,,Thirty Six Hours of Hell,,,,,ES,1988/1/1,,eng,false,1,17304001,5,4,1,1,1988/1/1,,book,0,1,0,0,0,4.00,,Hardcover,,1,1,E.N. Coons,,,,,,3,0,,autobiography
17305001,9751603560,Kâtip Çelebi: Hayatı ve Eserleri Hakkında İncelemeler,,,,,ES,1991/1/1,Türk Tarih Kurumu,tur,false,1,17305001,9,8,2,0,1991/1/1,,book,1,0,1,0,0,4.00,225,Paperback,,2,0,,,"A. Süheyl Ünver,Bedi N. Şehsuvaroğlu,Hasan Âli Yücel,Hilmi Ziya Ülken,Hâmit Sadi Selen,M. Tayyib Gökbilgin,Mükrimin Halil Yinanç",,,,3,0,,
17305501,,ในหลวง ร.7 กับ ปรีดี พนมยงค์,9786167431956,,,,ES,2012/1/1,"ปราชญ์, สนพ.",tha,false,1,17305501,20,27,9,2,2012/1/1,,book,1,3,2,1,2,3.00,208,Paperback,1,9,2,"เปรมศักดิ์ เพียยุระ, ดร.น.พ.",,,,,,11,0,,
17306001,,"Gramática, vocabulario, catecismo i confesionario de la lengua chibcha: Segun antiguos manuscritos anónimos e ineditos, aumentados i correjidos",9781110971671,,,,ES,2009/1/1,BiblioLife,spa,false,1,17306001,3,0,0,0,1871/1/1,,book,0,0,0,0,0,0.00,252,Paperback,Print on demand,0,0,Ezequiel Uricoechea,,,,,,1,0,,
17306501,,Wajah Agama di Media,,,,,ES,2010/10/1,Lembaga Studi Pers dan Pembangunan (LSPP),ind,false,1,17306501,8,8,2,1,2010/10/1,,book,0,2,0,0,0,4.00,145,Paperback,,2,1,Hanif Suranto,,,,,,2,0,2,
17307001,,Wilde Iris,2940016035291,,,,ES,,,eng,true,2,17307001,4,20,4,0,2013/1/20,,book,4,0,0,0,0,5.00,,,Nook book,3,0,April Nugent,,,,,,,0,,
17307501,1841593540,"They Were Found Wanting - They Were Divided (The Transylvania Trilogy, #2-3)",9781841593548,,,,ES,2013/5/31,Everyman,eng,false,5,16071755,350,332,73,13,1940/1/1,És hijjával találtattál - Darabokra szaggattatol,book,44,25,4,0,0,4.55,800,Hardcover,,3,1,Miklós Bánffy,,,,"Kathy Bánffy-Jelen,Patrick Thursfield",,257,5,6,"classics,fiction,historical,historical-fiction,history,literature"
17308001,144816401X,Star Wars: The New Jedi Order - Star By Star,9781448164011,,,,ES,2012/11/30,Cornerstone Digital,,true,20,35448,11813,32105,8136,132,2001/10/30,"Star by Star (Star Wars: The New Jedi Order, #9)",book,2946,2631,1932,428,199,3.95,640,ebook,,45,1,Troy Denning,,,,,,1896,37,52,"adventure,fantasy,fiction,novels,science,science-fiction,science-fiction-fantasy,speculative-fiction"
17308501,1448152119,The Rowan,9781448152117,,,,ES,2012/7/31,Transworld Digital,,true,34,61938,20621,59138,14674,364,1990/1/1,,book,5551,4995,3256,763,109,4.03,320,ebook,,4,2,Anne McCaffrey,,,,,,2671,61,57,"adult,adventure,aliens,epic-fantasy,fantasy,fiction,magic,novels,paranormal,romance,science,science-fiction,science-fiction-fantasy,speculative-fiction,young-adult"
17309001,1448111862,My Movie Business,9781448111862,,,,ES,2012/5/10,Transworld Digital,,true,21,7071,2250,3997,1199,62,1999/1/1,My Movie Business: A Memoir,book,128,361,519,165,26,3.33,160,ebook,,0,0,John Irving,,,,,,802,7,5,"biography,biography-memoir,drama,film,humor,memoir,movies,non-fiction"
17309501,1409010511,Girl from the South,9781409010517,,,,ES,2010/10/8,Transworld Digital,eng,true,42,201229,2135,4016,1342,138,2002/6/3,Girl from the South,book,86,282,593,298,83,2.99,352,ebook,,1,0,Joanna Trollope,,,,,,357,14,23,"adult-fiction,american,chick-lit,contemporary,drama,family,fiction,novels,psychology,relationships,romance,travel"
17310001,,"Mercy, A Gargoyle Story",,B00AGVN22Q,,,ES,2012/12/1,,en-GB,true,3,16153325,405,236,56,34,2010/12/1,,book,26,20,7,2,1,4.21,175,Kindle Edition,,4,3,Misty Paquette / Misty Provencher,,,,,,330,15,1,"angels,dark,fantasy,new-adult,paranormal,supernatural,urban-fantasy,young-adult"
17310501,,the light of a distant star,,,,,ES,,,,false,3,17310501,11,18,5,1,1964/1/1,,book,1,3,0,0,1,3.60,,,,4,1,Alexander Chakovsky,,,,,,1,0,,
17311001,,"Glimpses of Unfamiliar Japan, Vol.2",,,,,ES,1895/1/1,"The Riverside Press (Houghton, Mifflin and Company)",eng,false,49,6328911,61,69,17,2,1894/1/1,"Glimpses of Unfamiliar Japan, Second Series",book,6,6,5,0,0,4.06,,,,0,0,Lafcadio Hearn,,,,,,26,2,5,"classics,history,non-fiction,travel"
17311501,,"Angelfall (Penryn & the End of Days, #1)",9781451781038,,,,ES,2012/1/1,Amazon Children's Publishing,eng,false,74,15863832,386229,608342,146010,14866,2011/5/21,Angelfall,book,68630,46275,21401,6185,3519,4.17,283,Hardcover,First Edition,26,12,Susan Ee,,,,,,217558,1705,2804,"action,adventure,angels,dark,demons,dystopia,fantasy,fiction,horror,love,mythology,new-adult,paranormal,post-apocalyptic,romance,science-fiction,supernatural,survival,teen,urban-fantasy,young-adult"
17312001,,Familiar Scars,,B009QAFRZI,,,ES,2012/10/12,Good Mourning Publishing,en-GB,true,2,6550857,792,321,81,27,2009/5/14,Familiar Scars,book,36,20,15,6,4,3.96,178,Kindle Edition,,1,0,Christy Leigh Stewart,,,,,,679,11,,"adult-fiction,contemporary,fiction,historical,historical-fiction,horror,modern,research,romance,victorian,young-adult"
17312501,,Die 50 schönsten Märchen der Gebrüder Grimm,,,,,ES,2012/1/1,,ger,false,1,17312501,4,7,2,0,,,,1,0,0,1,0,3.50,,Audiobook,,2,0,"Jacob Grimm,Jürgen Fritsche,Wilhelm Grimm",,,,,,1,0,1,
17313001,,The Rebel and Miss Jones,9780373068753,,,,ES,2013/2/1,Harlequin,,false,7,17138730,24,23,7,2,2013/1/1,,,3,0,1,2,1,3.29,,Paperback,,0,0,Annie Claydon,,,,,,10,2,1,
17313501,,The Pilgrim's Progress,,,,,ES,1900/1/1,A.L. Burt Company,eng,false,1269,29797,165483,364761,91473,2711,1678/1/1,The Pilgrim's Progress,book,39469,24763,17254,6615,3372,3.99,345,Hardcover,,6,1,John Bunyan,,,,,,58305,600,5382,"adult,adult-fiction,adventure,british-literature,christian,christian-fiction,christianity,classic-literature,classics,english-literature,faith,fantasy,fiction,historical-fiction,history,inspirational,literature,non-fiction,novels,philosophy,poetry,religion,school,spirituality,theology,unfinished,young-adult"
17314501,,Twenty-One Stories,,,,,ES,1981/1/1,Penguin Books,eng,false,26,48865,1809,3325,873,92,1954/1/1,Twenty-one Stories,book,194,381,244,45,9,3.81,200,Paperback,,28,4,Graham Greene,,,,,,619,15,82,"british-literature,classics,collections,dark,fiction,literary-fiction,literature,modern-classics,mystery,romance,short-stories"
17315001,,"""Chez Alì""",9788863074819,,,,ES,2013/1/1,0111 Edizioni,ita,false,1,17315001,1,0,0,0,2013/1/1,Chez Alì,book,0,0,0,0,0,0.00,180,Paperback,1,0,0,Martina Fragale,,,,,,,0,,
17315501,,"Out of Circulation (Cat in the Stacks Mystery, #4)",,B0095ZP1AU,,,ES,2013/1/29,Penguin Publishing,en-US,true,10,15808812,4159,9122,2250,274,2012/12/31,,book,755,943,485,53,14,4.05,304,Kindle Edition,,319,12,Miranda James,,,,,,1243,31,104,"adult-fiction,american,animals,contemporary,cozy-mystery,crime,fiction,mystery,mystery-thriller"
17316501,3423100087,Die Tennisspieler,9783423100083,,,,ES,1982/8/1,Deutscher Taschenbuch Verlag,ger,false,10,951030,308,666,174,15,1977/1/1,Tennisspelarna,book,43,76,41,10,4,3.83,101,Paperback,dtv 10008,6,0,Lars Gustafsson,,,,,,95,1,4,"biography,fiction,literature,novels,sports"
17317001,,Mensen in een grot: Beschouwingen over een allegorie van Plato,9789026306242,,,,ES,1983/1/1,Ambo,nl,false,1,17317001,11,11,3,0,1983/1/1,,book,1,0,2,0,0,3.67,216,Paperback,,3,0,Cornelis Verhoeven,,,,,,7,1,,"non-fiction,philosophy"
17317501,9531956162,Čokoladne godine,9789531956161,,,,ES,2006/1/1,"Znanje, Zagreb",scr,false,2,17317501,24,44,11,0,2006/1/1,,book,5,2,3,1,0,4.00,158,Hardcover,Biblioteka Stribor,11,0,Mladen Kopjar,,,,,,7,0,1,"childrens,humor"
17318001,,Pérolas dão azar,,,,,ES,,Edições Bestbolso,por,false,14,1343251,472,849,226,17,1950/1/1,Pearls Are a Nuisance,book,52,90,66,13,5,3.76,350,,,2,0,Raymond Chandler,,,,,,173,6,10,"american,classics,collections,crime,detective,fiction,literature,mystery,mystery-thriller,novels,short-stories"
17318501,1849434905,The Empress,9781849434904,,,,ES,2013/8/27,Oberon Books,,false,2,17318501,13,18,4,1,2013/4/11,,,2,2,0,0,0,4.50,96,Paperback,,3,1,Tanika Gupta,,,,,,4,0,,plays
17319001,,Gearhearts Steam-punk Glamor Revue (#5),,,,,ES,2012/11/1,AP Entertainment,eng,false,1,17319001,2,0,0,0,2012/11/1,,book,0,0,0,0,0,0.00,32,Paperback,,0,0,Patricia Ash,,,,,,2,0,,
17319501,1846823536,"William Steuart Trench and His Management of the Digby Estate, King's County, 1857-71",9781846823534,,,,ES,2012/9/13,Four Courts Press,eng,false,1,17319501,0,0,0,0,2012/9/13,,book,0,0,0,0,0,0.00,56,Paperback,,0,0,Mary Delaney,,,,,,,0,,
17320001,8763002434,Against the Grain: Advances in Postcolonial Organization Studies,9788763002431,,,,ES,2012/1/1,Copenhagen Business School Press,,false,2,17320001,3,5,1,0,2012/1/1,,,1,0,0,0,0,5.00,320,Paperback,,1,0,,,,Anshuman Prasad,,,2,0,,
17320501,0263233502,Swallowbrook's Wedding of the Year,9780263233506,,,,ES,2013/2/1,Mills & Boon,,false,10,17312982,46,36,12,2,2013/1/1,,book,2,2,3,4,1,3.00,,Hardcover,,0,0,Abigail Gordon,,,,,,23,0,2,"harlequin,romance"
17321001,057511570X,Crysis: Escalation,9780575115705,,,,ES,2013/2/21,Gollancz,en-GB,false,5,17321001,210,220,62,6,2013/2/21,,book,14,16,24,6,2,3.55,294,Hardcover,,51,6,Gavin G. Smith,,,,,,124,3,3,"fiction,science-fiction"
17321501,0826195563,Evaluation and Testing in Nursing Education,9780826195562,,,,ES,2013/2/11,Springer Publishing Company,,true,16,15864382,60,136,35,2,1996/6/1,,book,13,10,7,5,0,3.89,440,ebook,4th Edition,0,0,"Kathleen B. Gaberson,Marilyn H. Oermann",,,,,,3,0,8,"education,reference,teaching"
17322001,0985518022,Exit Strata: Print! Vol. 2,9780985518028,,,,ES,2013/1/4,Exit Strata,,false,1,17322001,2,4,1,0,2013/1/4,,,0,1,0,0,0,4.00,94,Paperback,,1,0,,,,"Benjamin Wiessner,D.A. Wright,Lynne Desilva-Johnson",,,,0,,
17322501,1133942776,Mindscapes : Instructor's Manual with Test Bank,9781133942771,,,,ES,2013/1/1,Cengage Learning,eng,false,1,17322501,5,4,1,0,2013/1/1,,book,0,1,0,0,0,4.00,,Paperback,2nd edition,1,0,Christine Evans Carter,,,,,,4,0,,
17323001,1409409171,The International Criminal Court and National Courts: A Contentious Relationship,9781409409175,,,,ES,2011/2/1,Ashgate Publishing,,true,8,17352206,0,0,0,0,2011/1/1,,,0,0,0,0,0,0.00,332,ebook,,0,0,Nidal Nabil Jurdi,,,,,,,0,,
17323501,1432105884,Journal - Cream Croc - Faith,9781432105884,,,,ES,2013/3/1,Christian Art Gifts,,false,1,17323501,0,0,0,0,2013/3/7,,,0,0,0,0,0,0.00,,Unknown Binding,,0,0,,,,,,,,0,,
17324001,1447211014,The Greengage Summer,9781447211013,,,,ES,2013/2/1,Pan Publishing,eng,false,26,897867,3165,5940,1479,170,1958/1/1,The Greengage Summer,book,457,656,307,51,8,4.02,208,Paperback,,32,6,Rumer Godden,,,,,,1325,24,107,"british-literature,childrens,classics,crime,fiction,france,historical,historical-fiction,history,literary-fiction,literature,modern-classics,mystery,novels,realistic-fiction,teen,travel,young-adult"
17324501,1464401063,Unsinkable!: The Titanic Shipwreck,9781464401060,,,,ES,2012/8/1,Enslow Publishers,,false,4,24847818,2,0,0,0,2012/8/1,,,0,0,0,0,0,0.00,48,Paperback,,0,0,Michael D. Cole,,,,,,,0,,
17325001,1475972296,The Civil Servant: A Personal Story of an American Immigrant,9781475972290,,,,ES,2013/1/28,iUniverse,,true,2,17366560,0,0,0,0,2013/1/28,,,0,0,0,0,0,0.00,,ebook,,0,0,Maria Consoli Toulas,,,,,,,0,,
17325501,1479779830,Quagmires of Life,9781479779833,,,,ES,2013/1/30,Xlibris Corporation,,false,3,17325500,1,4,1,0,2013/1/30,,,0,1,0,0,0,4.00,126,Hardcover,,0,0,Imoh Essien,,,,,,,0,,
17326001,1481180010,Finding Mr. Right or Beat One Into Submission,9781481180016,,,,ES,2012/12/7,Createspace Independent Publishing Platform,,false,1,17326001,0,0,0,0,2012/12/7,,,0,0,0,0,0,0.00,26,Paperback,,0,0,Rebecca Haynes,,,,,,,0,,
17326501,148190860X,Space Wolf,9781481908603,,,,ES,2013/2/1,Createspace Independent Publishing Platform,,false,2,17326501,5,6,3,1,2013/2/1,,,0,1,0,0,2,2.00,248,Paperback,,2,1,Burley Ward,,,,,,2,0,,science-fiction
17327001,1608080757,Fine Lines Winter 2012/2013,9781608080755,,,,ES,2013/1/30,Writelife,,false,1,17327001,1,4,1,0,2013/1/30,,,0,1,0,0,0,4.00,208,Paperback,,1,0,,,,David Martin,,,,0,,
17327501,1622577396,Proline,9781622577392,,,,ES,2013/4/22,Nova Science Publishers,,false,1,17327501,0,0,0,0,2013/3/1,,,0,0,0,0,0,0.00,169,Hardcover,,0,0,Bouzid Nedjimi,,,,,,,0,,
17328001,,Grimm Fairy Tales Vol. 5,,,,,ES,2012/5/30,Zenescope Entertainment,eng,true,4,6380571,839,2009,516,21,2009/4/21,Grimm Fairy Tales Volume 5,book,179,150,150,27,10,3.89,176,ebook,Comixology,7,1,"Dan Wickline,Joe Brusha,Linda  Ly,Michael Dolce,Ralph Tedesco,Raven Gregory","Claudio Sepulveda,Dean Juliette,Jeff Zornow,Mauro,Vic Drujiniu",,,,,18,11,3,"adult,comics,crime,drama,fairy-tales,fantasy,fiction,graphic-novels,graphic-novels-comics,horror,humor,magic,manga,time-travel,young-adult"
17328501,1847163297,Finding Asperger Syndrome in the Family,9781847163295,,,,ES,2013/2/1,Emerald Publishing,,false,1,17328501,1,0,0,0,2013/2/1,,,0,0,0,0,0,0.00,124,Paperback,,0,0,Clare Lawrence,,,,,,1,0,,
17329001,1902604369,Drag's Birthday Surprise: A Tiberius Story,9781902604367,,,,ES,2013/1/1,Tiberius Publishing Ltd,,true,2,22279291,1,0,0,0,2008/8/1,,book,0,0,0,0,0,0.00,36,ebook,,0,0,Keith W. Harvey,,,,,,1,0,,
17329501,1938682181,Small Bites: Life Lessons - 3.0: One Bite at a Time,9781938682186,,,,ES,2012/12/6,Life in Small Bites,,false,1,17329501,0,0,0,0,2012/12/6,,book,0,0,0,0,0,0.00,264,Paperback,,0,0,James G. Yarbrough Jr.,,,,,,,0,,
17330001,7770818028,"When It Feels So Right (The Buchanans of Alaska, #1)",,,,,ES,2009/9/1,Harlequin Presents,eng,true,9,6358331,169,319,77,4,2009/1/1,When It Feels So Right,book,37,22,12,4,2,4.14,224,ebook,,2,0,Celeste O. Norfleet,,,,,,14,2,1,"american,harlequin,romance"
17330501,,Wendi Wlanog a Lili'r Wyddfa,,,,,ES,,,,false,2,23267779,1,0,0,0,,,book,0,0,0,0,0,0.00,,,,0,0,"Sian Lewis, Fran Evans",,,,,,,0,,
17331001,1847667139,Changing the Terms of Trusts: Second Edition,9781847667137,,,,ES,2014/1/31,Tottel Publishing,,false,1,17331001,1,0,0,0,2014/1/31,,,0,0,0,0,0,0.00,400,Hardcover,,0,0,Emily Campbell,,,,,,1,0,,
17331501,0062283766,Eventide (The Days of Redemption #3),9780062283764,,,,ES,2013/9/3,HarperAudio,,false,7,17349171,1471,1828,434,67,2013/9/3,Eventide,book,187,164,72,10,1,4.21,,Audiobook,,2,1,Shelley Shepard Gray,,,,,,322,15,21,"adult,christian,christian-fiction,contemporary,fiction,inspirational,love-story,romance"
17332001,,"The Haunted Fixer Upper (Haunted Renovation Mystery, #2)",2940016021317,,,,ES,2013/1/21,Rose Pressey,eng,true,2,15998489,1235,2022,508,49,2013/1/20,,book,177,182,119,22,8,3.98,,,,2,1,Rose Pressey,,,,,,529,28,106,"cozy-mystery,fantasy,fiction,ghosts,mystery,mystery-thriller,paranormal,suspense"
17332501,,"Losing Better (Superpowered Love, #4)",9781623002008,,,,ES,2013/2/5,Loose Id,eng,true,5,17332501,191,200,58,8,2013/2/5,Losing Better,book,11,16,21,8,2,3.45,175,ebook,,57,8,Katey Hawthorne,,,,,,95,9,2,"contemporary,fantasy,gay,menage,paranormal,romance,superheroes,urban-fantasy"
17333001,9519135030,"Herrasväen ja työläisten kaupunki (Helsingin vanhoja kortteleita, #2)",,,,,ES,,Helsingin sanomat,fin,false,1,17333001,3,4,1,0,1983/1/1,Herrasväen ja työläisten kaupunki,book,0,1,0,0,0,4.00,287,Hardcover,,1,0,"Kaija Nenonen,Kirsti Toppari",,,,,,2,0,,non-fiction
17333501,1478924799,Outlaw,9781478924791,,,,ES,2013/10/22,Center Street,,false,15,17333533,7927,10902,2753,318,2013/1/1,Outlaw,book,1036,887,572,200,58,3.96,9,Audio CD,,5,2,Ted Dekker,,,,,,4322,36,134,"adult,adult-fiction,adventure,christian,christian-fiction,contemporary,drama,fantasy,fiction,historical-fiction,inspirational,love,mystery,suspense,thriller"
17334001,1442478314,The Contagious Colors of Mumpley Middle School,9781442478312,,,,ES,2013/9/3,Atheneum Books for Young Readers,,true,5,17138138,189,204,61,20,2013/9/1,,,13,13,22,8,5,3.34,272,ebook,,2,1,Fowler DeWitt,,,,,,111,6,2,"chapter-books,childrens,funny,humor,magic,middle-grade,mystery,school,science,science-fiction,young-adult"
17334501,,Krinitsõ,,,,,ES,1959/1/1,Eesti Riiklik Kirjastus,est,false,1,17334501,1,0,0,0,1959/1/1,,book,0,0,0,0,0,0.00,572,Hardcover,,0,0,Ivan Shamyakin,,,,Otto Samma,,1,0,,
17335001,,winter king,,,,,ES,,,,false,1,17335001,0,0,0,0,,,book,0,0,0,0,0,0.00,,,,0,0,Allen Lane,,,,,,,0,,
17335501,911301370X,"Jag, Claudius: från en självbiografi av Tiberius Claudius, romarnas kejsare, född 10 f.Kr., mördad och upphöjd till gud 54 e.Kr",9789113013701,,,,ES,2004/10/1,Norstedts,swe,false,184,18765,99561,203808,47704,2181,1934/1/1,"I, Claudius",book,23093,16774,6078,1254,505,4.27,496,Hardcover,,5,2,Robert Graves,,,,Louis Renner,,45237,105,1415,"adult,adult-fiction,biography,british-literature,classic-literature,classics,drama,english-literature,fiction,historical,historical-fiction,history,literary-fiction,literature,modern-classics,mythology,non-fiction,novels,politics,unfinished,war"
17336001,,Overcoming blocks and hindrances to hearing God's voice,,,,,ES,,,,false,1,17336001,1,3,1,0,,,book,0,0,1,0,0,3.00,,,,1,0,Mark Virkler,,,,,,,0,,
17336501,,Shit Kickers & Stilettos (Heiresses In Aprons Book 1),,,,,ES,2013/2/5,Rita Sawyer,eng,true,4,19034039,802,1323,344,23,2013/2/4,,book,118,103,84,30,9,3.85,,ebook,,48,9,Rita Sawyer,,,,,,342,16,19,"adult-fiction,amazon,chick-lit,contemporary,death,fiction,romance"
17337001,,Learn How to Knit,,B006T2E5RW,,,ES,2012/1/2,,eng,true,1,17337001,44,33,10,1,2012/1/2,,book,3,1,3,2,1,3.30,25,Kindle Edition,,10,1,Holly Malone,,,,,,32,1,1,
17337501,8717041392,Boost din økonomi: Den uformelle guide til at få styr på kontoen,9788717041394,,,,ES,2011/1/1,Nyt Nordisk Forlag Arnold Busck A/S,dan,false,1,17337501,10,20,6,0,2011/1/1,,book,1,2,1,2,0,3.33,192,Paperback,,6,0,"Alexander Sonne Wulff,Mads Løntoft,Peter Hertz",,,,,,1,1,,"non-fiction,unfinished,young-adult"
17338001,,Aquí sobra la eternidad,,,,,ES,,,,false,1,17338001,1,0,0,0,,,book,0,0,0,0,0,0.00,,,,0,0,Tulio Mora,,,,,,1,0,,
17338501,,"Starchild (Dreaming of Dragons, #1)",,B00BCA7JWY,,,ES,2013/2/6,,en-GB,true,1,17338501,22,24,5,2,2013/2/6,,book,4,1,0,0,0,4.80,,Kindle Edition,1,5,2,Cassidy Raindance,,,,,,16,0,,time-travel
17339001,,Ang Kaibigan ng Dilim,,,,,ES,,Cacho Publishing House,fil,false,1,17339001,82,21,6,1,,,book,1,1,4,0,0,3.50,,Paperback,,6,1,Rene O. Villanueva,Joanne de Leon,,,,,53,0,1,
17339501,8681439191,O zelenom konju : novi lingvistički ogledi,,,,,ES,1995/1/1,Slovograf,srp,false,1,17339501,17,27,6,1,1995/1/1,,book,4,1,1,0,0,4.50,334,,,6,1,Milka Ivić,,,,,,11,1,,
17340001,,One Sin Away...,,B00BADY354,,,ES,2013/2/2,Bapps Media,en-GB,true,1,17340001,16,32,9,1,2013/2/2,,book,2,2,4,1,0,3.56,85,Kindle Edition,,9,1,Bapps Media,,,,,,4,3,,
17340501,,How to Repair a Mechanical Heart,2940015978940,,,,ES,2012/9/21,,eng,true,2,16102490,10464,10686,2708,480,2012/9/21,How to Repair a Mechanical Heart,book,929,1006,544,156,73,3.95,255,ebook,,24,14,J.C. Lillis,,,,,,7261,85,57,"comedy,contemporary,fiction,funny,gay,humor,lgbt,new-adult,queer,realistic-fiction,religion,romance,teen,young-adult"
17341001,8817058599,"Giornata ideale, per un matrimonio",9788817058599,,,,ES,2012/8/1,BUR Rizzoli,ita,false,12,1287594,2565,3833,1141,160,1932/1/1,Cheerful Weather for the Wedding,book,133,368,452,152,36,3.36,133,Paperback,Scrittori contemporanei,9,2,Julia Strachey,,Elisabetta Rasy,,Chiara Gabutti,,1234,35,,"adult,adult-fiction,british-literature,classics,fiction,funny,historical-fiction,humor,literary-fiction,literature,modern-classics,novella,novels,romance"
17341501,,High School Prince,9786021827192,,,,ES,2012/8/10,Zettu,ind,false,1,17341501,50,80,21,5,2012/8/10,High School Prince,book,8,2,10,1,0,3.81,194,Paperback,,21,5,Zachira,,,,,,25,0,2,
17342501,,Higher Education for American Democracy Vol 1,,,,,ES,1947/1/1,,,false,1,17342501,2,0,0,0,1947/1/1,,book,0,0,0,0,0,0.00,103,,,0,0,Zook,,,,,,1,0,,
17343001,,Dny v roce: Básně 1946-1947,,,,,ES,1948/1/1,Fr. Borový,cze,false,1,17343001,14,28,10,1,1948/1/1,Dny v roce,book,1,0,5,4,0,2.80,110,Paperback,,10,1,Jiří Kolář,,,,,,2,1,,"poetry,school"
17343501,,Пропастта на опрощението,9789547612488,,,,ES,,Инфодар,bul,false,1,89184,22812,63205,15731,514,2003/11/27,Absolution Gap,book,5017,6826,3147,634,107,4.02,784,Paperback,,3,0,Alastair Reynolds,,,,,,4430,28,295,"adventure,aliens,epic,fantasy,fiction,horror,novels,religion,science,science-fiction,science-fiction-fantasy,speculative-fiction"
17344001,,Zombie-Kids Go Green (KiteReaders Monster Series),,B00BA9JR36,,,ES,2013/2/2,KiteReaders ,eng,true,1,17344001,60,152,33,19,2013/2/2,,book,25,4,3,1,0,4.61,20,Kindle Edition,,33,19,Julia Dweck,,,,,,19,2,2,"childrens,death,paranormal,picture-books,social-issues,zombies"
17344501,,Fallen Leaves,,,,,ES,2000/1/1,Chronicle Books,eng,false,1,17344501,0,0,0,0,2000/1/1,Fallen Leaves,book,0,0,0,0,0,0.00,120,Hardcover,,0,0,Louise Kollenbaum,,,,,,,0,,
17345001,,Drugost 2/2011,,,,,ES,2011/12/1,"Udruga studenata Inicijativa kulturalnih studija, Rijeka",scr,false,1,17345001,4,5,1,0,2011/12/1,,periodical,1,0,0,0,0,5.00,105,Paperback,,1,0,"Aleksandar Matković,Antonia Banović,Diana Grgurić,Karolina Hrga",,,"Aleta Cvitan,Ana Trcol,Bernard Koludrović,Dunja Matić,Jelena Milić,Josip Potnar,Kristina Smoljanović,Mak Krajina,Renato Stanković,Sanja Franov,Tamara Zec,Tea Tuđa",,,3,0,,
17345501,8721023913,Pladdernakkernes parade - Meningsløse misforståelser for viderekomne,9788721023911,,,,ES,2004/1/1,Borgens Forlag,dan,false,1,17345501,2,6,2,0,1998/1/1,Miljoner missar,book,0,0,2,0,0,3.00,178,Hardcover,"1. udgave, 1.oplag",2,0,Ulf Ivar Nilsson,,,,,,,0,,
17346001,,The Ivori Palms,5800090158811,,,,ES,2012/12/1,Whiskey & Apples Press,eng,false,1,17346001,11,24,6,0,2012/12/1,,book,2,2,2,0,0,4.00,308,Paperback,,6,0,Redding Hunter,,,,,,3,0,,
17346501,,A Quality of Mercy,,B0000CKZT0,,,ES,1961/1/1,Chatto & Windus,,false,1,17346501,3,0,0,0,1961/1/1,,book,0,0,0,0,0,0.00,206,Hardcover,,0,0,Paul West,,,,,,2,0,,
17347001,0987467409,Jump Start PHP,9780987467409,,,,ES,2013/10/10,SitePoint,,false,1,17347001,11,7,3,0,2013/5/22,,,0,0,2,0,1,2.33,150,Paperback,,3,0,Timothy Boronczyk,,,,,,5,0,,
17347501,1454906480,Large Print Easy Monday Crosswords #2,9781454906483,,,,ES,2013/9/3,Puzzlewright,,false,1,17347501,4,16,4,0,2013/9/3,,,2,1,0,1,0,4.00,288,Paperback,,4,0,,,,Peter     Gordon,,,,0,,
17348001,,Ciudad de cristal,9786078126514,,,,ES,2011/11/1,Anagrama,spa,false,36,432,22301,49847,13130,829,1985/1/1,City of Glass,book,3461,5103,3282,1000,284,3.80,163,Paperback,Primera edición mexicana,13,0,Paul Auster,,,,,,6347,66,205,"adult,adult-fiction,american,classics,college,contemporary,crime,detective,fiction,graphic-novels,literary-fiction,literature,modern,mystery,mystery-thriller,novels,philosophy,school,short-stories,thriller"
17348501,,"The Human Revolution, Volume 2 (The Human Revolution, #2)",9781902056029,,,,ES,2004/1/1,,eng,false,2,7539946,52,139,31,3,1974/1/1,,,18,10,3,0,0,4.48,160,Paperback,,10,1,Daisaku Ikeda,,,,,,14,1,2,spirituality
17349501,0124093760,"Laws, Regulations and Policies Relating to the Care and Use of Nonhuman Primates in Biomedical Research",9780124093768,,,,ES,2012/3/29,Academic Press,,true,1,17349501,0,0,0,0,2012/3/29,,,0,0,0,0,0,0.00,,ebook,,0,0,Christian R. Abee,,,,,,,0,,
17350001,8324578951,"Kuszona (Dom Nocy, #6)",9788324578955,,,,ES,2011/6/1,Książnica,pol,false,66,6262365,212215,572754,144734,3274,2008/10/27,Tempted,book,58305,40795,30994,10427,4213,3.96,392,Paperback,,51,3,"Kristin Cast,P.C. Cast",,,,Iwona Michałowska-Gabrych,,34648,358,1166,"angels,contemporary,fantasy,fiction,high-school,horror,love,magic,mystery,mythology,paranormal,romance,supernatural,teen,urban-fantasy,vampires,young-adult"
17350501,0571300324,The Turn of the Screw,9780571300327,,,,ES,2013/1/17,Faber  Faber,eng,false,2,17350501,7,3,1,0,2013/1/1,,book,0,0,1,0,0,3.00,96,Paperback,,1,0,"Henry James,Rebecca Lenkiewicz",,,,,,5,0,,plays
17351001,0819227196,Good Influence: Teaching the Wisdom of Adulthood,9780819227195,,,,ES,2009/7/1,Morehouse Publishing,,true,4,6815038,93,144,36,7,2009/1/1,,,12,15,6,3,0,4.00,160,ebook,,0,0,Daniel R. Heischman,,,,,,49,1,1,"adult,education,leadership,parenting,self-help"
17351501,1118292189,Pacific Eldorado: A History of Greater California,9781118292181,,,,ES,2013/1/22,Wiley-Blackwell,,true,7,15942725,45,26,8,1,2012/11/29,,,1,3,2,1,1,3.25,440,ebook,,0,0,Thomas J. Osborne,,,,,,26,0,8,
17352001,1300628944,Stephens' Squibs - Florida Family Case Law Updates - 2013 Edition,9781300628941,,,,ES,2013/1/1,Lulu.com,,false,1,17352001,0,0,0,0,2013/1/12,,,0,0,0,0,0,0.00,182,Hardcover,,0,0,Eddie Stephens,,,,,,,0,,
17352501,1433374110,Early Childhood Social Studies,9781433374111,,,,ES,2012/12/13,Teacher Created Materials,,false,1,17352501,0,0,0,0,2012/12/1,,,0,0,0,0,0,0.00,,Paperback,,0,0,,,,,,,,0,,
17353001,145229366X,"Reading for Academic Success, Grades 2-6: Differentiated Strategies for Struggling, Average, and Advanced Readers",9781452293660,,,,ES,2007/8/28,Corwin Publishers,,true,5,1255362,1,4,1,0,2007/7/24,"Reading for Academic Success, Grades 2-6: Differentiated Strategies for Struggling, Average, and Advanced Readers",,0,1,0,0,0,4.00,272,ebook,,0,0,"Harvey F. Silver,Matthew J. Perini,Richard W. Strong",,,,,,,0,,
17353501,1452298645,Teaching in Two Languages: A Guide for K-12 Bilingual Educators,9781452298641,,,,ES,2010/2/18,Corwin Publishers,,true,3,6896780,16,20,6,1,2010/2/23,,,0,3,2,1,0,3.33,200,ebook,,0,0,"Sharon Adelman Reyes,Tatyana Kleyn",,,,,,6,1,,"education,non-fiction"
17354001,1466579692,Biosimilars: Design and Analysis of Follow-On Biologics,9781466579699,,,,ES,2013/7/29,CRC Press,,false,3,17354001,1,0,0,0,2013/1/1,,,0,0,0,0,0,0.00,424,Hardcover,,0,0,Shein-Chung Chow,,,,,,,0,,
17354501,148071013X,Land (Library Bound) (Emergent),9781480710139,,,,ES,2013/6/15,Teacher Created Materials,,false,7,14452365,6,8,2,1,2004/12/1,,,1,0,1,0,0,4.00,12,Hardcover,,0,0,Dona Herweck Rice,,,,,,4,0,,
17355001,1593932324,"I'm Not in Kansas Anymore! Love, Dorothy",9781593932329,,,,ES,2013/2/14,BearManor Media,,false,1,17355001,0,0,0,0,2013/2/14,,,0,0,0,0,0,0.00,312,Paperback,,0,0,Dorothy Dale Kloss,,,,,,,0,,
17355501,1621362086,To Know Him: How Intimacy with God Changes Everything,9781621362081,,,,ES,2013/6/4,Passio,,true,3,16101379,23,30,7,1,2013/6/4,,,4,2,0,1,0,4.29,,ebook,,0,0,Billy Humphrey,,,,,,13,0,2,
17356001,1741153611,The Glory Garage: Growing Up Lebanese Muslim in Australia,9781741153613,,,,ES,2005/7/1,Allen & Unwin,,true,3,1796234,95,142,42,9,2005/7/1,The Glory Garage: Growing up Lebanese Muslim in Australia,,3,16,18,4,1,3.38,192,ebook,,0,0,"Nadia Jamal,Taghred Chandab",,,,,,41,7,1,"faith,non-fiction,religion,young-adult"
17356501,1741768926,Where to See Birds in Victoria,9781741768923,,,,ES,2009/10/1,Allen & Unwin,,true,3,7986856,14,42,9,1,2009/10/1,,,7,1,1,0,0,4.67,192,ebook,,0,0,"Penny Johns,Sally Symonds,Tim Dolby",,,,,,3,0,,reference
17357001,1849052301,Preventing the Emotional Abuse and Neglect of People with Intellectual Disability: Stopping Insult and Injury,9781849052306,,,,ES,2013/6/28,Jessica Kingsley Publishers,,false,4,18610264,6,4,1,0,2013/1/1,,,0,1,0,0,0,4.00,220,Paperback,,0,0,Sally Robinson,,,,,,4,0,,"abuse,non-fiction"
17357501,3037852836,"Numbers, Intelligence, Manufacturing Technology and Machinery Automation",9783037852835,,,,ES,2012/1/1,Trans Tech Publications,,false,1,17357501,0,0,0,0,2012/1/1,,,0,0,0,0,0,0.00,621,Paperback,,0,0,,,Quanjie Gao,,,,,0,,
17358001,3631357966,"Referenzkurse: Anwendungsgebiete, Ermittlungsmethoden, Beurteilungskriterien Am Beispiel Des Devisenmarktes",9783631357965,,,,ES,2000/1/4,"Peter Lang Gmbh, Internationaler Verlag Der Wissenschaften",,false,1,17358001,0,0,0,0,2000/1/4,,,0,0,0,0,0,0.00,249,Paperback,,0,0,Antje Wendler,,,,,,,0,,
17358501,3631366302,Frauenpornographie - Pornographie Von Frauen Fuer Frauen: Eine Kulturwissenschaftliche Studie,9783631366301,,,,ES,2000/7/4,"Peter Lang Gmbh, Internationaler Verlag Der Wissenschaften",,false,1,17358501,0,0,0,0,2000/7/4,,,0,0,0,0,0,0.00,328,Paperback,,0,0,Corinna Rueckert,,,,,,,0,,
17359001,365302188X,Vorstandsvertrag Und Vertragsfreiheit Im Lichte Des Vorstag: Eine Untersuchung Ueber Die Grenzen Der Vertragsfreiheit Bei Der Gestaltung Von Vorstandsvertraegen in Der Aktiengesellschaft,9783653021882,,,,ES,2012/11/22,"Peter Lang Gmbh, Internationaler Verlag Der Wissenschaften",,true,2,17359001,0,0,0,0,2012/10/11,,,0,0,0,0,0,0.00,330,ebook,,0,0,Moritz Muthmann,,,,,,,0,,
17359501,5386021133,Karma. Povernite Koleso Svoej Sud'by. Praktiki Po Izmeneniyu Buduschego,9785386021139,,,,ES,2013/1/10,Book on Demand Ltd.,,false,1,17359501,0,0,0,0,2013/1/10,,,0,0,0,0,0,0.00,354,Paperback,,0,0,Miller Mihail,,,,,,,0,,
17360001,5424157858,Vrachi I Vrachebnoe Delo V Starinnoj Rossii,9785424157851,,,,ES,2013/1/12,Book on Demand Ltd.,,false,1,17360001,0,0,0,0,2013/1/12,,,0,0,0,0,0,0.00,78,Paperback,,0,0,N P Zagoskin,,,,,,,0,,
17360501,542419513X,Kratkaya Istoriya I Geografiya Serbii,9785424195136,,,,ES,2013/1/13,Book on Demand Ltd.,,false,1,17360501,0,0,0,0,2013/1/13,,,0,0,0,0,0,0.00,146,Paperback,,0,0,D Momirovich,,,,,,,0,,
17361001,5458034570,Samopoznanie,9785458034579,,,,ES,2013/1/29,Book on Demand Ltd.,,false,12,3755235,198,358,83,4,1940/1/1,Самопознание. Опыт философской автобиографии,book,41,31,8,2,1,4.31,236,Paperback,,0,0,Nikolai A. Berdyaev,,,,,,82,2,11,"biography-memoir,philosophy,theology"
17361501,545805282X,Vsemirnaya Istoriya Tom IV,9785458052825,,,,ES,2013/1/18,Book on Demand Ltd.,,false,1,17361501,0,0,0,0,2013/1/18,,,0,0,0,0,0,0.00,662,Paperback,,0,0,Fridrih Kristof Shlosser,,,,,,,0,,
17362001,5458097254,Lektsii O Bakteriyah,9785458097253,,,,ES,2013/1/9,Book on Demand Ltd.,,false,1,17362001,0,0,0,0,2013/1/9,,,0,0,0,0,0,0.00,174,Paperback,,0,0,A. De-Bari,,,,,,,0,,
17362501,5488014756,Povtoryaem I Sistematiziruem Shkol'nyj Kurs Algebry I Nachal Analiza,9785488014756,,,,ES,2013/1/28,Book on Demand Ltd.,,false,1,17362501,1,3,1,0,2013/1/28,,,0,0,1,0,0,3.00,418,Paperback,,1,0,Vitalij Semenovich Kramor,,,,,,,0,,
17363001,5785900440,Я послал тебе бересту…,9785785900448,,,,ES,1998/1/1,Iazyki Russkoi Kul'tury,rus,false,1,17363001,12,25,5,1,2013/1/1,,book,5,0,0,0,0,5.00,464,Paperback,,5,1,В.Л. Янин,,А.А. Зализняк,,,,6,1,1,"history,non-fiction"
17363501,5941130171,Карманый татарско-русский и русско-татарский словарь,9785941130177,,,,ES,2007/1/1,ТаРИХ,rus,false,2,3168056,4,5,2,2,1995/1/1,Карманный татарско-русский и русско-татарский словарь / Татарча-русча һәм русча-татарча кесә сүзлеге,,0,0,1,1,0,2.50,19,Hardcover,,1,1,"F.S. Safiullina,Ф.С. Сафиуллина",,,,,,2,0,,
17364001,9781622091,Brenwyd Legacy: Finding Truth,9789781622090,,,,ES,2013/9/10,Believe Books,,false,4,18474695,45,78,19,9,2013/9/10,,book,5,11,3,0,0,4.11,375,Paperback,,0,0,Rosemary Groux,,,,,,24,2,1,fantasy
17365001,,The Good Dog,,,,,ES,2003/1/1,Recorded Books,eng,false,20,121878,6155,14431,3596,228,2001/10/1,The Good Dog,book,1423,1143,763,188,79,4.01,4,Audio CD,,1,0,Avi,,,,,,1861,23,50,"action,adventure,animals,chapter-books,childrens,classics,fantasy,fiction,historical,juvenile,middle-grade,novels,realistic-fiction,school,young-adult"
17365501,1441751297,King of the Jews,9781441751294,,,,ES,2013/4/1,Blackstone Audiobooks,,false,15,1072765,307,343,93,10,1979/1/1,King of the Jews: A Novel,book,27,25,28,11,2,3.69,,Audio CD,,0,0,Leslie Epstein,,,,,,172,4,7,"adult,fiction,grad-school,historical,historical-fiction,humor,literature,non-fiction"
17366001,1467720283,Don't Spill the Milk!,9781467720281,,,,ES,2013/9/1,Andersen Press,eng,false,8,15981716,250,617,159,40,2013/1/1,,book,37,73,43,5,1,3.88,32,Hardcover,First American edition,38,8,,,,,,,30,14,1,"animals,childrens,family,fiction,juvenile,love,nature,picture-books,school"
17366501,1470898624,The Last Kabbalist of Lisbon,9781470898625,,,,ES,2013/7/1,Blackstone Audiobooks,,false,54,887333,5032,9297,2398,234,1996/1/1,"The Last Kabbalist of Lisbon (The Sephardic Cycle, #1)",book,670,992,555,133,48,3.88,14,Audio CD,unabridged edition,3,2,Richard Zimler,,,,,,2041,4,111,"crime,fiction,historical,historical-fiction,history,literature,magical-realism,mystery,religion,romance,suspense,thriller"
17367001,1486199461,"Asiago Greats: Delicious Asiago Recipes, the Top 53 Asiago Recipes",9781486199464,,,,ES,2012/12/4,Emereo Publishing,,false,3,17140353,0,0,0,0,2012/12/4,,,0,0,0,0,0,0.00,68,Paperback,,0,0,Jo Franks,,,,,,,0,,
17367501,9772655748,أوراق من تاريخ الإخوان المسلمين :  مرحلة التكوين: استكمال البناء الداخلي 1943 - 1945م,,,,,ES,2006/1/1,دار التوزيع والنشر الإسلامية,ara,false,1,17367501,33,23,6,0,2006/1/1,,book,3,1,1,0,1,3.83,400,,,6,0,جمعة أمين عبد العزيز,,,,,,24,0,1,
17368001,8492833521,"El último coyote (Harry Bosch, #4)",9788492833528,,,,ES,2013/5/1,Roca Bolsillo,spa,false,32,49353,72253,218522,51711,1669,1995/6/1,The Last Coyote,book,20792,22777,7325,662,155,4.23,368,Hardcover,,5,1,Michael Connelly,,,,,,8419,102,1815,"action,adult,adult-fiction,crime,detective,fiction,murder-mystery,mystery,mystery-thriller,novels,suspense,thriller"
17368501,8282200107,En fortelling om kjærlighet og mørke,9788282200103,,,,ES,2010/1/1,Arneberg forlag,nor,false,92,27574,23478,28217,6694,714,2002/1/1,סיפור על אהבה וחושך,book,3276,2112,903,277,126,4.22,680,Paperback,,4,0,Amos Oz,,,,,,13619,96,1527,"autobiography,biography,biography-memoir,classics,contemporary,cultural,family,fiction,historical,historical-fiction,history,literature,memoir,non-fiction,novels,religion,unfinished,war"
17369001,1780320469,Capitalism's Last Stand?: Deglobalization in the Age of Austerity,9781780320465,,,,ES,2013/6/1,Zed Books,,false,4,17369001,48,43,12,1,2013/1/1,,,2,4,5,1,0,3.58,288,Hardcover,,9,1,Walden Bello,,,,,,34,0,2,"non-fiction,politics"
17369501,,Navigating by Intuition How to Follow the Signs,,B005RI51EU,,,ES,2011/2/12,Synchronicity Publishing,en-GB,true,1,17369501,63,95,23,2,2011/2/12,,book,11,6,5,0,1,4.13,,Kindle Edition,,23,2,Angela Artemis,,,,,,24,1,5,"self-help,spirituality"
17370001,,Capitanul Hatteras,,,,,ES,1973/1/1,Ion Creanga,,false,158,158247,5146,6686,1724,68,1866/1/1,Les Aventures du Capitaine Hatteras,book,515,621,465,109,14,3.88,465,Hardcover,,15,0,Jules Verne,,,,,,2852,21,77,"adventure,childrens,classic-literature,classics,fantasy,fiction,historical-fiction,history,literature,novels,science,science-fiction,survival,travel,unfinished"
17370501,,"Gata-Pishi!, Vol. 02",,,,,ES,,Kadokawa Shoten,jpn,false,1,17370501,12,18,4,0,,ガタぴし!,book,3,0,1,0,0,4.50,,Paperback,,4,0,Misuzu Asaoka,,,,,,8,1,,manga
17371001,,Andy Warhol: 1928. - 1987.: od reklame do umjetnosti,9789533000039,,,,ES,2006/1/1,Europapress holding d.o.o.,scr,false,6,342509,2750,8092,2030,20,1989/1/1,Andy Warhol 1928-1987: Commerce into Art,book,831,580,432,134,53,3.99,96,Paperback,"Edicija Jutarnjeg lista, broj 32",1,0,Klaus Honnef,,,,,,585,4,20,"art,biography,contemporary,history,non-fiction,reference"
17371501,,Winter's Tale,9789879990490,,,,ES,,Kiddy Monster Publication,eng,true,737,44133,43455,84107,22763,1024,1623/1/1,The Winter's Tale,book,5177,7997,7385,1875,329,3.69,,ebook,,1,0,William Shakespeare,,,,,,12963,179,648,"adult,british-literature,classic-literature,classics,college,comedy,criticism,drama,english-literature,fantasy,fiction,historical,literature,plays,poetry,romance,school,theatre"
17372001,,Casa noastra cea veche,,,,,ES,1984/1/1,Univers,rum,false,1,17372001,5,10,2,1,1960/1/1,Το παλιό μας σπίτι,book,2,0,0,0,0,5.00,260,,,2,1,Galateia Sarandi,,,,Olga Cicanci,,2,0,,
17372501,,The Special Operations Forces Nutrition Guide,,,,,ES,,,eng,true,1,17372501,8,8,2,0,,,book,0,2,0,0,0,4.00,225,ebook,,2,0,"Christiane Minnick,Lori Tubbs,Patricia A. Deuster,Stacey Zeno,Teresa Kemmer",,,,,,4,1,,
17373001,8470022679,Dr. Bloodmoney o Cómo nos las apañamos después de la bomba,9788470022678,,,,ES,1979/3/1,Acervo,spa,false,71,636108,12631,24057,6532,401,1965/1/1,"Dr. Bloodmoney, or How We Got Along after the Bomb ",book,1274,2569,2113,496,80,3.68,310,Hardcover,,6,0,Philip K. Dick,,,,,,4469,33,124,"american,classics,criticism,dystopia,fantasy,fiction,literature,novels,post-apocalyptic,science,science-fiction,science-fiction-fantasy,speculative-fiction,supernatural"
17373501,0851127568,The Guinness Who's Who of Stage Musicals,,,,,ES,1994/1/1,Guinness Publishing Limited,eng,false,1,17373501,1,0,0,0,1994/1/1,,book,0,0,0,0,0,0.00,382,Paperback,,0,0,Colin Larkin,,,,,,,0,,
17374001,5911290197,"Долгий двадцатый век: Деньги, власть и истоки нашего времени",,,,,ES,2006/1/1,"Издательский дом ""Территория будущего""",rus,false,12,1010113,1869,1747,419,37,1994/1/1,"The Long Twentieth Century: Money, Power, and the Origins of Our Times",book,184,144,71,18,2,4.17,472,Hardcover,,2,0,"Giovanni Arrighi,Джованни Арриги",,,,,,1285,11,45,"academic,business,economics,history,non-fiction,politics,sociology"
17374501,0140043624,African Horse,9780140043624,,,,ES,1977/1/1,Penguin Books,en-GB,false,2,4618674,5,0,0,0,1975/1/1,African Horse,,0,0,0,0,0,0.00,272,Paperback,,0,0,David Pownall,,,,,,2,0,-1,literature
17375001,,"Real Mermaids Don't Sell Seashells (Real Mermaids, #4)",,,,,ES,2013/1/1,Sourcebooks Jabberwocky ,eng,false,6,17683795,1791,1536,372,40,2013/1/1,,book,170,107,72,19,4,4.13,,Paperback,,39,6,Helene Boudreau,,,,,,1286,7,26,"childrens,contemporary,fairy-tales,fantasy,fiction,middle-grade,paranormal,romance,young-adult"
17375501,,naturopathy,,,,,ES,2012/1/1,Narayana Publishers,eng,false,1,17375501,2,0,0,0,2012/1/1,,book,0,0,0,0,0,0.00,,Paperback,,0,0,Unknown,,,,,,2,0,,
17376001,,"La pipe de Maigret (Maigret, #48)",,,,,ES,1945/1/1,,fre,true,22,140606,434,903,239,22,1945/1/1,La pipe de Maigret,book,56,92,74,16,1,3.78,96,ebook,,3,0,Georges Simenon,,,,,,113,9,2,"crime,detective,fiction,france,literature,mystery,short-stories,thriller"
17376501,4088746651,魔人探偵脳噛ネウロ 21,9784088746654,,,,ES,2009/5/1,Shueisha,jpn,false,5,17376501,60,163,36,1,2009/1/1,魔人探偵脳噛ネウロ 21,book,21,13,2,0,0,4.53,192,Paperback,,29,0,Yūsei Matsui,,,,,,8,3,,"comedy,drama,fantasy,fiction,graphic-novels,horror,humor,manga,mystery,thriller"
17377001,9789718935,Young Blood 4,9789718935194,,,,ES,2012/1/1,Inquirer Books,eng,false,1,17377001,97,129,31,1,2012/1/1,Young Blood 4,book,11,14,6,0,0,4.16,215,Paperback,,31,1,,,,"Javier Vicente D. Rufino,Pam Pastor,Rosario A. Garcellano,Ruel S. de Vera",,,46,1,5,"essays,non-fiction,young-adult"
17377501,113728790X,Formations of European Modernity: A Historical and Political Sociology of Europe,9781137287908,,,,ES,2013/7/15,Palgrave Macmillan,,false,5,17377501,41,39,16,0,2013/1/1,,,0,1,5,10,0,2.44,352,Hardcover,,16,0,Gerard Delanty,,,,,,13,2,4,"education,history"
17378001,,Dulapul îndrăgostit,,,,,ES,1980/1/1,Editura Cartea Românească,rum,false,1,17378001,17,39,9,1,1980/1/1,,book,4,4,1,0,0,4.33,239,Paperback,Colecția Hyperion,9,1,Emil Brumaru,,,,,,7,1,,poetry
17378501,,The Spell,,,,,ES,2005/10/31,Shousetsu Bang*Bang,,true,1,17378501,1,4,1,0,2005/10/31,,book,0,1,0,0,0,4.00,,ebook,,1,0,Shuua,,,,,,,0,,
17379001,,"Archangel's Kiss (Guild Hunter, #2)",,,,,ES,2010/4/3,Gollancz,eng,true,36,6582637,63037,188857,44592,2016,2010/2/1,,book,20989,15243,6606,1368,386,4.24,334,Kindle Edition,UK Kindle edition,23,5,Nalini Singh,,,,,,10785,343,776,"action,adult,adult-fiction,adventure,angels,contemporary,erotica,fantasy,fiction,magic,mystery,new-adult,paranormal,romance,supernatural,suspense,urban-fantasy,vampires,zombies"
17379501,1423141660,"Urchin of the Riding Stars (The Mistmantle Chronicles, #1)",9781423141662,,,,ES,2012/3/27,Disney Hyperion,eng,true,22,119146,10965,21092,5239,284,2005/1/1,Urchin of the Riding Stars,book,2068,1732,1063,259,117,4.03,288,ebook,,2,1,"M.I. McAllister,Margaret McAllister",,,,,,673,28,56,"action,adventure,animals,chapter-books,childrens,fantasy,fiction,high-fantasy,juvenile,middle-grade,mystery,novels,young-adult"
17380001,,"Dnevnik Ane Frank, od 12 juna 1942-1 avgusta 1944",,,,,ES,1969/1/1,"Nolit, Beograd",scr,false,888,48855,3382430,9735029,2360587,24517,1947/1/1,Het Achterhuis,book,1054751,753745,396083,102037,53971,4.12,209,Hardcover,,22,1,Anne Frank,,,,Zagorka Lilić,,855030,1948,23882,"adult,autobiography,biography,biography-memoir,childrens,classic-literature,classics,drama,family,fiction,high-school,historical,historical-fiction,history,inspirational,literature,memoir,modern-classics,non-fiction,novels,school,teen,war,young-adult"
17380501,,Egy marék por,,,,,ES,,,hun,false,83,531262,44326,82608,21082,1062,1934/1/1,A Handful of Dust,book,6226,8536,4998,1018,304,3.92,,,,2,0,Evelyn Waugh,,,,,,20296,185,216,"adult-fiction,british-literature,class,classic-literature,classics,comedy,drama,english-literature,fiction,historical-fiction,humor,literary-fiction,literature,modern,modern-classics,novels,school"
17381001,,اصول بازاریابی و خدمات,9789644597206,,,,ES,,سمت,per,false,1,17381001,10,6,2,0,,Principles of Service Marketing and Manegment,book,0,0,2,0,0,3.00,644,Paperback,,2,0,"Christopher Lovelock,Lauren Wright",,,,ابولفضل تاجزاده نمین,,6,0,1,
17381501,162057649X,"Let's Learn Sign Language, Grades PK - 2",9781620576496,,,,ES,2013/4/1,Key Education Publishing,,false,1,17381501,0,0,0,0,2013/4/1,,,0,0,0,0,0,0.00,160,Paperback,,0,0,Sherrill B. Flora,,,,,,,0,,
17382001,0545602718,"Nowhere to Run (The 39 Clues: Unstoppable, #1)",9780545602716,,,,ES,2013/10/1,Scholastic Audio Books,eng,false,14,16280884,10224,27533,6465,171,2013/8/1,,book,3381,1687,1143,197,57,4.26,0,Audio CD,Library Edition,5,0,Jude Watson,,,,,,2784,36,109,"action,adventure,chapter-books,childrens,family,fantasy,fiction,historical-fiction,juvenile,middle-grade,modern,mystery,realistic-fiction,survival,teen,thriller,young-adult"
17382501,,إجراءات مراجعة نظم المعلومات المالية المؤتمتة,,,,,ES,2012/1/1,دار الفكر,ara,false,1,17382501,12,4,1,0,2012/1/1,إجراءات مراجعة نظم المعلومات المالية المؤتمتة,book,0,1,0,0,0,4.00,416,Paperback,الطبعة الأولى,1,0,هاني سليمان أبو عويضة,,,,,,9,0,,
17383001,,Salem Falls,,,,,ES,2001/1/1,Washington Square Press,eng,false,58,10915,110557,258279,67801,3227,2001/4/3,Salem Falls,book,16960,26742,19179,4054,866,3.81,434,Paperback,Alternate Cover for ISBN #9780743418713,37,7,Jodi Picoult,,,,,,24210,108,1020,"adult,adult-fiction,american,chick-lit,contemporary,crime,drama,family,fiction,literary-fiction,literature,modern,mystery,novels,realistic-fiction,relationships,romance,suspense,thriller,witches,young-adult"
17384001,006228648X,"Allegiant (Divergent, #3)",9780062286482,,,,ES,2013/10/22,Katherine Tegen Books,eng,false,15,18710190,1152225,2667199,735063,64141,2013/10/22,Allegiant,book,204096,212716,195183,87238,35830,3.63,12,Audio CD,Unabridged,246,34,Veronica Roth,,,,,"Aaron Stanford,Emma Galvin",233063,5120,19838,"action,adventure,dystopia,fantasy,fiction,novels,post-apocalyptic,romance,science-fiction,teen,young-adult"
17384501,,Thugs Like Us,,B00935USX2,,,ES,,,en-GB,true,2,17384501,22,29,7,3,2012/8/27,,book,2,4,1,0,0,4.14,158,,,6,3,John Carnell,,,,,,13,2,1,
17385001,1410457516,Mr. Churchill's Secretary,9781410457516,,,,ES,2013/6/5,Large Print Press,,false,16,10161216,39673,71453,19382,2777,2012/1/1,,book,3759,8019,5776,1426,402,3.69,517,Paperback,,38,5,Susan Elia MacNeal,,,,,,7471,124,820,"adult,adult-fiction,adventure,cozy-mystery,crime,detective,fiction,historical,historical-fiction,history,mystery,mystery-thriller,novels,suspense,thriller,unfinished,war"
17385501,1466979240,A New Reality: Life Below the E State,9781466979246,,,,ES,2013/2/7,Trafford Publishing,,false,4,17385500,3,1,1,1,2013/2/7,,book,0,0,0,0,1,1.00,154,Paperback,,1,1,C.R. Boretsky,,,,,,,0,1,
17386001,1480157422,A Florida Cracker in Europe: : Memoires of My Studies and Travels Through Europe,9781480157422,,,,ES,2012/11/2,Createspace Independent Publishing Platform,,false,1,17386001,2,5,1,0,2012/11/2,,,1,0,0,0,0,5.00,200,Paperback,,1,0,Danielle Swisher,,,,,,1,0,,
17386501,1482348721,Come Back to Me,9781482348729,,,,ES,2013/2/4,Createspace,,false,5,17403237,1087,1505,416,68,2013/2/4,,book,100,142,105,53,16,3.62,354,Paperback,,5,0,C.D. Taylor,,,,,,474,16,11,"adult,contemporary,erotica,fiction,humor,romance"
17387001,1612038425,Heaven on Earth,9781612038421,,,,ES,2013/2/12,Bottom of the Hill Publishing,,false,9,715607,239,271,61,10,1654/1/1,Heaven on Earth: A Treatise on Christian Assurance,book,35,18,8,0,0,4.44,224,Paperback,,0,0,Thomas  Brooks,,,,,,128,4,21,"christian,christianity,religion,spirituality,theology"
17387501,2322030651,"Maurice, Philosophe de Comptoir (2eme Partie)",9782322030651,,,,ES,2013/2/4,Books on Demand,,false,6,18843996,0,0,0,0,2012/11/5,,,0,0,0,0,0,0.00,34,Paperback,,0,0,Didier Davoust,,,,,,,0,,
17388001,3848243857,Mala Sombra – böse Schatten: Inspector Pedro Casares ermittelt –  der Bischof schweigt – Intrigen der Macht –  der Bürgerkrieg ist unvergessen,9783848243853,,,,ES,2012/12/17,Books on Demand,,false,1,17388001,0,0,0,0,2012/12/17,,,0,0,0,0,0,0.00,244,Paperback,,0,0,Teodoro Lim,,,,,,,0,,
17388501,3955072754,Monologen,9783955072759,,,,ES,2012/8/27,Dogma,,false,12,22087351,14,13,3,1,1800/1/1,,book,1,2,0,0,0,4.33,132,Paperback,,0,0,Friedrich Schleiermacher,,,,,,9,0,1,
17389001,538603815X,Applikatsiya,9785386038151,,,,ES,2013/1/13,Book on Demand Ltd.,,false,1,17389001,0,0,0,0,2013/1/13,,,0,0,0,0,0,0.00,266,Paperback,,0,0,E.A. Shilkova,,,,,,,0,,
17389501,5424115675,"Chto Glaza Moi Videli (Tom 1, V Detstve)",9785424115677,,,,ES,2013/1/4,Book on Demand Ltd.,,false,1,17389501,0,0,0,0,2013/1/4,,,0,0,0,0,0,0.00,122,Paperback,,0,0,Nikolaj Platonovich Karabchevskij,,,,,,,0,,
17390001,5424123546,Огненный ангел,9785424123542,,,,ES,2013/1/21,Book on Demand Ltd.,rus,false,23,241726,703,870,218,15,1908/1/1,Огненный Ангел [Ognennyĭ angel],book,81,72,52,8,5,3.99,232,Paperback,,0,0,"Valery Bryusov,Валерий Яковлевич Брюсов",,,,,,407,6,15,"classics,fiction,gothic,historical-fiction,literature,magical-realism,medieval,religion,unfinished"
17390501,545811681X,Istoricheskij Ocherk Voenno-Uchebnyh Zavedenij,9785458116817,,,,ES,2013/1/5,Book on Demand Ltd.,,false,1,17390501,0,0,0,0,2013/1/5,,,0,0,0,0,0,0.00,470,Paperback,,0,0,Matvej Stepanovich Lalaev,,,,,,,0,,
17391001,5458274431,Differentsial'nye Uravneniya I Variatsionnoe Ischisleniya.,9785458274432,,,,ES,2013/1/4,Book on Demand Ltd.,,false,1,17391001,0,0,0,0,2013/1/4,,,0,0,0,0,0,0.00,430,Paperback,,0,0,L E El'sgol'ts,,,,,,,0,,
17391501,5458336925,Dhammapada,9785458336925,,,,ES,2013/1/17,Book on Demand Ltd.,,false,1,17391501,0,0,0,0,2013/1/17,,,0,0,0,0,0,0.00,164,Paperback,,0,0,Vladimir Toporov,,,,,,,0,,
17392001,5458466489,Terminologiya Fiziko-Himicheskogo Analiza. Chast' 1,9785458466486,,,,ES,2013/1/30,Book on Demand Ltd.,,false,1,17392001,0,0,0,0,2013/1/30,,,0,0,0,0,0,0.00,38,Paperback,,0,0,A.M. Terpigorev,,,,,,,0,,
17392501,5940745024,Progressivnyj Samouchitel' Raboty Na Komp'yutere,9785940745020,,,,ES,2013/1/14,Book on Demand Ltd.,,false,1,17392501,0,0,0,0,2013/1/14,,,0,0,0,0,0,0.00,498,Paperback,,0,0,Yustas Ekler,,,,,,,0,,
17393001,9021608324,Karel Deugd of 101 manieren om verschrikkelijk boos te worden,,,,,ES,1980/1/1,Ploegsma,nl,false,1,17393001,2,8,2,1,1980/1/1,,book,0,2,0,0,0,4.00,118,Hardcover,,2,1,Hans Henkes,,,,,,,0,,
17393501,0241950090,Untitled,9780241950098,,,,ES,2013/3/1,Penguin Books,,false,1,17393501,1,3,1,0,2013/3/1,,,0,0,1,0,0,3.00,,Paperback,,1,0,Nicci Gerrard,,,,,,,0,,
17394001,041586240X,Thomas Carlyle: The Critical Heritage,9780415862400,,,,ES,2013/5/5,Routledge,,false,3,17755681,1,0,0,0,1995/11/9,,,0,0,0,0,0,0.00,542,Paperback,,0,0,,,,Jules Paul Siegel,,,1,0,,
17394501,0415868246,"Sraffa and Modern Economics, Volume I",9780415868242,,,,ES,2013/9/5,Routledge,,false,7,4850026,1,0,0,0,2011/5/30,Sraffa and Modern Economics (Routledge Studies in the History of Economics),book,0,0,0,0,0,0.00,482,Paperback,,0,0,,,,"Christian Gehrke,Gary Mongiovi,Roberto Ciccone",,,1,0,,economics
17395001,0766042367,Civil Rights Freedom Rides,9780766042360,,,,ES,2014/1/1,Enslow Publishers,,false,5,17395001,6,7,2,0,2014/1/1,,book,0,1,1,0,0,3.50,48,Hardcover,,2,0,David Aretha,,,,,,3,0,,"history,non-fiction,picture-books"
17395501,1118313895,"Dentist's Guide to Medical Conditions, Medications and Complications",9781118313893,,,,ES,2013/8/19,Wiley-Blackwell,,false,1,17395501,1,0,0,0,2013/8/26,,,0,0,0,0,0,0.00,792,Paperback,,0,0,Kanchan M Ganda,,,,,,,0,1,
17396001,1118659457,Stock Trader's Almanac 2014,9781118659458,,,,ES,2013/9/30,John Wiley & Sons,,false,6,17396001,50,102,26,0,2013/1/1,,book,5,14,7,0,0,3.92,192,Spiral-bound,,20,0,Jeffrey A. Hirsch,,,,,,18,1,3,non-fiction
17396501,1433351080,"Time for Kids Nonfiction Readers Set 1, Grade 3",9781433351082,,,,ES,2012/5/30,Teacher Created Materials,,false,1,17396501,0,0,0,0,2012/5/1,,,0,0,0,0,0,0.00,,Paperback,,0,0,,,,,,,,0,,
17397001,1447478606,A Strange Disappearance,9781447478607,,,,ES,2013/2/6,Qureshi Press,,false,151,2604120,616,839,243,37,1880/1/1,A Strange Disappearance,book,32,75,111,21,4,3.45,198,Paperback,,0,0,Anna Katharine Green,,,,,,264,14,34,"american,classics,crime,detective,drama,fiction,historical,mystery,mystery-thriller,novels,romance,unfinished"
17397501,1463301782,El Eco de Mi Silencio: En El Teatro de La Vida Siendo Tu El Actor... Cual Seria Tu Participacion?,9781463301781,,,,ES,2013/7/1,Not Avail,,false,1,17397501,0,0,0,0,2013/7/1,,,0,0,0,0,0,0.00,263,Hardcover,,0,0,Francisco Chico Guerrero,,,,,,,0,,
17398001,1480513105,Undercurrents,9781480513105,,,,ES,2013/8/1,Brilliance Audio,,false,22,146230,3483,7296,1855,109,1988/1/1,Undercurrents,book,545,780,422,77,31,3.93,,Audio CD,,0,0,Ridley Pearson,,,,,,1084,14,87,"action,adult,crime,detective,drama,fiction,mystery,mystery-thriller,romance,suspense,thriller"
17398501,1558325859,"The Connoisseur's Guide to Sushi: Everything You Need to Know about Sushi Varieties and Accompaniments, Etiquette and Dining Tips and",9781558325852,,,,ES,2005/9/16,Harvard Common Press,,true,6,237968,95,131,35,7,2005/1/1,"The Connoisseur's Guide to Sushi: Everything You Need to Know About Sushi Varieties and Accompaniments, Etiquette and Dining Tips and More",,9,13,9,3,1,3.74,320,ebook,,0,0,Dave Lowry,,,,,,40,0,1,"cookbooks,food,non-fiction"
17399001,1622954432,"Living with Faith: A Guide to Understanding Ourselves, Others and God",9781622954438,,,,ES,2013/4/2,Tate Publishing & Enterprises,,false,1,17399001,0,0,0,0,2013/4/2,,,0,0,0,0,0,0.00,128,Paperback,,0,0,Irwin Wiener,,,,,,,0,,
17399501,1849492638,"Two Greedy Italians. Antonio Carluccio, Gennaro Contaldo",9781849492638,,,,ES,2013/3/1,Quadrille Publishing,,false,9,11386016,273,671,154,4,2011/1/1,,book,78,56,17,3,0,4.36,208,Paperback,,17,0,Antonio Carluccio,,,,,,43,2,,"cookbooks,cooking,food,non-fiction,reference"
17400001,1939627044,2012 Tuscany Prize for Catholic Fiction - Selected Short Stories,9781939627049,,,,ES,,,,false,4,17400001,97,140,38,3,2013/1/30,,book,8,16,8,6,0,3.68,,,,15,3,Joseph O'Brien,,,,,,52,1,4,"christian,christian-fiction,fiction"
17400501,3955840476,Entdeckung Der Blauen Grotte Auf Der Insel Capri,9783955840471,,,,ES,2013/1/22,Paderborner Grossdruckbuch Verlag,,false,6,36001168,2,0,0,0,2011/3/28,,,0,0,0,0,0,0.00,62,Paperback,,0,0,August Kopisch,,,,,,1,0,,
17401001,,Trapped with a Curse: A Short Story,,B00BHK8BTY,,,ES,2013/2/17,,eng,true,1,17401001,8,9,2,2,2013/2/17,,book,1,1,0,0,0,4.50,,Kindle Edition,First,2,2,Cassidy Raindance,,,,,,4,1,,
17401501,,"La transformació (Cançó de mar, #2)",9788415745020,,,,ES,2013/1/1,Fanbooks,cat,false,30,14759334,26195,45370,11755,870,2012/11/27,Lullaby (Watersong #2),book,3564,4131,3084,798,178,3.86,304,Paperback,,2,0,Amanda Hocking,,,,,,10802,136,279,"fantasy,fiction,love,magic,mythology,paranormal,romance,shapeshifters,supernatural,teen,urban-fantasy,young-adult"
17402001,,The Time Tunnel (Time Crystal Series Vol 2),9781871281187,,,,ES,2012/11/29,Penny Press Ltd,eng,true,3,28289959,237,19,4,2,2012/11/28,,book,3,1,0,0,0,4.75,324,Kindle Edition,,1,1,Wyken Seagrave,,,,,,232,0,,
17402501,,Fish and Seafood Cookery,,,,,ES,1945/1/1,Booth Fisheries,,false,1,17402501,1,3,1,0,1945/1/1,,book,0,0,1,0,0,3.00,31,Paperback,,1,0,Booth Fisheries,,,,,,,0,,
17403001,,"Analog Science Fiction and Fact, 1984 December",,,,,ES,1984/11/6,"Davis Publications, Inc",eng,false,1,17403001,2,5,1,0,1984/11/6,,periodical,1,0,0,0,0,5.00,178,Paperback,Volume CIV No. 12,1,0,Geoffrey A. Landis,,,Stanley Schmidt,,,1,0,,science-fiction
17403501,9022517101,Gedreven door wanhoop,,,,,ES,1994/1/1,De Boekerij,,false,6,2235804,73,89,27,5,1993/1/1,A Means to Evil,book,6,3,12,5,1,3.30,368,Paperback,,0,0,John Trenhaile,,,,,,19,1,,"crime,fiction,literature,reference,thriller"
17404001,,Poezia română actuală (II),,,,,ES,1998/1/1,Editura Pontica,rum,false,1,17404001,15,29,6,0,1998/1/1,,book,5,1,0,0,0,4.83,437,Paperback,,6,0,Marin Mincu,,"Adrian Popescu,Angela Marinescu,Cezar Ivănescu,Constantin Abăluţă,Cristian Simionescu,Dan Laurentiu,Daniel Turcea,Dinu Flămând,Emil Brumaru,Florin Mugur,Gabriela Melinescu,Gabriela Negreanu,George Alboiu,Gheorghe Grigurcu,Gheorghe Pitut,Grete Tartler,Ileana Mălăncioiu,Ioan Alexandru,Ioanid Romanescu,Ion Drăgănoiu,Ion Gheorghe,Ion Mircea,Leonid Dimov,Marin Sorescu,Marius Robescu,Mircea Ivănescu,Nichita Stănescu,Nicolae Ionel,Nicolae Labiş,Nora Iuga,Ovidiu Genaru,Petre Stoica,Vasile Vlad,Vintilă Ivănceanu,Virgil Mazilescu,Şerban Foarţă",,,,8,0,,
17404501,9510119598,"Kuiskaava kuolema (Dr. Gideon Fell, #16)",9789510119594,,,,ES,1983/1/1,WSOY,fin,false,23,808477,886,1899,485,52,1946/1/1,He Who Whispers,book,133,210,114,24,4,3.92,317,Hardcover,,5,1,John Dickson Carr,,,,,,315,15,6,"adult,classics,crime,detective,fiction,historical,mystery,mystery-thriller,suspense,thriller,vampires"
17405001,2874427411,"Les hommes viennent de Mars, Les femmes viennent de Vénus (Mars & Vénus TOME 1)",9782874427411,,,,ES,2011/9/21,Jungle ,fre,false,2,17405001,191,310,88,7,2011/9/21,,book,19,28,26,10,5,3.52,64,Hardcover,,81,4,John N. Gray,,,,,,62,0,12,graphic-novels
17405501,,Heroinas,,,,,ES,2006/1/1,Alma littera,lit,false,76,824508,33819,65501,16889,714,1996/11/14,Junk,book,5664,5489,4136,1217,383,3.88,300,Hardcover,,40,1,Melvin Burgess,,,,,,14193,28,207,"abuse,adult,childrens,contemporary,drama,fiction,high-school,mental-health,mental-illness,non-fiction,novels,plays,realistic-fiction,relationships,romance,school,teen,young-adult"
17406001,,Nord-Korea,9788279005674,,,,ES,2013/1/1,Pantagruel,nor,false,21,23014730,9255,15026,3874,508,2012/3/8,,book,1104,1479,1048,203,40,3.88,,Hardcover,,113,10,Eunsun Kim,,,,,,4277,57,275,"adult,adventure,autobiography,biography,biography-memoir,historical,history,inspirational,international,memoir,non-fiction,politics,survival,travel"
17406501,,Oskar Wilde,,,,,ES,1963/1/1,,pol,false,10,5301,167,258,67,7,1946/1/1,The Life of Oscar Wilde,book,15,31,18,2,1,3.85,505,,,1,0,Hesketh Pearson,,,,Jadwiga Dmochowska,,69,6,8,"adult,biography,biography-memoir,drama,lgbt,non-fiction,school,victorian"
17407001,,Hercule Poirot's Christmas - Pembunuhan di Malam Natal,9789792292077,,,,ES,2013/2/1,Gramedia Pustaka Utama,ind,false,236,16349,53097,121073,30808,2136,1938/12/19,Hercule Poirot's Christmas,book,8361,13141,8196,1006,104,3.93,312,Paperback,,48,13,Agatha Christie,,,,Mareta,,12992,246,704,"adult,adult-fiction,british-literature,christmas,classics,cozy-mystery,crime,detective,fiction,historical,historical-fiction,holiday,murder-mystery,mystery,mystery-thriller,novels,suspense,thriller"
17408001,,Gameearth (The Gamearth Trilogy #1),,,,,ES,2010/7/21,WordFire Press ,eng,true,7,1404035,325,362,112,15,1989/3/7,Gamearth (Signet),book,13,30,48,12,9,3.23,335,Kindle Edition,,7,1,Kevin J. Anderson,,,,,,122,6,3,"adult,fantasy,fiction,science,science-fiction,unfinished"
17408501,,Fraklip,9788799589609,,,,ES,2013/1/10,Saxo Publish,dan,true,1,17408501,1,3,1,1,2013/1/10,,book,0,0,1,0,0,3.00,186,ebook,,1,1,Bjarni Åkesson Filholm,,,,,,,0,,
17409001,1481843583,Lantern in the Mist,9781481843584,,,,ES,2013/2/9,"GarnetDream Entertainment, LLC",eng,false,3,17409001,938,349,96,20,2013/2/8,Lantern in the Mist,book,29,25,27,8,7,3.64,248,Paperback,,41,13,Liliana Shelbrook,,,,,,26,15,11,"adventure,chick-lit,fiction,historical,historical-fiction,romance,survival"
17409501,,Semelvajs,,,,,ES,1999/1/1,Umetničko društvo Gradac,srp,false,10,4752049,575,1029,259,32,1952/1/1,Semmelweis,book,62,137,51,9,0,3.97,57,Paperback,,2,1,Louis-Ferdinand Céline,,,,,,228,3,4,"biography,biography-memoir,fiction,france,history,literature,non-fiction,science"
17410001,,Das Bildnis des Dorian Gray,,,,,ES,1984/1/1,Aufbau-Verlag,ger,false,3354,5297,1411640,3280433,806337,24153,1890/6/20,The Picture of Dorian Gray,book,313810,293821,150657,36079,11970,4.07,254,Paperback,,1,0,Oscar Wilde,,,,,,459397,3140,45517,"adult,adult-fiction,british-literature,classic-literature,classics,drama,english-literature,fantasy,fiction,gothic,high-school,historical,historical-fiction,horror,lgbt,literary-fiction,literature,magical-realism,mystery,novels,paranormal,philosophy,queer,school,supernatural,unfinished,victorian"
17410501,,Houkago x Ponytail,9784088468716,,,,ES,2012/12/25,Shueisha,jpn,false,1,17410501,270,703,185,17,2012/12/25,放課後×ポニーテール,book,48,69,53,13,2,3.80,216,Paperback,,185,17,Tanaka Teko,,,,,,44,13,1,"comedy,manga,romance,school"
17411001,,The Science of a New Life,,,,,ES,1870/1/1,Cowan & Co.,,false,11,17411001,7,0,0,1,1870/1/1,,book,0,0,0,0,0,0.00,404,,,0,1,John Cowan,,,,,,5,1,,
17411501,,Stygge Krumpen. Bind 1,,,,,ES,,Lademann,dan,false,2,12096957,46,72,19,0,1936/1/1,,book,4,7,8,0,0,3.79,264,Hardcover,,3,0,Thit Jensen,,,,,,12,1,3,historical-fiction
17412001,,Uppdrag Fred,9789113003245,,,,ES,1998/1/1,Norstedts,swe,false,2,2203112,16,25,8,0,1997/1/1,Uppdrag fred,book,0,3,3,2,0,3.12,549,Hardcover,4:e tryckningen,1,0,Carl Bildt,,,,,,6,0,,society
17412501,,Kapelusz pełen bajek,,,,,ES,1984/1/1,Wydawnictwo	Literackie,pol,false,1,17412501,2,0,0,0,1984/1/1,Kapelusz pełen bajek,book,0,0,0,0,0,0.00,48,Paperback,,0,0,Halina Szayerowa,Barbara Gawdzik-Brzozowska.,,,,,,0,,
17413001,,"En el país de la nube blanca (Trilogía Nueva Zelanda, #1)",9788466649742,,,,ES,2011/7/1,Ediciones B,spa,false,81,16007131,19854,48079,12052,846,2007/1/1,Im Land der weißen Wolke,book,4325,4447,2380,626,274,3.99,746,Hardcover,,23,5,Sarah Lark,,,,,,4701,38,1036,"abuse,adult,adventure,amazon,chick-lit,contemporary,drama,family,fiction,historical,historical-fiction,history,novels,romance,unfinished"
17413501,1282789643,Technology Transfer for Renewable Energy,9781282789647,,,,ES,2014/3/13,Routledge,,true,5,17545420,1,0,0,0,2002/1/1,,,0,0,0,0,0,0.00,256,ebook,,0,0,Gill Wilkins,,,,,,1,0,,
17414001,1282860518,Mothers of Invention: Feminist Authors and Experimental Fiction in France and Quebec,9781282860513,,,,ES,2014/5/10,McGill-Queen's University Press,,true,4,954466,2,0,0,0,2002/6/26,Mothers of Invention: Feminist Authors and Experimental Fiction in France and Quebec,,0,0,0,0,0,0.00,384,ebook,,0,0,Miléna Santoro,,,,,,2,0,,
17414501,0983095426,East Tennessee from A to Z,9780983095422,,,,ES,2013/2/28,East Tennessee Children's Hospital,,false,1,17414501,0,0,0,0,2013/2/28,,,0,0,0,0,0,0.00,26,Hardcover,,0,0,Jenna McMillan,,,,,,,0,,
17415001,,Legenda,9788074471995,,,,ES,2013/3/4,CooBoo,slo,false,99,9275658,720102,1532117,366461,26211,2011/11/29,Legend,book,168596,121482,56586,13654,6143,4.18,304,Hardcover,,31,6,Marie Lu,,,,,,35782,2441,1487,"action,adventure,dystopia,fantasy,fiction,love,mystery,post-apocalyptic,romance,science-fiction,survival,teen,thriller,war,young-adult"
17415501,8700370487,Det er slut mellem Rødhætte og ulven,,,,,ES,1998/1/1,Gyldendal,dan,false,7,1942948,189,338,114,5,1998/1/1,Det är slut mellan Rödluvan och vargen,book,8,24,48,24,10,2.96,155,,,1,0,Katarina Mazetti,,,,,,29,4,,"chick-lit,contemporary,fiction,young-adult"
17416001,1442499265,Pendragon: The Merchant of Death; The Lost City of Faar; The Never War; The Reality Bug; Black Water,9781442499263,,,,ES,2013/10/8,Aladdin,,false,7,6495723,398,1050,235,13,2002/1/1,"Pendragon 1-5 Boxed Set: The Merchant of Death, The Lost City of Faar, The Never War, The Reality Bug, Black Water",,148,60,20,3,4,4.47,1968,Paperback,,17,1,D.J. MacHale,,,,,,58,3,5,"adventure,fantasy,middle-grade,young-adult"
17416501,0387878092,Large Time Asymptotics for Solutions of Nonlinear Partial Differential Equations,9780387878096,,,,ES,2010/1/1,Springer,,true,3,17416501,2,0,0,0,2009/1/1,,,0,0,0,0,0,0.00,239,ebook,,0,0,P.L. Sachdev,,,,,,1,0,,
17417001,0812202805,The Shame and the Sorrow: Dutch-Amerindian Encounters in New Netherland,9780812202809,,,,ES,2013/3/1,University of Pennsylvania Press,,true,4,494146,25,21,6,1,2006/5/16,The Shame And the Sorrow: Dutch-amerindian Encounters in New Netherland (Early American Studies),,0,3,3,0,0,3.50,344,ebook,,0,0,Donna Merwick,,,,,,17,0,1,"american,history,non-fiction"
17417501,1249471214,Le Chirurgien Par Inclination Ou Courte Exposition: Des Avantages de l'Inclination Pour CET Art. Dans Un El�ve Qui Se Propose d'En Approfondir Les Connoissances,9781249471219,,,,ES,2012/9/21,Saraswati Press,,false,1,17417501,0,0,0,0,2012/9/21,,,0,0,0,0,0,0.00,24,Paperback,,0,0,Pierre-Jean Lioult,,,,,,,0,,
17418001,1249624126,"L'Emilio Disingannato, 3: Dialoghi Filosofici...",9781249624127,,,,ES,2012/10/11,Saraswati Press,,false,1,17418001,0,0,0,0,2012/10/11,,,0,0,0,0,0,0.00,182,Paperback,,0,0,Alfonso Muzzarelli,,,,,,,0,,
17418501,124992538X,"Medecine Domestique Ou Traite Complet Des Moyens de Se Conserver En Sante, de Guerir Et de Prevenir Les Maladies, Par Le Regime Et Les Remedes Simples: Ouvrage Utile Aux Personnes de Tout Etat, Et MIS a la Portee de Tout Le Monde, Volume 5...",9781249925385,,,,ES,2012/10/25,Saraswati Press,,false,1,17418501,0,0,0,0,2012/10/25,,,0,0,0,0,0,0.00,628,Paperback,,0,0,"Jean-Denis Duplanil,William Buchan",,,,,,,0,,
17419001,1249941431,Materiaux Pour L'Etude Des Glaciers: Observations Meteorologiques Et Glaciaires. 3 V. 1868-70...,9781249941439,,,,ES,2012/10/1,Saraswati Press,,false,1,17419001,0,0,0,0,2012/10/25,,,0,0,0,0,0,0.00,672,Paperback,,0,0,Daniel Dollfus-Ausset,,,,,,,0,,
17419501,1249952840,"Lunds Universitets Rsskrift, Volume 15",9781249952848,,,,ES,2012/10/25,Saraswati Press,,false,1,17419501,0,0,0,0,2012/10/25,,,0,0,0,0,0,0.00,538,Paperback,,0,0,Lunds Universitet,,,,,,,0,,
17420001,124996413X,La Medecine Raisonn E,9781249964131,,,,ES,2012/10/26,Saraswati Press,,false,1,17420001,0,0,0,0,2012/10/26,,,0,0,0,0,0,0.00,460,Paperback,,0,0,Friedrich Hoffmann,,,,,,,0,,
17420501,1249974518,Beiträge Zur Witterungskunde,9781249974512,,,,ES,2012/10/26,Saraswati Press,ger,false,1,17420501,0,0,0,0,2012/10/26,,book,0,0,0,0,0,0.00,452,Paperback,,0,0,Heinrich Wilhelm Brandes,,,,,,,0,,
17421001,1249988446,"Englische Miscellen, Volume 12",9781249988441,,,,ES,2012/10/26,Saraswati Press,,false,1,17421001,0,0,0,0,2012/10/26,,book,0,0,0,0,0,0.00,206,Paperback,,0,0,Johann Christian Hüttner,,,,,,,0,,
17421501,1249999375,Annales Des Sciences Naturelles: Zoologie Et Biologie Animale,9781249999379,,,,ES,2012/10/26,Saraswati Press,,false,3,17421062,0,0,0,0,2012/10/25,,,0,0,0,0,0,0.00,550,Paperback,,0,0,"Alphonse Milne-Edwards,Henri Milne-Edwards",,,,,,,0,,
17422001,1286877849,"Voyage En Afrique, de 1780 1785",9781286877845,,,,ES,2012/10/26,Saraswati Press,,false,1,17422001,0,0,0,0,2012/10/26,,,0,0,0,0,0,0.00,484,Paperback,,0,0,François Le Vaillant,,,,,,,0,,
17422501,1286962374,Notice Historique Sur La Vie Et L'Oeuvre de Granet,9781286962374,,,,ES,2012/10/27,Saraswati Press,,false,1,17422501,0,0,0,0,2012/10/27,,,0,0,0,0,0,0.00,70,Paperback,,0,0,Paulin Silbert,,,,,,,0,,
17423001,1288137575,"Traité Des Ponts, Où Il Est Parlé de Ceux Des Romains Et de Ceux Des Modernes... Des Projets de Ponts, Des Matériaux Dont on Les Construit",9781288137572,,,,ES,2012/10/27,Saraswati Press,,false,8,41608423,0,0,0,0,2012/10/27,,book,0,0,0,0,0,0.00,276,Paperback,,0,0,Henri Gautier,,,,,,,0,,
17423501,1288228775,Reflections on the Signal Corps: The Power of Paradigms in Ages of Uncertainty,9781288228775,,,,ES,2012/10/29,Biblioscholar,,false,1,17423501,0,0,0,0,2012/10/29,,,0,0,0,0,0,0.00,66,Paperback,,0,0,Ronald Wayne VanDiver,,,,,,,0,,
17424001,1288293631,Challenges to U.S.-Russian Cooperation in the Manned Space Program,9781288293636,,,,ES,2012/11/13,Biblioscholar,,false,1,17424001,0,0,0,0,2012/11/13,,,0,0,0,0,0,0.00,48,Paperback,,0,0,Joan M Abelman,,,,,,,0,,
17424501,1288313543,Electronic Image Stabilization for Mobile Robotic Vision Systems,9781288313549,,,,ES,2012/11/19,Biblioscholar,,false,1,17424501,0,0,0,0,2012/11/19,,,0,0,0,0,0,0.00,124,Paperback,,0,0,Michael John Smith,,,,,,,0,,
17425001,1288329865,Democratization and Islamization in Egypt: Counterbalancing Forces for Autocracy,9781288329861,,,,ES,2012/11/21,Biblioscholar,,false,1,17425001,0,0,0,0,2012/11/21,,,0,0,0,0,0,0.00,56,Paperback,,0,0,Gregory S. Tate,,,,,,,0,,
17425501,1288453825,Future Trends in Logistics,9781288453825,,,,ES,2012/12/14,Biblioscholar,,false,1,17425501,0,0,0,0,2012/12/14,,,0,0,0,0,0,0.00,22,Paperback,,0,0,Henry B. Alexander,,,,,,,0,,
17426001,1407031201,How to be a Happy Stepmum,9781407031200,,,,ES,2010/5/6,Ebury Digital,,true,3,21147994,36,60,19,4,2010/1/1,,,2,6,7,1,3,3.16,256,ebook,,0,0,Lisa Doodson,,,,,,7,0,6,"parenting,self-help"
17426501,140706438X,The Iraq War,9781407064383,,,,ES,2010/2/23,Vintage Digital,,true,4,55201,840,1268,374,46,2004/1/1,"The Iraq War: The Military Offensive, from Victory in 21 Days to the Insurgent Aftermath",book,48,128,135,48,15,3.39,272,ebook,,0,0,John Keegan,,,,,,321,9,14,"american,american-history,historical,history,modern,non-fiction,politics,war"
17427001,1407099787,The Waitress,9781407099781,,,,ES,2009/3/8,Cornerstone Digital,,true,20,207693,4490,9339,2525,103,2004/1/1,The Waitress,book,638,834,771,218,64,3.70,528,ebook,,0,0,Melissa Nathan,,,,,,1479,12,24,"adult,adult-fiction,chick-lit,contemporary,fiction,funny,humor,novels,romance"
17427501,1409035409,Land Of Fire,9781409035404,,,,ES,2009/10/6,Cornerstone Digital,,true,14,728852,1299,2803,726,27,2002/1/1,Land of Fire,book,217,261,190,46,12,3.86,448,ebook,,0,0,Chris Ryan,,,,,,297,6,29,"action,crime,fiction,holiday,thriller,war"
17428001,1409071170,Emma,9781409071174,,,,ES,2010/3/30,BBC Digital,,true,2779,6969,941064,2241848,561406,14129,1815/12/23,Emma,book,206259,199808,113582,28818,12939,3.99,512,ebook,,0,0,Jane Austen,,,,,,296182,1638,22241,"adult,adult-fiction,british-literature,chick-lit,classic-literature,classics,drama,english-literature,fiction,historical,historical-fiction,humor,literary-fiction,literature,love,novels,regency,romance,school,unfinished"
17428501,1409097137,Special Operations: Wolf Squadron,9781409097136,,,,ES,2010/5/27,RHCP Digital,,true,3,8407734,47,112,27,3,2010/4/27,,book,7,17,3,0,0,4.15,336,ebook,,0,0,Craig Simpson,,,,,,17,6,,"adventure,war"
17429001,1446400875,The Dubious Salvation Of Jack V.,9781446400876,,,,ES,2011/5/19,Vintage Digital,,true,8,11569343,395,514,163,31,2011/5/1,,book,21,35,61,40,6,3.15,240,ebook,,0,0,Jacques Strauss,,,,,,176,7,6,"contemporary,fiction,funny,literary-fiction,politics,religion,school,young-adult"
17429501,1446433978,"American Caesars: Lives of the US Presidents, from Franklin D. Roosevelt to George W. Bush",9781446433973,,,,ES,2011/8/31,Vintage Digital,eng,true,10,8161171,765,1380,329,30,2010/7/1,American Caesars,book,135,139,44,6,5,4.19,608,ebook,,1,0,Nigel Hamilton,,,,,,354,11,20,"american-history,biography,history,memoir,non-fiction,politics"
17430001,1446466965,Before Civilization,9781446466964,,,,ES,2011/3/31,Vintage Digital,,true,11,1120098,171,191,50,4,1973/9/6,Before Civilization: The Radiocarbon Revolution and Prehistoric Europe,book,12,19,17,2,0,3.82,320,ebook,,1,0,Colin Renfrew,,,,,,87,3,1,"history,non-fiction,reference,science"
17430501,1446492761,Easy Meat: (Resnick 8),9781446492765,,,,ES,2011/7/31,Cornerstone Digital,,true,23,413263,643,1442,369,24,1996/1/1,Easy Meat,book,96,167,88,12,6,3.91,432,ebook,,0,0,John Harvey,,,,,,166,7,6,"adult,amazon,crime,fiction,mystery,mystery-thriller,thriller"
17431001,144810954X,Foreign Affairs,9781448109548,,,,ES,2011/9/30,Transworld Digital,,true,13,714980,1060,2699,669,22,1994/9/21,Foreign Affairs,book,268,215,142,29,15,4.03,912,ebook,,0,0,Patricia Scanlan,,,,,,198,17,34,"chick-lit,contemporary,fiction,modern,romance"
17431501,1448128781,The Story of Mats Israelson (Storycuts),9781448128785,,,,ES,2011/11/17,Vintage Digital,,true,2,17431501,24,22,5,0,2011/11/17,,,3,1,1,0,0,4.40,26,ebook,,5,0,Julian Barnes,,,,,,18,0,,"english-literature,fiction,short-stories"
17432001,1449362788,Nook Hd: The Missing Manual,9781449362782,,,,ES,2013/2/11,O'Reilly Media,,true,6,17152744,24,47,14,3,2013/1/1,,,2,5,4,2,1,3.36,496,ebook,,0,0,Preston Gralla,,,,,,6,0,,reference
17432501,,Spoticanje o sreću,,,,,ES,2008/1/1,Beograd:Dereta,,false,52,56627,118809,179478,46900,2411,2006/1/1,Stumbling on Happiness,book,14205,16406,11600,3340,1349,3.83,319,,,1,1,Daniel Todd Gilbert,,,,,,66742,140,2407,"business,economics,education,health,inspirational,non-fiction,personal-development,philosophy,psychology,science,self-help,sociology,unfinished"
17433001,1482913399,A Cold White Sun (Constable Molly Smith #6),9781482913392,,,,ES,2013/8/6,Blackstone Audiobooks,eng,false,11,16072719,1079,1665,439,75,2013/1/1,,book,86,206,120,24,3,3.79,9,Audio CD,Unabridged,6,1,Vicki Delany,,,,,Carrington MacDuffie,498,11,20,"adult,contemporary,cozy-mystery,fiction,murder-mystery,mystery,relationships"
17433501,1609254457,The Fifth Dimension,9781609254452,,,,ES,2014/8/19,Weiser Books,,true,6,475463,85,80,21,2,1940/1/1,The Fifth Dimension,,5,9,5,2,0,3.81,242,ebook,,0,0,Vera Stanley Alder,,,,,,48,0,7,"religion,self-help,spirituality"
17434001,1619333953,How to Win,9781619333956,,,,ES,2013/2/19,FastPencil,,true,1,17434001,0,0,0,0,2013/2/19,,,0,0,0,0,0,0.00,,ebook,,0,0,Donald Burks,,,,,,,0,,
17434501,1782346449,The Tiger Woods Quiz Book,9781782346449,,,,ES,2014/5/14,Auk Authors,,true,3,17434501,0,0,0,0,2013/1/1,,,0,0,0,0,0,0.00,18,ebook,,0,0,Wayne Wheelwright,,,,,,,0,,
17435001,193752017X,Human / Nature,9781937520175,,,,ES,2011/8/23,Smashwords Edition,,true,1,17435001,0,0,0,0,2011/11/2,,,0,0,0,0,0,0.00,84,ebook,,0,0,Lance Lee,,,,,,,0,,
17435501,3110884658,The Promise of the Land as Oath: A Key to the Formation of the Pentateuch,9783110884654,,,,ES,2013/2/6,de Gruyter,,true,2,17435501,0,0,0,0,1992/1/1,,,0,0,0,0,0,0.00,485,ebook,,0,0,Suzanne Boorer,,,,,,,0,,
17436001,3528144785,Schweisstechnik,9783528144784,,,,ES,1992/1/1,Vieweg+teubner Verlag,,false,1,17436001,0,0,0,0,1992/1/1,,,0,0,0,0,0,0.00,233,Paperback,,0,0,Hans J. Fahrenwaldt,,,,,,,0,,
17436501,,A Quarter of Magic,,B00805COEC,,,ES,,,en-US,true,1,17436501,5,4,1,1,2012/5/2,,book,0,1,0,0,0,4.00,,ebook,,1,1,Zoë Tyson,,,,,,1,1,1,
17437001,0811711897,Soldier's Study Guide,9780811711890,,,,ES,2013/9/1,Tradeselect,,false,11,20580639,24,43,12,0,1993/2/1,Soldier's Study Guide: A Guide to Prepare for Promotion Boards and Advancement,book,4,2,3,3,0,3.58,224,Paperback,Seventh Edition,1,0,Walter J. Jackson,,,,,,5,0,4,
17437501,1249473411,"Revue Anthropologique, Volume 3...",9781249473411,,,,ES,2012/9/21,Saraswati Press,,false,1,17437501,0,0,0,0,2012/9/21,,,0,0,0,0,0,0.00,462,Paperback,,0,0,Institut International D'anthropologie,,,,,,,0,,
17438001,1249539730,"Anzeiger Fur Schweizerische Altertumskunde, Volumes 17-20",9781249539735,,,,ES,2012/9/25,Saraswati Press,,false,1,17438001,0,0,0,0,2012/9/25,,,0,0,0,0,0,0.00,620,Paperback,,0,0,Schweizerisches Landesmuseum,,,,,,,0,,
17438501,1249651123,Le Costume Ou Essai Sur Les Habillements Et Les Usages de Plusieurs Peuples de L'Antiquite...,9781249651123,,,,ES,2012/10/11,Saraswati Press,,false,1,17438501,0,0,0,0,2012/10/11,,,0,0,0,0,0,0.00,556,Paperback,,0,0,Andre Lens,,,,,,,0,,
17439001,1249924596,"Monuments Egyptiens Du Mus Ee D'Antiquit Es Des Pays-Bas La Leide, Publi Es D'Aprles Les Ordres Du Gouvernement, Par Conradus Leemans: Explication Des Planches",9781249924593,,,,ES,2012/10/25,Saraswati Press,,false,1,17439001,0,0,0,0,2012/10/25,,,0,0,0,0,0,0.00,308,Paperback,,0,0,Conradus Leemans,,,,,,,0,,
17439501,124998260X,R Sum de L'Histoire Litt Raire Du Portugal: Suivi Du R Sum de L'Histoire Litt Raire Du Br Sil,9781249982609,,,,ES,2012/10/26,Saraswati Press,,false,1,17439501,1,0,0,0,2012/10/26,,,0,0,0,0,0,0.00,662,Paperback,,0,0,Ferdinand Denis,,,,,,,0,,
17440001,1286878799,"Cours de mécanique, Volume 1",9781286878798,,,,ES,2012/10/26,Saraswati Press,fre,false,1,17440001,0,0,0,0,2012/10/26,,book,0,0,0,0,0,0.00,448,Paperback,,0,0,Jean M. Duhamel,,,,,,,0,,
17440501,1286961106,"Moderne S Nden, Volume 2",9781286961100,,,,ES,2012/10/27,Saraswati Press,,false,1,17440501,0,0,0,0,2012/10/27,,,0,0,0,0,0,0.00,226,Paperback,,0,0,Ernst Willkomm,,,,,,,0,,
17441001,1288020724,�uvres [ed. by G. Du Pac de Bellegarde and J. Hautefage].,9781288020720,,,,ES,2012/10/27,Saraswati Press,,false,1,17441001,1,0,0,0,2012/10/27,,,0,0,0,0,0,0.00,816,Paperback,,0,0,Antoine Arnauld,,,,,,1,0,,
17441501,1288159021,"Homopathic Eye, Ear, and Throat Journal, Volume 3...",9781288159024,,,,ES,2012/10/27,Saraswati Press,,false,1,17441501,0,0,0,0,2012/10/27,,,0,0,0,0,0,0.00,496,Paperback,,0,0,,,,,,,,0,,
17442001,1288291264,It Is Time the United States Air Force Changes the Way It Feeds Its Airmen,9781288291267,,,,ES,2012/11/13,Biblioscholar,,false,1,17442001,0,0,0,0,2012/11/13,,,0,0,0,0,0,0.00,98,Paperback,,0,0,Troy J. Miller,,,,,,,0,,
17442501,1288325274,To Support and Defend: An Evaluation of the Requirement for a Specialized Mootw Force,9781288325276,,,,ES,2012/11/21,Biblioscholar,,false,1,17442501,0,0,0,0,2012/11/21,,,0,0,0,0,0,0.00,54,Paperback,,0,0,John C. Dejarnette,,,,,,,0,,
17443001,1288398255,The Forgotten Lessons of Counterinsurgency: Can the USAF Finally Sustain the Coin Momentum?,9781288398256,,,,ES,2012/12/4,Biblioscholar,,false,1,17443001,0,0,0,0,2012/12/4,,,0,0,0,0,0,0.00,46,Paperback,,0,0,David S. Eaglin,,,,,,,0,,
17443501,1461427819,Biosocial Foundations of Family Processes,9781461427810,,,,ES,2013/1/25,Springer,eng,false,5,17443501,0,0,0,0,2010/11/28,,book,0,0,0,0,0,0.00,272,Paperback,,0,0,,,,"Alan Booth,Nancy S. Landale,Susan M. McHale",,,,0,,
17444001,1480119199,I Dated a Porn Star.: 120 Days on a Chain Gang: Part 1,9781480119192,,,,ES,2012/10/11,Createspace Independent Publishing Platform,,false,1,17444001,0,0,0,0,2012/10/11,,,0,0,0,0,0,0.00,226,Paperback,,0,0,Joda Hodge,,,,,,,0,,
17444501,148239734X,The Sunny Side of the Mountain: A Northern Woods Novel,9781482397345,,,,ES,2013/2/15,Createspace Independent Publishing Platform,,false,4,18586710,155,159,42,10,2012/1/11,,book,15,11,11,2,3,3.79,280,Paperback,,0,0,Charliann Roberts,,,,,,91,16,5,"amazon,contemporary,family,fiction,mystery,romance,suspense,thriller"
17445001,1607413582,Clean Coal,9781607413585,,,,ES,2010/8/20,Nova Science Publishers,,false,1,17445001,0,0,0,0,2010/9/1,,,0,0,0,0,0,0.00,225,Hardcover,,0,0,,,Klaes G Douwe,,,,,0,,
17445501,1939317045,The Missing Link - In Theology: Third Edition - Amplified,9781939317049,,,,ES,2013/2/1,Editorial Nueva Vida,,false,2,17445501,0,0,0,0,2007/9/29,,,0,0,0,0,0,0.00,138,Paperback,,0,0,Julio A Rodriguez,,,,,,,0,,
17446001,3955842134,Die Schnurren Des Rochus Mang,9783955842130,,,,ES,2013/2/5,Paderborner Grossdruckbuch Verlag,,false,3,17180730,2,0,0,0,2009/11/6,,,0,0,0,0,0,0.00,106,Paperback,,0,0,Georg Queri,,,,,,1,0,,
17446501,9871831188,Fábulas de Mayor a menor 1,9789871831180,,,,ES,2013/4/30,Editorial Uranito,spa,false,1,17446501,2,5,1,0,2013/4/30,,book,1,0,0,0,0,5.00,48,Paperback,,1,0,Cecilia Blanco,,,,,,1,0,,
17447001,9518754969,Aku Ankan juhlasarjat 3,9789518754964,,,,ES,1993/1/1,Sanomaprint,,false,1,17447001,11,25,7,0,1993/1/1,,book,1,2,4,0,0,3.57,173,Hardcover,,7,0,Carl Barks,,,,,,1,1,,"comics,graphic-novels"
17447501,,Antarctica: An Intimate Portrait of the World's Most Mysterious Continent,,B006R8PHW0,,,ES,2013/1/15,Houghton Mifflin Harcourt,eng,true,10,13348065,1849,2363,558,94,2012/1/1,,book,242,221,81,12,2,4.23,350,Kindle Edition,,72,5,Gabrielle Walker,,,,,,918,15,68,"adult,adventure,animals,cultural,history,nature,non-fiction,science,travel"
17448001,,"What's Left of Us (Us, #1)",,,,,ES,2015/3/10,,eng,true,3,17693313,5253,449,120,34,2015/3/10,,book,40,32,30,13,5,3.74,,Kindle Edition,,17,7,Michele Tucker,,,,,,4960,29,12,"adult,college,contemporary,drama,fiction,new-adult,romance,young-adult"
17448501,,"Τυχαίο Θύμα (A-gruppen, #3)",9789605011611,,,,ES,2011/2/1,Μεταίχμιο,gre,false,39,1990458,1589,3672,982,67,2000/1/1,Upp till toppen av berget,book,208,408,283,68,15,3.74,530,Paperback,,50,10,Arne Dahl,,,,Γρηγόρης Κονδύλης,,326,6,29,"contemporary,crime,fiction,international,mystery,novels,suspense,thriller"
17449001,3551775915,"Banzai! 05/2004 (Banzai!, #31)",978355177591,,,,ES,2004/5/1,Carlsen Comics,ger,false,1,17449001,5,10,3,0,2004/5/1,,book,0,2,0,1,0,3.33,256,Paperback,,3,0,verschiedene,,,,,,1,1,,manga
17449501,,Weekend '33,,,,,ES,1973/1/1,Dell Publishing Company,eng,false,2,17449501,5,2,1,0,1971/1/1,,book,0,0,0,1,0,2.00,,Mass Market Paperback,,1,0,Bob Thomas,,,,,,3,0,,
17450001,,As It Happened,9781301513048,,,,ES,2012/12/12,Smashwords,eng,true,1,17450001,3,6,2,0,2012/12/12,,book,1,0,0,0,1,3.00,6,ebook,,2,0,Brad Oates,,,,,,1,0,,
17450501,1466812559,Black Beauty and the Thunderstorm,9781466812550,,,,ES,2011/5/10,Square Fish,,true,7,12142649,54,95,26,2,2011/5/10,,book,7,8,7,3,1,3.65,48,ebook,,0,0,"Anna Sewell,Susan  Hill",,,,,,16,7,,"animals,childrens"
17451001,,The Eyes of the Chameleon,9781304335869,,,,ES,2013/2/27,Lulu,eng,false,2,17451001,147,16,5,3,2013/8/17,,book,1,0,3,1,0,3.20,183,Paperback,First,4,3,Graham A. Dixon,,,,,,142,3,,detective
17451501,8806215426,Mentre vi guardo,9788806215422,,,,ES,2013/1/1,Einaudi,ita,false,3,17451501,3,10,3,2,2013/2/5,,book,1,0,1,1,0,3.33,120,Paperback,Stile libero Extra,2,2,Ignazia Angelini,,,Pierfilippo Pozzi,,,,0,,
17452001,,A Hero for Holly (The Coach's Boys #2),,,,,ES,2012/7/18,,eng,true,4,15757438,750,1329,328,39,2012/7/18,,book,126,117,65,16,4,4.05,218,Kindle Edition,,8,2,Kristy K. James,,,,,,277,13,38,"contemporary,family,fiction,romance"
17453001,,Tides of Fortune (The Legends of Dhanen'Mar Volume - 2),9781301001903,,,,ES,2013/2/27,Peyton Reynolds,eng,true,6,30319849,49,129,28,2,2013/2/27,,book,19,7,2,0,0,4.61,,ebook,,4,0,Peyton Reynolds,,,,,,14,1,3,fantasy
17453501,,"Men, Marriage and Me",,,,,ES,1930/1/1,Macauley Co.,eng,false,1,17453501,40,10,2,1,1930/1/1,,book,2,0,0,0,0,5.00,286,Hardcover,,2,1,Peggy Hopkins Joyce,,,,,,37,0,,"autobiography,funny"
17454001,8789327225,Et råb fra mørket,,,,,ES,1990/1/1,Bogklubben 12 Bøger,dan,false,19,399903,534,976,237,14,1973/1/1,Kennis van die aand,book,83,116,27,5,6,4.12,346,Hardcover,,0,0,André Brink,,,,,,206,6,7,"adult,contemporary,fiction,literary-fiction,novels,society"
17454501,1472507096,Even Stillness Breathes Softly Against a Brick Wall,9781472507099,,,,ES,2013/7/28,Bloomsbury Methuen Drama,,false,4,17454501,8,9,3,0,2013/7/21,,,0,0,3,0,0,3.00,96,Paperback,,3,0,Brad Birch,,,,,,5,1,,drama
17455001,,Giap. L'archivio e la strada. Scritti 2010-2012,,B00BEN790Q,,,ES,2013/2/12,Simplicissimus Book Farm,ita,true,3,9687305,166,211,62,5,2003/1/1,Giap!,book,12,13,27,8,2,3.40,339,Kindle Edition,,0,0,Wu  Ming,,,Tommaso De Lorenzis,,,33,1,2,"essays,non-fiction,politics,short-stories,unfinished"
17455501,,Persuasion,,,,,ES,2007/1/1,Wordsworth Clasics,eng,false,2553,2156,702980,1918577,464113,15352,1817/12/1,Persuasion,book,204709,152197,80420,18197,8590,4.13,210,Paperback,,183,25,Jane Austen,,,,,,268614,1882,12395,"adult,adult-fiction,british-literature,chick-lit,classic-literature,classics,drama,english-literature,fiction,historical,historical-fiction,literary-fiction,literature,love,novels,regency,romance,school"
17456001,,Atlas für die 6. bis 11. Klasse,,,,,ES,1983/1/1,VEB Hermann Haack,ger,false,1,17456001,1,0,0,0,1971/1/1,Atlas für die 6. bis 11. Klasse,book,0,0,0,0,0,0.00,136,Hardcover,,0,0,Autorengruppe,,,,,,,0,,
17457001,1849395780,Gabriel's Clock,9781849395786,,,,ES,2013/10/3,Andersen,,false,12,18788436,642,656,171,35,2013/10/3,,book,56,55,41,14,5,3.84,256,Hardcover,,32,8,Hilton Pashley,,,,,,420,12,13,"angels,childrens,fantasy,fiction,middle-grade,mythology,supernatural,thriller,urban-fantasy,young-adult"
17457501,0881464260,Camp Redemption,9780881464269,,,,ES,2013/3/11,Mercer University Press,eng,false,2,17457501,201,347,80,24,,,,40,29,9,2,0,4.34,260,Hardcover,,69,23,Raymond L. Atkins,,,,,,105,1,7,"abuse,adult-fiction,christian-fiction,fiction"
17458501,,hiring the heavens,,,,,ES,,,,false,5,8111163,386,774,185,26,2005/3/3,,,88,57,30,6,4,4.18,,,,1,1,Jean Slatter,,,,,,88,4,43,"angels,non-fiction,personal-development,reference,self-help,spirituality"
17459001,128057156X,The Legacy of the Second World War,9781280571565,,,,ES,2014/5/10,Yale University Press,,true,8,7846384,113,176,48,13,2010/3/1,,,12,14,17,4,1,3.67,208,ebook,,0,0,John Lukacs,,,,,,50,1,,"history,non-fiction,war"
17459501,1280658460,"San Francisco of Alfred Hitchcock's Vertigo: Place, Pilgrimage, and Commemoration",9781280658464,,,,ES,2013/2/25,Scarecrow Press,,true,1,17459501,0,0,0,0,2011/12/15,,,0,0,0,0,0,0.00,357,ebook,,0,0,,,,Douglas A. Cunningham,,,,0,,
17460001,1280881984,Nonfinancial Defined Contribution Pension Schemes in a Changing Pension World,9781280881985,,,,ES,2013/6/26,World Bank Publications,,true,4,16557235,2,3,1,0,2012/6/1,,,0,0,1,0,0,3.00,342,ebook,,0,0,,,,"Edward Palmer,Robert Holzmann",,,,0,,
17460501,1281769797,Irish Wolfhound,9781281769794,,,,ES,2014/5/10,Kennel Club Books,,true,1,17460501,2,5,1,0,2012/3/20,,,1,0,0,0,0,5.00,152,ebook,,1,0,Alice Kane,,,,,,2,0,,
17461001,1282328034,Christianity Made Simple: Flash,9781282328037,,,,ES,2014/5/10,Hodder Education,,true,6,14378529,1,0,0,0,,,book,0,0,0,0,0,0.00,97,ebook,,0,0,John Young,,,,,,,0,,non-fiction
17461501,1282467867,John Adams: In His Own Words,9781282467866,,,,ES,2014/5/10,Fulcrum Group,eng,true,5,6361524,10,8,2,1,2009/5/1,John Adams: In His Own Words (Speaker's Corner),,0,2,0,0,0,4.00,,ebook,,0,0,,,,Robert C. Baron,,,5,0,,
17462001,1282731831,Chomsky on Anarchism,9781282731837,,,,ES,2014/5/10,AK Press,,true,29,12618,15129,18451,4675,275,2005/1/1,On Anarchism,book,1386,1975,1048,211,55,3.95,256,ebook,,0,0,Noam Chomsky,,,Barry Pateman,,,8890,30,487,"academic,classics,economics,education,essays,history,literature,non-fiction,philosophy,politics,psychology,reference,society,sociology,unfinished"
17462501,1282904027,The Absent City,9781282904026,,,,ES,2014/3/8,Duke University Press,,true,20,1644,1512,2103,554,63,1992/1/1,La ciudad ausente,book,161,192,142,45,14,3.80,156,ebook,,0,0,Ricardo Piglia,,,,,,823,6,32,"amazon,fiction,literature,mystery,novels,science-fiction"
17463001,1283160757,The Emergence of the Hebrew Christian Movement in Nineteenth-Century Britain,9781283160759,,,,ES,2011/8/11,Brill Academic Publishers,,true,3,17463001,0,0,0,0,2010/10/1,,,0,0,0,0,0,0.00,294,ebook,,0,0,Michael R. Darby,,,,,,,0,,
17463501,1283523876,August 1941: The Anglo-Russian Occupation of Iran and Change of Shahs,9781283523875,,,,ES,2014/5/9,University Press of America,,true,1,17463501,4,0,0,0,2012/7/6,,,0,0,0,0,0,0.00,437,ebook,,0,0,Mohammad Gholi Majd,,,,,,3,0,,
17464001,1283736667,Grundlagen Marketing,9781283736664,,,,ES,2010/1/1,Pearson Studium,,true,8,6469762,70,102,25,0,2002/12/15,Grundlagen des Marketing,book,11,7,6,0,1,4.08,1185,ebook,,0,0,"Gary Armstrong,John Saunders,Philip Kotler,Veronica Wong",,,,,,29,0,6,business
17464501,1283937328,Marked Man: The Assassination of Malcolm X,9781283937320,,,,ES,2013/2/21,Twenty-First Century Books (CT),,true,3,16190334,61,89,26,10,2012/12/28,,book,2,13,5,6,0,3.42,92,ebook,,0,0,Matt Doeden,,,,,,25,4,,"biography,history,non-fiction,school,young-adult"
17465001,0230772846,This Royal Baby,9780230772847,,,,ES,2013/9/1,Pan Macmillan,,false,1,17465001,7,6,2,0,2013/9/1,,,0,1,0,1,0,3.00,12,Board Book,,2,0,Zita Newcome,,,,,,2,0,,picture-books
17465501,1468307487,Christo and Jeanne-Claude: Prints and Objects: A Catalogue RaisonnÈ,9781468307481,,,,ES,2013/10/3,Harry N. Abrams,,false,1,17465501,5,4,1,0,2013/10/3,,,0,1,0,0,0,4.00,256,Hardcover,,1,0,Jorg Schellmann,,,,,,3,0,1,
17466001,8804598522,Troppo vicino per starti lontano,9788804598527,,,,ES,2010/3/1,Mondadori,ita,false,39,1295102,217617,537531,134032,5282,2008/4/22,Lock and Key,book,49949,46261,29107,6706,2009,4.01,414,Paperback,,47,10,Sarah Dessen,,,,,,61511,478,1498,"abuse,chick-lit,contemporary,drama,family,fiction,high-school,love,novels,realistic-fiction,romance,school,teen,young-adult"
17466501,0615769071,My Name Is Noel,9780615769073,,,,ES,2013/2/11,Gunga Peas Books,,false,1,17466501,0,0,0,0,2013/2/11,,,0,0,0,0,0,0.00,80,Paperback,,0,0,Jacqueline C. Grant,,,,,,,0,,
17467001,1107013100,Animal Communication Theory,9781107013100,,,,ES,2013/7/31,Cambridge University Press,,false,2,17467001,13,12,3,0,2013/4/30,,,1,1,1,0,0,4.00,472,Hardcover,,3,0,,,,Ulrich Stegmann,,,9,0,,
17467501,1107620848,Scenes and Machines on the English Stage During the Renaissance: A Classical Revival,9781107620841,,,,ES,2013/2/14,Cambridge University Press,,false,1,17467501,6,0,0,0,,,book,0,0,0,0,0,0.00,332,Paperback,,0,0,Lily B. Campbell,,,,,,5,0,,
17468001,1108051278,The Collected Works of William Morris: With Introductions by His Daughter May Morris,9781108051279,,,,ES,2012/9/6,Cambridge University Press,,false,22,25723386,38,14,3,0,2012/10/11,,book,2,1,0,0,0,4.67,408,Paperback,,0,0,William Morris,,,,,,15,0,18,"fiction,literature"
17468501,1108061117,"The Homilies of the Anglo-Saxon Church: The First Part Containing the Sermones Catholici, or Homilies of Aelfric in the Original Anglo-Saxon, with an",9781108061117,,,,ES,2013/6/28,Cambridge University Press,,false,4,19084809,14,11,3,1,2011/12/20,,,0,2,1,0,0,3.67,628,Paperback,,0,0,Aelfric of Eynsham,,,,,,8,0,1,religion
17469001,1467110299,Walworth County,9781467110297,,,,ES,2013/7/8,Arcadia Publishing,,false,1,17469001,1,0,0,0,2013/7/8,,,0,0,0,0,0,0.00,128,Paperback,,0,0,Duane E. Stabler,,,,,,1,0,,non-fiction
17469501,2081226014,La porte des larmes,9782081226012,,,,ES,2010/5/11,Flammarion,fre,false,75,3591262,459396,1350323,315106,24319,2009/1/1,Cutting for Stone,book,162766,100438,36226,10387,5289,4.29,521,Paperback,Collection &quot;Lettres étrangères&quot;,1,1,Abraham   Verghese,,,,Michel Marny,,134098,654,7883,"adult,adult-fiction,contemporary,cultural,drama,family,fiction,historical,historical-fiction,history,international,literary-fiction,literature,medical,non-fiction,novels,realistic-fiction,relationships,unfinished"
17470001,1605114286,Nanocarbon Materials and Devices: Volume 1451,9781605114286,,,,ES,2012/10/29,Materials Research Society,,false,1,17470001,0,0,0,0,2012/10/29,,,0,0,0,0,0,0.00,216,Hardcover,,0,0,,,Joerg Appenzeller,"Cengiz S. Ozkan,Esko I. Kauppinen,Kazuhiko Matsumoto,Kelin Wang,Markus J. Buehler,Nicola Pugno,Yoshikazu Homma",,,,0,,
17470501,,Het meisje en het eenzame huis,,,,,ES,1966/1/1,Het Spectrum,nl,false,97,6412074,497,811,250,30,1917/1/1,The Secret House,book,29,63,108,40,10,3.24,160,Paperback,,0,0,Edgar Wallace,,,,,,153,9,20,"adventure,classics,crime,detective,fiction,gothic,mystery,romance,thriller"
17471001,0226922294,The Sex Education Debates,9780226922294,,,,ES,2014/5/14,University of Chicago Press,,true,1,17471001,0,0,0,0,2012/12/1,,,0,0,0,0,0,0.00,295,ebook,,0,0,Nancy Epps Kendall,,,,,,,0,,
17471501,054739005X,Holt McDougal World Geography New Mexico: Student Edition Survey 2012,9780547390055,,,,ES,,Holt McDougal,,false,1,17471501,0,0,0,0,,,,0,0,0,0,0,0.00,500,Hardcover,,0,0,,,,,,,,0,,
17472001,0758285930,Antiques Disposal,9780758285935,,,,ES,2013/4/2,Kensington,,true,7,12869553,1074,1797,480,69,2012/4/24,Antiques Disposal,book,111,190,138,27,14,3.74,240,ebook,,1,0,Barbara Allan,,,,,,334,16,99,"adult-fiction,cozy-mystery,crime,detective,fiction,humor,mystery,mystery-thriller,romance"
17473001,110700943X,"Figurative Language, Genre and Register",9781107009431,,,,ES,2013/4/29,Cambridge University Press,,false,2,17473001,10,10,2,0,2013/3/31,,,2,0,0,0,0,5.00,341,Hardcover,,2,0,"Alice Deignan,Elena Semino,Jeannette Littlemore",,,,,,6,0,1,
17473501,1107695988,A Study of Love's Labour's Lost. by Frances Yates,9781107695986,,,,ES,2013/3/1,Cambridge University Press,,false,2,7966052,25,21,5,1,2013/1/1,Study of Loves Labour's Lost,book,4,0,0,0,1,4.20,232,Paperback,,1,0,Frances A. Yates,,,,,,19,0,,"criticism,history,magic"
17474001,1134005806,Cultural Analysis and Bourdieu's Legacy: Settling Accounts and Developing Alternatives,9781134005802,,,,ES,2010/3/3,Routledge,,true,8,9281217,4,4,1,0,2010/3/3,,,0,1,0,0,0,4.00,208,ebook,,0,0,,,,"Alan Warde,Elizabeth B. Silva",,,2,0,1,sociology
17474501,1134019432,Rural Poverty and Income Dynamics in Asia and Africa,9781134019434,,,,ES,2008/11/19,Routledge,,true,7,16891056,0,0,0,0,2008/11/17,,,0,0,0,0,0,0.00,232,ebook,,0,0,,,,"Jonna P Estudillo,Keijiro Otsuka,Yasuyuki Sawada",,,,0,,
17475001,1134033214,Evidence-Based Social Work: A Critical Stance,9781134033218,,,,ES,2009/5/8,Routledge,,true,8,7112440,9,9,2,0,2009/1/1,,,1,1,0,0,0,4.50,220,ebook,,0,0,"Debbie Plath,Mel Gray,Stephen A. Webb",,,,,,5,0,,
17475501,1134045611,Writing for Journalists,9781134045617,,,,ES,2008/5/23,Routledge,,true,24,1904986,114,128,35,3,1999/4/1,Writing for Journalists,book,5,16,12,1,1,3.66,208,ebook,,0,0,"Harriett Gilbert,Sally Adams,Tim Holmes,Wynford Hicks",,,,,,18,2,4,"non-fiction,politics,textbooks,writing"
17476001,1134059493,Multilateralism and Security Institutions in an Era of Globalization,9781134059492,,,,ES,2007/12/20,Routledge,,true,7,5319666,1,0,0,0,2007/1/1,Multilateralism and Security Institutions in an Era of Globalization,,0,0,0,0,0,0.00,370,ebook,,0,0,,,,"Dimitris Bourantonis,Kostas Ifantis,Panayotis Tsakonas",,,1,0,,
17476501,1134072635,"Political Islam, World Politics and Europe: Democratic Peace and Euro-Islam Versus Global Jihad",9781134072637,,,,ES,2008/3/1,Routledge,,true,8,9917400,5,0,0,0,2007/1/1,,,0,0,0,0,0,0.00,328,ebook,,0,0,Bassam Tibi,,,,,,2,0,,
17477001,1134085672,Identity Politics in the Age of Genocide: The Holocaust and Historical Representation,9781134085675,,,,ES,2007/9/28,Routledge,,true,6,16816629,2,0,0,0,2007/1/9,,,0,0,0,0,0,0.00,288,ebook,,0,0,David B. MacDonald,,,,,,2,0,,
17477501,1134098278,Gender and Everyday Life,9781134098279,,,,ES,2008/7/23,Routledge,,true,10,6070716,62,109,29,3,2008/1/1,Gender and Everyday Life (The New Sociology),book,6,11,11,1,0,3.76,176,ebook,,0,0,Mary Holmes,,,,,,21,0,2,"feminism,non-fiction"
17478001,1134111851,"Land, Water and Development: Sustainable and Adaptive Management of Rivers",9781134111855,,,,ES,2008/9/17,Routledge,,true,4,17478001,0,0,0,0,2008/9/17,,,0,0,0,0,0,0.00,448,ebook,,0,0,Malcolm Newson,,,,,,,0,,
17478501,1134124422,Teaching and Learning in Further Education: Diversity and Change,9781134124428,,,,ES,2013/9/5,Routledge,,true,33,17755491,4,12,3,0,1997/7/3,,,1,1,1,0,0,4.00,264,ebook,,0,0,"Lorna Unwin,Prue Huddleston",,,,,,,0,-1,
17479001,1134138105,"Embodiment: Creative Imagination in Medicine, Art and Travel",9781134138104,,,,ES,2007/9/12,Routledge,,true,9,1240757,56,74,17,2,2007/1/1,"Embodiment: Creative imagination in Medicine, Art and Travel",,9,5,3,0,0,4.35,152,ebook,,0,0,Robert Bosnak,,,,,,30,0,2,"philosophy,psychology"
17479501,113415075X,Medical Sociology and Old Age: Towards a Sociology of Health in Later Life,9781134150755,,,,ES,2009/1/13,Routledge,,true,4,7318745,0,0,0,0,2008/10/1,Medical Sociology and Old Age: Towards a Sociology of Health in Later Life,,0,0,0,0,0,0.00,150,ebook,,0,0,"Ian Rees Jones,Paul Higgs",,,,,,,0,,
17480001,1134163517,"Pregnancy, Risk and Biopolitics: On the Threshold of the Living Subject",9781134163519,,,,ES,2006/9/27,Routledge,,true,3,17480001,0,0,0,0,2006/7/28,,,0,0,0,0,0,0.00,248,ebook,,0,0,Lorna Weir,,,,,,,0,,
17480501,1134176880,Improving Literacy by Teaching Morphemes,9781134176885,,,,ES,2006/8/21,Routledge,,true,4,9296197,0,0,0,0,2006/7/20,,book,0,0,0,0,0,0.00,206,ebook,,0,0,"Peter Bryant,Terezinha Nunes",,,,,,,0,,
17481001,1134190670,"Globalization and Regional Integration: The Origins, Development and Impact of the Single European Aviation Market",9781134190676,,,,ES,2007/6/7,Routledge,,true,8,20040519,0,0,0,0,2007/1/1,,book,0,0,0,0,0,0.00,256,ebook,,0,0,Alan P. Dobson,,,,,,,0,,
17481501,113420647X,In the Nature of Cities: Urban Political Ecology and the Politics of Urban Metabolism,9781134206476,,,,ES,2006/3/23,Routledge,,true,5,19849134,3,0,0,0,2006/1/1,,,0,0,0,0,0,0.00,272,ebook,,0,0,,,,"Erik Swyngedouw,Maria Kaika,Nik Heynen",,,2,0,,
17482001,1134221967,The Formative Period of American Capitalism: A Materialist Interpretation,9781134221967,,,,ES,2006/9/27,Routledge,,true,9,3750852,6,4,1,0,2006/6/15,The Formative Period of American Capitalism: A Materialist Interpretation (Routledge International Studies in Business History),,0,1,0,0,0,4.00,176,ebook,,0,0,Daniel Gaido,,,,,,3,0,,"business,history,politics"
17482501,1134237758,"The Effective Teacher's Guide to Moderate, Severe and Profound Learning Difficulties: Practical Strategies",9781134237753,,,,ES,2006/5/25,Routledge,,true,12,3721341,3,0,0,0,2005/11/18,"The Effective Teachers' Guide To Moderate, Severe and Profound Learning Difficulties: Practical Strategies (Farrell, Michael, New Directions in Special Educational Needs.)",,0,0,0,0,0,0.00,104,ebook,,0,0,Michael Farrell,,,,,,2,0,,
17483001,1134252412,"Imperial Defence: The Old World Order, 1856-1956",9781134252411,,,,ES,2007/11/21,Routledge,,true,8,6701652,5,4,1,0,2004/8/22,,,0,1,0,0,0,4.00,352,ebook,,0,0,,,,Greg Kennedy,,,1,0,,
17483501,1134267789,Teaching International Students: Improving Learning for All,9781134267781,,,,ES,2007/5/7,Routledge,,true,6,2832509,2,3,1,0,2005/10/20,Teaching International Students: Improving Learning for All (SEDA),,0,0,1,0,0,3.00,156,ebook,,0,0,,,,"Janette Ryan,Judith Carroll",,,,0,,education
17484001,1134281366,Roger Bannister and the Four-Minute Mile: Sports Myth and Sports History,9781134281367,,,,ES,2012/9/10,Routledge,,true,8,1297255,12,12,4,0,2004/8/13,Roger Bannister and the Four-Minute Mile: Sports Myth and Sports History,,0,0,4,0,0,3.00,160,ebook,,0,0,John   Bale,,,,,,4,0,1,
17484501,1134295154,Whither Globalization?: The Vortex of Knowledge and Ideology,9781134295159,,,,ES,2004/10/21,Routledge,,true,6,20090890,2,4,1,0,2004/10/21,,,0,1,0,0,0,4.00,152,ebook,,0,0,James H. Mittelman,,,,,,,0,1,
17485001,1134310838,Teaching Mathematics: A Handbook for Primary and Secondary School Teachers,9781134310838,,,,ES,2006/2/13,Routledge,,true,10,3492284,3,3,1,0,2003/5/1,Teaching Mathematics: A Handbook for Primary and Secondary School Teachers,,0,0,1,0,0,3.00,272,ebook,,0,0,Pamela Cowan,,,,,,1,0,,
17485501,1134327102,Quantitative Data Analysis with SPSS 12 and 13: A Guide for Social Scientists,9781134327102,,,,ES,2004/12/1,Routledge,,true,9,660287,30,62,14,0,1997/1/1,Quantitative Data Analysis with SPSS Release 12.0: A Guide for Social Scientist,,9,2,3,0,0,4.43,368,ebook,,0,0,"Alan Bryman,Duncan Cramer",,,,,,9,0,1,non-fiction
17486001,113434192X,Emmeline Pankhurst: A Biography,9781134341924,,,,ES,2003/9/2,Routledge,,true,11,1938818,194,116,29,1,2000/1/31,Emmeline Pankhurst: A Biography (Women's and Gender History),,9,12,7,1,0,4.00,480,ebook,,0,0,June Purvis,,,,,,150,6,3,"biography,biography-memoir,feminism,history,non-fiction,politics,school"
17486501,1134357664,Education Studies: A Student's Guide,9781134357666,,,,ES,2004/2/26,Routledge,,true,7,9933564,2,5,1,0,2004/1/1,,,1,0,0,0,0,5.00,240,ebook,,0,0,,,,Stephen Ward,,,1,0,,
17487001,1134371888,Greek History,9781134371884,,,,ES,2004/7/1,Routledge,,true,17,5989201,136,59,16,2,2004/1/1,Greek History,,3,6,6,1,0,3.69,192,ebook,,0,0,Robin Osborne,,,,,,100,5,3,"academic,classics,history,non-fiction,reference"
17487501,1134387288,A Psychology of Early Sufi Sama: Listening and Altered States,9781134387281,,,,ES,2004/8/5,Routledge,,true,7,9527791,8,9,2,0,2002/6/1,,,1,1,0,0,0,4.50,256,ebook,,0,0,Kenneth S. Avery,,,,,,4,0,,
17488001,1134403828,The Chinese Journalist: Mediating Information in the World's Most Populous Country,9781134403820,,,,ES,2004/3/1,Routledge,,true,3,17488001,0,0,0,0,2003/8/28,,,0,0,0,0,0,0.00,264,ebook,,0,0,Hugo Burgh,,,,,,,0,,
17488501,1134418035,Rethinking Learner Support in Distance Education: Change and Continuity in an International Context,9781134418039,,,,ES,2004/8/2,Routledge,,true,4,17488501,0,0,0,0,2002/12/12,,,0,0,0,0,0,0.00,232,ebook,,0,0,,,,"Alan Tait,Roger Mills",,,,0,,
17489001,1134434626,Female Sex Trafficking in Asia: The Resilience of Patriarchy in a Changing World,9781134434626,,,,ES,2012/10/12,Routledge,,true,8,11087358,20,9,3,0,2004/1/1,,,0,1,1,1,0,3.00,256,ebook,,0,0,Vidyamali Samarasinghe,,,,,,9,0,2,feminism
17489501,,اعبد الحياة / رواية حياة في رسائل / 5 أسرة بديلة,,,,,ES,2012/1/1,منشورات وطفي,ara,false,1,17489501,21,3,1,0,2012/1/1,أسرة بديلة (اعبد الحياة: رواية حياة في رسائل),book,0,0,1,0,0,3.00,160,Paperback,طبعة أولى,1,0,إبراهيم وطفي,,,,,,19,0,,
17490001,1134467982,Red Barcelona: Social Protest and Labour Mobilization in the Twentieth Century,9781134467983,,,,ES,2003/8/27,Routledge,,true,9,8358772,8,0,0,0,2002/6/13,,,0,0,0,0,0,0.00,276,ebook,,0,0,,,,Angel Smith,,,6,2,1,"politics,reference"
17490501,113448352X,Class Strategies and the Education Market: The Middle Classes and Social Advantage,9781134483525,,,,ES,2003/8/29,Routledge,,true,8,692434,15,17,4,1,2002/12/19,Class Strategies and the Education Market: The Middle Classes and Social Advantage,,2,1,1,0,0,4.25,224,ebook,,0,0,Stephen J. Ball,,,,,,9,0,1,education
17491001,1134500564,Feminism and Philosophy of Science: An Introduction,9781134500567,,,,ES,2006/4/18,Routledge,,true,9,390603,34,33,9,0,2004/1/1,Feminism and Philosophy of Science: An Introduction (Understanding Feminist Philosophy),,1,4,4,0,0,3.67,200,ebook,,0,0,Elizabeth Potter,,,,,,17,1,4,feminism
17491501,1134514891,"Gender and Holiness: Men, Women and Saints in Late Medieval Europe",9781134514892,,,,ES,2005/7/5,Routledge,,true,6,17491499,8,8,2,0,2000/1/1,,,1,0,1,0,0,4.00,216,ebook,,0,0,,,,"Sam Riches,Sarah Salih",,,2,1,1,history
17492001,1134529937,Keynes and Hayek: The Money Economy,9781134529933,,,,ES,2002/11/1,Routledge,,true,3,17492000,0,0,0,0,2002/11/1,,,0,0,0,0,0,0.00,240,ebook,,0,0,Gerry Steele,,,,,,,0,,
17492501,1134545975,Children of the New Age: A History of Spiritual Practices,9781134545971,,,,ES,2002/11/1,Routledge,,true,10,6154589,26,47,12,1,2002/1/1,Children of the New Age: A History of Spiritual Practices,book,3,6,2,1,0,3.92,288,ebook,,0,0,Steven J. Sutcliffe,,,,,,13,1,,"academic,historical,history,non-fiction,religion,sociology,spirituality"
17493001,1134560559,Imperial Inquisitions: Prosecutors and Informants from Tiberius to Domitian,9781134560554,,,,ES,2002/1/4,Routledge,,true,9,9649998,3,4,1,0,2001/3/15,,,0,1,0,0,0,4.00,432,ebook,,0,0,Steven H. Rutledge,,,,,,1,0,,
17493501,1134574878,The Rationality of Theism,9781134574872,,,,ES,2004/7/31,Routledge,,true,9,1786233,105,87,23,5,2003/1/1,The Rationality of Theism,book,7,6,9,0,1,3.78,304,ebook,,0,0,,,,"Paul Copan,Paul K. Moser",,,72,3,,"philosophy,reference,religion,spirituality,theology"
17494001,1134588259,On Cosmopolitanism and Forgiveness,9781134588251,,,,ES,2003/9/2,Routledge,,true,10,167498,1116,1675,425,30,2001/5/21,On Cosmopolitanism and Forgiveness,book,132,179,79,27,8,3.94,80,ebook,,1,1,Jacques Derrida,,,,,,519,11,28,"crime,france,non-fiction,philosophy,politics,sociology,war"
17494501,1134601786,Contemporary Caribbean Women's Poetry: Making Style,9781134601783,,,,ES,2003/8/29,Routledge,,true,6,3525521,5,0,0,0,2001/12/20,,,0,0,0,0,0,0.00,272,ebook,,0,0,Denise deCaires Narain,,,,,,2,0,,"criticism,poetry"
17495001,1134616244,Psychoanalysis and Performance,9781134616244,,,,ES,2002/9/11,Routledge,,true,7,3487818,12,9,2,0,2001/5/24,Psychoanalysis and Performance,book,1,1,0,0,0,4.50,256,ebook,,0,0,,,,"Adrian Kear,Patrick Campbell",,,5,0,1,
17495501,1134630255,Neo-Industrial Organising: Renewal by Action and Knowledge Formation in a Project-Intensive Economy,9781134630257,,,,ES,2003/9/2,Routledge,,true,4,17495499,0,0,0,0,1999/5/20,,,0,0,0,0,0,0.00,256,ebook,,0,0,"Anders Soderholm,Eskil Ekstedt,Hans Wirdenius,Rolf A. Lundin",,,,,,,0,,
17496001,1134644132,Contested Bodies,9781134644131,,,,ES,2003/10/4,Routledge,,true,4,10828883,5,0,0,0,2001/7/26,,,0,0,0,0,0,0.00,208,ebook,,0,0,,,,"John Hassard,Ruth Holliday",,,5,0,,
17496501,1134657587,Being Human: Psychological and Philosophical Perspectives: Psychological and Philosophical Perspectives,9781134657582,,,,ES,2013/1/1,Routledge,,true,10,15002391,20,29,8,0,2012/1/27,,,2,3,2,0,1,3.62,350,ebook,,0,0,Richard Gross,,,,,,7,0,1,psychology
17497001,1134671555,"Reassessing Foucault: Power, Medicine and the Body",9781134671557,,,,ES,2002/1/4,Routledge,,true,10,485516,30,29,7,1,1994/5/19,Reassessing Foucault (Studies in the Social History of Medicine),,3,2,2,0,0,4.14,240,ebook,,0,0,,,,"Colin Jones,Roy Porter",,,18,1,2,academic
17497501,1134684991,Family & Social Change Ils 127,9781134684991,,,,ES,2012/10/12,Routledge,,true,4,7461634,0,0,0,0,2003/1/1,,,0,0,0,0,0,0.00,352,ebook,,0,0,"Christopher Harris,Colin Rosser",,,,,,,0,,
17498001,1134698224,Philosophical Propositions: An Introduction to Philosophy,9781134698226,,,,ES,2005/8/9,Routledge,,true,5,17497999,10,18,4,0,1998/4/2,,,2,2,0,0,0,4.50,192,ebook,,0,0,Jonathan Westphal,,,,,,6,0,,philosophy
17498501,1134711514,Economic Thought Since Keynes: A History and Dictionary of Major Economists,9781134711512,,,,ES,2005/9/27,Routledge,,true,10,187662,20,8,2,0,1996/4/2,Economic Thought Since Keynes: A History and Dictionary of Major Economists,,1,0,1,0,0,4.00,512,ebook,,0,0,"Gilles Dostaler,Michel Beaud",,,,,,16,0,,
17499001,1134725302,"The National Front in France: Ideology, Discourse and Power",9781134725304,,,,ES,2012/11/12,Routledge,,true,9,10866748,2,0,0,0,1999/3/25,,,0,0,0,0,0,0.00,288,ebook,,0,0,Peter Davies,,,,,,1,0,,
17499501,1134738757,Art and Morality,9781134738755,,,,ES,2003/9/2,Routledge,,true,9,4345780,23,16,4,0,2002/12/12,Art and Morality (International Library of Philosophy),book,1,2,1,0,0,4.00,320,ebook,,0,0,,,,"José Luis Bermúdez,Sebastian Gardner",,,13,0,,"art,language,music,philosophy"
17500001,1134751699,The Economics of International Integration,9781134751693,,,,ES,2002/9/11,Routledge,,true,5,17499999,0,0,0,0,1998/3/5,,,0,0,0,0,0,0.00,352,ebook,,0,0,Peter Robson,,,,,,,0,,
17500501,1134765371,South African Economy: Macroeconomic Prospects for the Medium Term,9781134765379,,,,ES,2005/9/27,Routledge,,true,4,17500501,0,0,0,0,1996/10/17,,,0,0,0,0,0,0.00,240,ebook,,0,0,"Finn Tarp,Peter Brixen",,,,,,,0,,
17501001,1134778155,Dictionary of Biological Psychology,9781134778157,,,,ES,2003/9/2,Routledge,,true,3,16762309,0,0,0,0,2001/2/22,,,0,0,0,0,0,0.00,896,ebook,,0,0,,,,Philip Winn,,,,0,,
17501501,1134791550,Entrepreneurship and the Market Process: An Enquiry Into the Growth of Knowledge,9781134791552,,,,ES,2002/1/8,Routledge,,true,11,17754845,0,0,0,0,1995/12/21,,book,0,0,0,0,0,0.00,432,ebook,,0,0,David A. Harper,,,,,,,0,,
17502001,113480461X,"Outsiders Inside: Whiteness, Place and Irish Women",9781134804610,,,,ES,2002/5/3,Routledge,,true,9,176157,4,0,0,0,2000/1/1,"Outsiders Inside: Whiteness, Place and Irish Women (Gender, Racism, Ethnicity)",,0,0,0,0,0,0.00,320,ebook,,0,0,Bronwen Walter,,,,,,3,0,,
17502501,1134818831,"The Sociology of Health Promotion: Critical Analyses of Consumption, Lifestyle and Risk",9781134818839,,,,ES,2003/9/2,Routledge,,true,9,14837308,3,0,0,0,1995/3/8,,,0,0,0,0,0,0.00,264,ebook,,0,0,,,,"Robin Bunton,Roger Burrows,Sarah Nettleton",,,2,0,,
17503001,1134831870,"The Locus of Care: Families, Communities, Institutions, and the Provision of Welfare Since Antiquity",9781134831876,,,,ES,2013/1/11,Routledge,,true,10,3828051,7,3,1,0,1997/12/11,"Locus of Care: Families, Communities, Institutions, and the Provision of Welfare Since Antiquity (Studies in the Social History of Medicine)",,0,0,1,0,0,3.00,304,ebook,,0,0,,,,"Peregrine Horden,Richard Smith",,,5,0,,"history,mental-health"
17503501,1134844891,Ancient Rome: City Planning and Administration,9781134844890,,,,ES,2003/8/27,Routledge,,true,8,3409170,40,38,9,1,1992/2/20,Ancient Rome: City Planning and Administration,,2,7,0,0,0,4.22,272,ebook,,0,0,O.F. Robinson,,,,,,17,1,3,"history,non-fiction,science"
17504001,1134858515,Leadership and Information Processing: Linking Perceptions and Performance,9781134858514,,,,ES,2002/9/26,Routledge,,true,9,5074733,5,5,1,0,1991/4/1,Leadership and Information Processing (People & Organizations),book,1,0,0,0,0,5.00,352,ebook,,0,0,"Karen J Maher,Robert G. Lord",,,,,,3,0,,"business,psychology"
17504501,1134871546,Urban Policy in Practice,9781134871544,,,,ES,2013/1/11,Routledge,,true,10,10648822,0,0,0,0,1994/1/12,,,0,0,0,0,0,0.00,352,ebook,,0,0,Tim Blackman,,,,,,,0,,
17505001,1134884702,Playing Boal,9781134884704,,,,ES,2002/9/11,Routledge,,true,9,483222,50,87,21,1,1993/2/12,Playing Boal,,6,12,3,0,0,4.14,256,ebook,,0,0,,,,"Jan Cohen-Cruz,Mady Schutzman",,,20,1,2,"education,psychology,teaching,theatre"
17505501,1134898355,Archaeology and the Information Age,9781134898350,,,,ES,2003/9/2,Routledge,,true,6,17505499,0,0,0,0,1992/4/30,,,0,0,0,0,0,0.00,432,ebook,,0,0,,,,"Paul Reilly,Sebastian Rahtz",,,,0,,
17506001,,ثلج,,,,,ES,,,,false,29,107943,3383,7610,2026,203,1999/1/1,Neige,book,619,639,496,199,73,3.76,109,,,12,1,Maxence Fermine,,,,,,841,16,10,"adult-fiction,art,contemporary,fiction,france,historical-fiction,literature,love,novella,novels,philosophy,poetry,romance,school,short-stories"
17506501,1134925395,Economic Democracy and Financial Participation: A Comparative Study,9781134925391,,,,ES,2002/3/11,Routledge,,true,7,17506501,0,0,0,0,1992/3/5,,,0,0,0,0,0,0.00,384,ebook,,0,0,Daryl D'Art,,,,,,,0,,
17507001,113493811X,Swedish Economic Thought: Explorations and Advances,9781134938117,,,,ES,2006/5/18,Routledge,,true,8,16771205,2,0,0,0,1993/4/1,,,0,0,0,0,0,0.00,272,ebook,,0,0,,,,Lars Jonung,,,2,0,,
17507501,1134950527,The Handbook of Art Therapy,9781134950522,,,,ES,2003/9/1,Routledge,,true,17,17507503,10,19,4,0,1992/1/9,,,3,1,0,0,0,4.75,280,ebook,,0,0,"Caroline Case,Tessa Dalley",,,,,,4,0,2,
17508001,113496403X,Managing Change in Schools: A Practical Handbook,9781134964031,,,,ES,2012/10/12,Routledge,,true,9,2522351,1,0,0,0,1992/8/1,,,0,0,0,0,0,0.00,266,ebook,,0,0,"Colin Newton,Tony Tarrant",,,,,,1,0,,
17508501,1134977824,Image and Idea in Fifth Century Greece: Art and Literature After the Persian Wars,9781134977826,,,,ES,2005/8/15,Routledge,,true,3,17508502,0,0,0,0,1990/9/6,,,0,0,0,0,0,0.00,192,ebook,,0,0,E.D. Francis,,,,,,,0,,
17509001,1134995792,The Analysis of Drugs of Abuse,9781134995790,,,,ES,1994/11/30,Taylor & Francis Group,,true,6,2352254,0,0,0,0,1994/11/1,The Analysis Of Drugs Of Abuse: An Instruction Manual (Ellis Horwood Series in Forensic Science),,0,0,0,0,0,0.00,,ebook,,0,0,Michael D.  Cole,,,,,,,0,,
17509501,1135102392,Developing Feature Films in Europe: A Practical Guide,9781135102395,,,,ES,2013/5/13,Routledge,,true,5,3452399,2,0,0,0,1996/2/29,Developing Feature Films in Europe: A Practical Guide (Blueprint: Media Business School),,0,0,0,0,0,0.00,144,ebook,,0,0,Angus Finney,,,,,,2,0,,
17510001,1135139776,Architecture in a Climate of Change,9781135139773,,,,ES,2012/9/10,Routledge,,true,15,1998481,36,20,5,0,2001/5/2,Architecture in a Climate of Change,book,2,1,2,0,0,4.00,224,ebook,,0,0,Peter Smith,,,,,,22,1,2,
17510501,1135178666,"Trauma and Media: Theories, Histories, and Images",9781135178666,,,,ES,2011/2/9,Routledge,,true,6,8353125,10,10,2,0,2009/11/1,,,2,0,0,0,0,5.00,224,ebook,,0,0,Allen Meek,,,,,,3,0,,
17511001,1135195706,Aesthetics and Material Beauty: Aesthetics Naturalized,9781135195700,,,,ES,2013/1/11,Routledge,,true,7,7763148,7,0,0,0,2007/9/1,,,0,0,0,0,0,0.00,242,ebook,,0,0,Jennifer A. Mcmahon,,,,,,5,0,1,
17511501,1135216274,Information Inequality,9781135216276,,,,ES,2013/5/13,Routledge,,true,5,18541999,7,0,0,0,1995/12/20,,,0,0,0,0,0,0.00,212,ebook,,0,0,Herbert Schiller,,,,,,6,0,,
17512001,1135231117,Social Studies and Diversity Education: What We Do and Why We Do It,9781135231118,,,,ES,2010/1/21,Routledge,,true,6,17512001,1,0,0,0,2009/10/19,,,0,0,0,0,0,0.00,432,ebook,,0,0,,,,"Elizabeth E. Heilman,Matthew Missias,Ramona Fruja",,,1,0,,
17512501,1135244464,Black Women in New South Literature and Culture,9781135244460,,,,ES,2009/9/11,Routledge,,true,6,17269562,1,0,0,0,2009/8/1,,,0,0,0,0,0,0.00,160,ebook,,0,0,Sherita L. Johnson,,,,,,1,0,,
17513001,1135257507,Common Ground?: Readings and Reflections on Public Space,9781135257507,,,,ES,2009/9/10,Routledge,,true,6,10147184,13,29,7,0,2009/7/1,,,3,2,2,0,0,4.14,240,ebook,,0,0,"Anthony M. Orum,Zachary P. Neal",,,,,,3,1,,
17513501,1135272115,Restoration and History: The Search for a Usable Environmental Past,9781135272111,,,,ES,2010/2/1,Routledge,,true,6,17513499,0,0,0,0,2009/12/23,,,0,0,0,0,0,0.00,330,ebook,,0,0,,,,Marcus Hall,,,,0,,
17514001,1135293465,Theatre of Animation Contemporary Adult Puppet Plays in Context-1,9781135293468,,,,ES,2014/5/14,Routledge,,true,5,17513999,1,0,0,0,1999/8/1,,,0,0,0,0,0,0.00,104,ebook,,0,0,Marion Baraitser,,,,,,1,0,,
17514501,1135323143,Instant Notes in Physical Chemistry,9781135323141,,,,ES,2012/9/10,Taylor & Francis Group,,true,4,17514499,1,0,0,0,2004/11/23,,,0,0,0,0,0,0.00,296,ebook,,0,0,"Andy Mount,Gavin Whittaker,Matthew Heal",,,,,,1,0,,
17515001,1135348545,Essential Employment Law,9781135348540,,,,ES,2014/8/29,Routledge Cavendish,,true,4,17515000,0,0,0,0,1997/12/1,,,0,0,0,0,0,0.00,240,ebook,,0,0,Marnah Suff,,,,,,,0,,
17515501,1135369364,Argumentative Turn in Policy Analysis and Planning,9781135369361,,,,ES,2002/3/11,Routledge,,true,11,349454,22,15,4,0,1993/1/1,The Argumentative Turn in Policy Analysis and Planning,book,1,1,2,0,0,3.75,,ebook,,0,0,,,,Frank Fischer,,,13,1,1,"grad-school,research"
17516001,113539573X,Developing Speech and Language Skills: Phoneme Factory,9781135395735,,,,ES,2007/10/23,David Fulton Publishers,,true,6,9804364,0,0,0,0,2007/10/1,,,0,0,0,0,0,0.00,176,ebook,,0,0,Gwen Lancaster,,,,,,,0,,
17516501,1135431701,History of the International Union of Psychological Science (Iupsys),9781135431709,,,,ES,2005/8/18,Psychology Press,,true,6,17516500,0,0,0,0,2000/7/13,,,0,0,0,0,0,0.00,306,ebook,,0,0,,,,"David Bélanger,Mark R. Rosenzweig,Michel Sabourin,Wayne H Holtzman",,,,0,,
17517001,1135456275,Capital Structuring,9781135456276,,,,ES,2004/3/1,Routledge,,true,7,27389255,0,0,0,0,2000/7/6,,,0,0,0,0,0,0.00,150,ebook,,0,0,,,,Alastair   Graham,,,,0,,
17517501,1135578176,Empire's Children: Empire and Imperialism in Classic British Children's Books,9781135578176,,,,ES,2002/9/11,Routledge,,true,11,207226,31,22,5,0,2000/1/1,Empire's Children: Empire and Imperialism in Classic British Children's Books (Garland Reference Library of the Humanities),,2,3,0,0,0,4.40,325,ebook,,0,0,M. Daphne Kutzer,,,,,,18,1,1,non-fiction
17518001,1135600902,Improving the First Year of College: Research and Practice,9781135600907,,,,ES,2005/1/15,Psychology Press,,true,7,9457992,2,3,1,0,2004/12/10,,,0,0,1,0,0,3.00,240,ebook,,0,0,,,,Robert S. Feldman,,,1,1,,
17518501,1135615136,Putting a New Spin on Groups: The Science of Chaos,9781135615130,,,,ES,2005/1/15,Psychology Press,,true,10,7734042,7,14,4,0,1998/1/28,,,0,3,0,1,0,3.50,320,ebook,,0,0,Bud A. McClure,,,,,,1,0,,
17519001,1135628920,Nature and Nurture: The Complex Interplay of Genetic and Environmental Influences on Human Behavior and Development,9781135628925,,,,ES,2014/4/4,Psychology Press,,true,9,7095891,12,5,1,0,2003/1/1,,book,1,0,0,0,0,5.00,278,ebook,,0,0,,,,"Cynthia T. García Coll,Elaine L. Bearer,Richard M. Lerner",,,9,0,,science
17519501,113564103X,Research Design & Statistical Analysis,9781135641030,,,,ES,2002/11/1,Psychology Press,,true,16,1737734,44,52,14,0,1991/1/1,Research Design and Statistical Analysis,book,4,4,5,0,1,3.71,736,ebook,,0,0,"Arnold D. Well,Jerome L. Myers",,,,,,15,0,1,"psychology,reference,research"
17520001,,Geen tijd voor tranen,,,,,ES,,Vroegop Dirksland,,false,1,17520001,9,7,2,0,,,book,0,1,1,0,0,3.50,,Hardcover,,2,0,Lydia Vroegop-Zandbergen,,,,,,5,0,,
17520501,1135664463,Understanding Storytelling Among African American Children: A Journey from Africa to America,9781135664466,,,,ES,2014/4/8,Routledge,,true,8,17520499,0,0,0,0,2002/12/1,,,0,0,0,0,0,0.00,134,ebook,,0,0,Tempii B Champion,,,,,,,0,,
17521001,1135676844,Education and the Rise of the Global Economy,9781135676841,,,,ES,1998/9/1,Routledge,,true,7,4668172,7,3,1,0,1998/9/1,"Education and the Rise of the Global Economy (Sociocultural, Political, and Historical Studies in Education)",,0,0,1,0,0,3.00,248,ebook,,0,0,Joel Spring,,,,,,2,0,,sociology
17521501,1135688818,Transforming Literacy Curriculum Genres: Working with Teacher Researchers in Urban Classrooms,9781135688813,,,,ES,2005/5/18,Routledge,,true,6,17521499,0,0,0,0,2001/1/1,,,0,0,0,0,0,0.00,362,ebook,,0,0,,,,"Christine C. Pappas,Liliana Zecker",,,,0,,
17522001,113570368X,Handbook of College Reading and Study Strategy Research,9781135703684,,,,ES,2008/8/15,Routledge,,true,17,8208050,8,8,2,0,1999/9/1,,,0,2,0,0,0,4.00,500,ebook,,0,0,,,,"David C. Caverly,Rona F. Flippo",,,2,1,2,
17522501,1135717230,Developing Reflective Practice: Learning about Teaching and Learning Through Modelling,9781135717230,,,,ES,2002/11/1,Routledge,,true,6,4398369,4,6,2,0,1996/2/1,Developing Reflective Practice: Learning about Teaching and Learning Through Modelling,,0,0,2,0,0,3.00,216,ebook,,0,0,J. John Loughran,,,,,,1,1,1,education
17523001,1135734844,Historical Geography: Progress and Prospect,9781135734848,,,,ES,2013/1/11,Routledge,,true,8,11734475,0,0,0,0,1987/1/1,,,0,0,0,0,0,0.00,306,ebook,,0,0,,,,Michael Pacione,,,,0,,
17523501,1135761922,"The British Nuclear Weapons Programme, 1952-2002",9781135761929,,,,ES,2004/11/23,Routledge,,true,6,5144468,5,6,2,0,2003/7/30,"The British Nuclear Weapons Programme, 1952-2002",,0,1,0,1,0,3.00,168,ebook,,0,0,,,,"Douglas Holdstock,Frank Barnaby",,,3,0,,
17524001,1135774048,The End of Gender: A Psychological Autopsy,9781135774042,,,,ES,2013/1/11,Routledge,,true,4,17769043,1,4,1,0,2013/1/11,,,0,1,0,0,0,4.00,230,ebook,,0,0,Shari L Thurer,,,,,,,0,,
17524501,1135785481,"Uneven Development and Regionalism: State, Territory and Class in Southern Europe",9781135785482,,,,ES,2005/12/7,Routledge,,true,5,17524500,0,0,0,0,2005/12/7,,,0,0,0,0,0,0.00,352,ebook,,0,0,Costis Hadjimichalis,,,,,,,0,,
17525001,113579958X,Calm and Insight: A Buddhist Manual for Meditators,9781135799588,,,,ES,2003/9/2,Routledge,,true,7,10019919,4,6,2,0,1981/4/20,,,0,1,0,1,0,3.00,160,ebook,,0,0,Laurence Khantipālo Mills,,,,,,2,0,,
17525501,1135819750,Psychotherapy and the Bored Patient,9781135819750,,,,ES,2013/1/11,Routledge,,true,7,19914504,0,0,0,0,1988/10/11,,,0,0,0,0,0,0.00,174,ebook,,0,0,E. Mark Stern,,,,,,,0,,
17526001,1135839255,Hermeneutics and Music Criticism,9781135839253,,,,ES,2009/9/10,Routledge,,true,4,17525999,2,4,1,0,2010/4/15,,,0,1,0,0,0,4.00,216,ebook,,1,0,Roger W H Savage,,,,,,1,0,,economics
17526501,1135850798,Knowledge Management Primer,9781135850791,,,,ES,2009/9/10,Routledge,,true,9,12096968,4,9,2,0,2009/1/1,,,1,1,0,0,0,4.50,142,ebook,,0,0,"Brian Lehaney,Nilmini Wickramasinghe,Rajeev K. Bali",,,,,,1,0,,
17527001,1135864128,"Pontiac's War: Its Causes, Course and Consequences",9781135864125,,,,ES,2012/11/12,Routledge,,true,7,2728078,12,16,4,0,2007/7/1,"Pontiac's War: Its Causes, Course and Consequences",book,1,2,1,0,0,4.00,288,ebook,,0,0,C. Richard Middleton,,,,,,6,0,1,history
17527501,1135880433,"Bruce Springsteen: Two Hearts, the Story",9781135880439,,,,ES,2004/3/1,Routledge,,true,9,1051528,382,803,207,17,1981/1/1,"Bruce Springsteen: Two Hearts, the Story",book,57,83,53,13,1,3.88,754,ebook,,0,0,Dave Marsh,,,,,,123,3,9,"biography,biography-memoir,history,music,non-fiction"
17528001,1135893802,"Gendering Global Transformations: Gender, Culture, Race, and Identity",9781135893804,,,,ES,2008/11/19,Routledge,,true,9,6703091,3,0,0,0,2008/1/1,,book,0,0,0,0,0,0.00,292,ebook,,0,0,,,,"Chima J. Korieh,Philomina E. Okeke-Ihejirika",,,1,0,,
17528501,1135905606,The Culture of Welfare Markets: The International Recasting of Pension and Care Systems,9781135905606,,,,ES,2007/10/24,Routledge,,true,4,16523866,0,0,0,0,2007/7/27,,,0,0,0,0,0,0.00,262,ebook,,0,0,Ingo Bode,,,,,,,0,,
17529001,1135922411,Reworking the Ballet: Counter Narratives and Alternative Bodies,9781135922412,,,,ES,2007/11/13,Routledge,,true,8,8139096,11,7,3,0,2007/9/30,,,0,0,2,0,1,2.33,240,ebook,,0,0,Vida L. Midgelow,,,,,,5,1,,non-fiction
17529501,1135938253,Giving a Voice to the Voiceless: Four Pioneering Black Women Journalists,9781135938253,,,,ES,2003/10/30,Routledge,,true,7,1874186,4,4,1,0,2003/10/30,Giving a Voice to the Voiceless: Four Pioneering Black Women Journalists (Studies in African American History and Culture),book,0,1,0,0,0,4.00,232,ebook,,0,0,Jinx Coleman Broussard,,,,,,3,0,,
17530001,1135951349,The State and the Politics of Knowledge,9781135951344,,,,ES,2003/12/16,Routledge,,true,9,7108173,8,15,4,0,2003/1/1,,,2,0,1,1,0,3.75,268,ebook,,0,0,Michael W. Apple,,,,,,2,0,,education
17530501,1135964343,The Once and Future School: Three Hundred and Fifty Years of American Secondary Education,9781135964344,,,,ES,2004/8/2,Routledge,,true,8,2524937,6,0,0,0,1996/11/12,The Once and Future School: Three Hundred and Fifty Years of American Secondary Education,,0,0,0,0,0,0.00,280,ebook,,0,0,Jurgen Herbst,,,,,,3,0,,education
17531001,1135977011,Challenging Euro-America's Politics of Identity: The Return of the Native,9781135977016,,,,ES,2008/1/7,Routledge,,true,6,4689344,3,0,0,0,2007/12/1,Challenging Euro-America's Politics of Identity: The Return of the Native,,0,0,0,0,0,0.00,184,ebook,,0,0,Jorge Luis Andrade Fernandes,,,,,,1,0,,anthropology
17531501,1135988420,The Persistence of the Palestinian Question: Essays on Zionism and the Palestinians,9781135988425,,,,ES,2006/9/27,Routledge,,true,10,818468,186,122,31,1,2006/1/1,The Persistence of the Palestinian Question: Essays on Zionism and the Palestinians,,14,9,4,0,4,3.94,218,ebook,,0,0,Joseph A. Massad,,,,,,139,3,3,"essays,history,non-fiction,politics,religion"
17532001,1136002103,Advertising in Tourism and Leisure,9781136002106,,,,ES,2012/9/11,Routledge,,true,16,17532000,7,12,3,1,2000/9/5,,,2,0,0,1,0,4.00,360,ebook,,0,0,"Annette Pritchard,Nigel Morgan",,,,,,4,0,,non-fiction
17532501,113603398X,Improving Disabled Students' Learning: Experiences and Outcomes,9781136033988,,,,ES,2013/5/13,Routledge,,true,7,7001175,4,0,0,0,2009/1/1,,,0,0,0,0,0,0.00,210,ebook,,0,0,"Alan Hurst,Elisabet Weedon,Hazel Roberts,Jan Georgeson,Katie Kelly,Mary Fuller,Mick Healey,Sheila Riddell",,,,,,3,0,,
17533001,113606530X,Blues with a Feeling: The Little Walter Story,9781136065309,,,,ES,2012/11/12,Routledge,,true,3,7641243,1,0,0,0,2002/1/1,,,0,0,0,0,0,0.00,344,ebook,,0,0,"Scott Dirks,Tony Glover,Ward Gaines",,,,,,1,0,,
17533501,1136093893,Langford's Starting Photography: The Guide to Creating Great Images,9781136093890,,,,ES,2014/4/16,Focal Press,,true,7,6907010,62,73,20,2,2008/1/1,,,3,8,8,1,0,3.65,352,ebook,,0,0,"Michael Langford,Philip Andrews",,,,,,26,1,4,
17534001,1136119299,Sound System Engineering,9781136119293,,,,ES,2006/9/1,Focal Press,,true,19,3833986,75,61,15,0,1975/1/1,Sound System Engineering,book,4,9,1,1,0,4.07,504,ebook,,0,0,"Don Davis,Eugene Patronis",,,,,,44,0,2,"music,non-fiction,theatre"
17534501,1136144579,Focal Easy Guide to Flash MX 2004: For New Users and Professionals,9781136144578,,,,ES,2013/7/31,Focal Press,,true,5,1550189,5,0,0,0,2004/8/10,Focal Easy Guide to Flash MX 2004: For new users and professionals (The Focal Easy Guide),,0,0,0,0,0,0.00,224,ebook,,0,0,Birgitta Hosea,,,,,,,0,,reference
17535001,113617818X,Europeanization and the European Economic Area: Iceland's Participation in the Eu's Policy Process,9781136178184,,,,ES,2013/1/17,Routledge,,true,8,17769741,1,0,0,0,2012/8/30,,book,0,0,0,0,0,0.00,224,ebook,,0,0,Jóhanna Jónsdóttir,,,,,,,0,1,
17535501,1136208518,The Emerging Asian City: Concomitant Urbanities & Urbanisms,9781136208515,,,,ES,2012/11/12,Routledge,,true,6,17129515,8,0,0,0,2012/11/1,,,0,0,0,0,0,0.00,274,ebook,,0,0,,,,Vinayak Bharne,,,7,0,1,
17536001,1136232524,Religion and Hip Hop,9781136232527,,,,ES,2012/10/12,Routledge,,true,6,13714584,35,15,4,0,2012/1/1,,book,1,1,2,0,0,3.75,208,ebook,,0,0,Monica R Miller,,,,,,27,0,,"music,religion"
17536501,1136254811,Donald Winnicott Today,9781136254819,,,,ES,2012/9/10,Routledge,,true,9,13712818,32,17,5,2,2012/1/1,,,1,2,1,0,1,3.40,512,ebook,,0,0,,,,Jan Abram,,,24,0,1,
17537001,1136274006,Popular Television in Eastern Europe During and Since Socialism,9781136274008,,,,ES,2012/9/10,Routledge,,true,3,17537001,0,0,0,0,2012/9/1,,,0,0,0,0,0,0.00,286,ebook,,0,0,,,,"Aniko Imre,Katalin Lustyik,Timothy Havens",,,,0,,
17537501,1136293914,"Men, Wage Work and Family",9781136293917,,,,ES,2012/8/6,Routledge,,true,8,17006487,0,0,0,0,2012/1/1,,,0,0,0,0,0,0.00,174,ebook,,0,0,,,,"Emma L. Jeanes,Paula McDonald",,,,0,,
17538001,1136311068,Making Language Matter: Teaching Resources for Meeting the English Language Arts Common Core State Standards in Grades 9-12,9781136311062,,,,ES,2012/10/2,Routledge,,true,9,13711990,3,7,2,0,2012/1/1,,,0,1,1,0,0,3.50,118,ebook,,0,0,"Deborah J. Vause,Julie S. Amberg",,,,,,1,1,,
17538501,1136326251,School Psychology and Social Justice: Conceptual Foundations and Tools for Practice,9781136326257,,,,ES,2013/1/17,Routledge,,true,9,16700128,14,15,4,2,2012/11/1,,,1,1,2,0,0,3.75,360,ebook,,0,0,,,,"Antoinette Halsell Miranda,David Shriberg,Kisha Radliff,Samuel Y. Song",,,7,0,,
17539001,1136341307,Using Games to Enhance Learning and Teaching: A Beginner's Guide,9781136341304,,,,ES,2012/5/23,Routledge,,true,9,16794860,10,22,6,1,2012/1/1,,,0,4,2,0,0,3.67,248,ebook,,0,0,,,,"Alex Moseley,Nicola Whitton",,,7,1,,education
17539501,1136358277,The Diversity Scorecard,9781136358272,,,,ES,2012/7/26,Routledge,,true,5,17539501,1,4,1,0,2010/1/10,,,0,1,0,0,0,4.00,256,ebook,,1,0,Edward Hubbard,,,,,,,0,,
17540001,1136374930,Organizing and Delegating Super Series,9781136374937,,,,ES,2013/6/1,Routledge,,true,7,6712642,0,0,0,0,2007/1/1,,,0,0,0,0,0,0.00,128,ebook,,0,0,Institute of Leadership & Management,,,,,,,0,,
17540501,1136393560,Botanical Medicines: The Desk Reference for Major Herbal Supplements,9781136393563,,,,ES,2012/11/12,Routledge,eng,true,7,648919,105,31,8,0,2002/7/15,Botanical Medicines: The Desk Reference for Major Herbal Supplements,book,2,3,3,0,0,3.88,1168,ebook,2nd Edition,0,0,"Dennis J. McKenna,Kenneth Jones,Kerry Hughes,Virginia M. Tyler",,,,,,93,1,2,"health,medical,non-fiction,reference,research"
17541001,1136410112,Digital Heritage,9781136410116,,,,ES,2006/8/11,Routledge,,true,5,17541000,0,0,0,0,2006/4/11,,,0,0,0,0,0,0.00,592,ebook,,0,0,,,,Lindsay MacDonald,,,,0,,
17541501,1136426647,Beginnings - Charles Rennie Mackintosh's Early Sketches,9781136426643,,,,ES,2012/5/4,Routledge,,true,7,1751298,8,8,2,0,2002/12/1,Beginnings - Charles Rennie Mackintosh's Early Sketches,,0,2,0,0,0,4.00,177,ebook,,0,0,Elaine Grogan,,,,,,2,1,,art
17542001,113643903X,International Encyclopedia of Hospitality Management 2nd Edition,9781136439032,,,,ES,2012/6/25,Routledge,,true,15,11365371,24,4,1,0,2005/1/1,,book,0,1,0,0,0,4.00,738,ebook,,0,0,,,,Abraham Pizam,,,18,0,1,
17542501,1136451315,"Bollywood Travels: Culture, Diaspora and Border Crossings in Popular Hindi Cinema",9781136451317,,,,ES,2012/5/23,Routledge,,true,4,17542499,0,0,0,0,2012/5/1,,,0,0,0,0,0,0.00,144,ebook,,0,0,Rajinder Dudrah,,,,,,,0,,
17543001,1136465685,Strategic Alliance Management,9781136465680,,,,ES,2013/3/1,Routledge,,true,15,12874828,16,19,5,0,2012/1/1,,,1,2,2,0,0,3.80,368,ebook,,0,0,"Brian Tjemkes,Koen Burgers,Pepijn Vos",,,,,,9,0,,
17543501,1136480404,Infant Observation and Research: Emotional Processes in Everyday Lives,9781136480409,,,,ES,2012/5/23,Routledge,,true,7,13714130,2,0,0,0,2012/1/1,,,0,0,0,0,0,0.00,208,ebook,,0,0,,,,"Cathy Urwin,Janine Sternberg",,,2,0,,
17544001,1136494359,"Seasonality, Rural Livelihoods and Development",9781136494352,,,,ES,2013/7/3,Routledge,,true,6,14500565,0,0,0,0,2011/11/1,,,0,0,0,0,0,0.00,334,ebook,,0,0,,,,"Rachel Sabates-Wheeler,Richard Longhurst,Stephen Devereux",,,,0,,
17544501,1136509488,Alternatives to Privatization: Public Options for Essential Services in the Global South,9781136509483,,,,ES,2014/5/14,Routledge,,true,7,14920855,5,0,0,0,2012/1/1,,,0,0,0,0,0,0.00,536,ebook,,0,0,,,,"David A. McDonald,Greg Ruiters",,,5,0,,
17545001,1136522492,Managing Natural Wealth: Environment and Development in Malaysia,9781136522499,,,,ES,2010/9/30,Routledge,,true,7,877304,4,3,1,0,2005/1/1,Managing Natural Wealth: Environment and Development in Malaysia,,0,0,1,0,0,3.00,468,ebook,,0,0,"Jeffrey R. Vincent,Rozali Mohamed Ali",,,,,,2,1,,non-fiction
17545501,1136535047,"Food Wars: The Global Battle for Mouths, Minds and Markets",9781136535048,,,,ES,2004/4/26,Routledge,,true,13,2084135,169,166,44,6,2003/6/3,Food Wars: Public Health and the Battle for Mouths Minds and Markets,,10,17,14,3,0,3.77,384,ebook,,0,0,"Michael Heasman,Tim Lang",,,,,,104,2,3,"economics,food,non-fiction,politics,technology,unfinished"
17546001,1136549463,Uniting a Divided City: Governance and Social Exclusion in Johannesburg,9781136549465,,,,ES,2014/10/14,Routledge,,true,7,1863727,7,16,4,0,2002/6/28,Uniting a Divided City: Governance and Social Exclusion in Johannesburg,,2,0,2,0,0,4.00,254,ebook,,0,0,"Jo Beall,Owen Crankshaw,Susan Parnell",,,,,,1,0,1,
17546501,1136560459,Negotiating Health: Intellectual Property and Access to Medicines,9781136560453,,,,ES,2012/4/27,Routledge,,true,3,17546501,0,0,0,0,2012/4/27,,,0,0,0,0,0,0.00,320,ebook,,0,0,,,,"Geoff Tansey,Pedro Roffe",,,,0,,
17547001,113657218X,Against Extinction: The Story of Conservation,9781136572180,,,,ES,2013/6/17,Routledge,,true,7,1823298,47,61,16,0,2004/1/1,Against Extinction: The Past and Future of Conservation,,5,4,6,1,0,3.81,326,ebook,,0,0,William M. Adams,,,,,,18,0,,nature
17547501,1136585842,Dealing with Emotional Problems Using Rational-Emotive Cognitive Behaviour Therapy: A Client's Guide,9781136585845,,,,ES,2013/3/1,Routledge,,true,9,13713307,6,8,2,0,2011/1/1,,,0,2,0,0,0,4.00,200,ebook,,0,0,Windy Dryden,,,,,,3,1,,psychology
17548001,1136598839,Health Economics: An Industrial Organization Perspective,9781136598838,,,,ES,2013/6/17,Routledge,,true,8,13712743,2,4,1,0,2012/1/5,,,0,1,0,0,0,4.00,352,ebook,,0,0,"Pedro Barros,Xavier Martinez-giralt",,,,,,,0,1,
17548501,1136618341,Alienation and the Carnivalization of Society,9781136618345,,,,ES,2014/5/14,Routledge,,true,7,11478300,5,0,0,0,2011/9/1,,,0,0,0,0,0,0.00,214,ebook,,0,0,,,,"Jerome Braun,Lauren Langman",,,5,0,,
17549001,113663178X,The Primary English Encyclopedia: The Heart of the Curriculum,9781136631788,,,,ES,2012/5/23,Routledge,,true,24,13713359,11,29,7,0,2002/10/4,,,3,2,2,0,0,4.14,552,ebook,,0,0,Margaret Mallett,,,,,,1,0,,
17549501,1136643958,Work-Related Teaching and Learning: A Guide for Teachers and Practitioners,9781136643958,,,,ES,2013/3/1,Routledge,,true,9,13713088,0,0,0,0,2011/1/1,,,0,0,0,0,0,0.00,180,ebook,,0,0,,,,"Julian Stanley,Prue Huddleston",,,,0,,
17550001,1136664084,"Individuals, Groups, and Business Ethics",9781136664083,,,,ES,2012/5/16,Routledge,,true,9,17578841,0,0,0,0,2011/7/27,,,0,0,0,0,0,0.00,186,ebook,,0,0,Chris Provis,,,,,,,0,,
17550501,1136705058,Tracking the Media: Interpretations of Mass Media Discourses in India and Pakistan,9781136705052,,,,ES,2014/5/14,Routledge India,,true,4,17579277,1,0,0,0,2011/3/1,,,0,0,0,0,0,0.00,335,ebook,,0,0,Subarno Chattarji,,,,,,1,0,,
17551001,1136734511,Changing Schools: Alternative Ways to Make a World of Difference,9781136734519,,,,ES,2011/8/9,Routledge,,true,9,14839074,1,0,0,0,2011/1/1,,,0,0,0,0,0,0.00,240,ebook,,0,0,,,,"Bob Lingard,Pat Thomson,Terry Wrigley",,,1,0,,
17551501,1136810250,"Madness in International Relations: Psychology, Security, and the Global Governance of Mental Health",9781136810251,,,,ES,2011/5/30,Routledge,,true,8,17580616,10,13,3,1,2011/1/1,,,2,0,1,0,0,4.33,186,ebook,,0,0,Alison Howell,,,,,,6,0,1,
17552001,1136860495,Programming and Scheduling Techniques,9781136860492,,,,ES,2012/3/29,Routledge,,true,6,17581833,3,0,0,0,2011/6/23,,,0,0,0,0,0,0.00,304,ebook,,0,0,"Adam S. Zantis,Thomas Uher",,,,,,2,0,1,
17552501,1291288988,"Fiona's Tale of Sex, Love and Lost Virginity: A Story of Young Love and Sexual Awakening for a Teenage Girl",9781291288988,,,,ES,2013/1/1,Lulu.com,,false,2,20404541,15,5,1,0,2013/1/23,"Fiona's Tale of Sex, Love and Lost Virginity",book,1,0,0,0,0,5.00,264,Paperback,1st edition,1,0,"Angela Goodnight,Peter      Stone",,,,,,14,0,,
17553001,1416601058,Literacy Leadership for Grades 5-12,9781416601050,,,,ES,2003/2/15,ASCD,,true,4,1327352,9,15,5,0,2003/1/1,Literacy Leadership for Grades 5-12,,0,1,3,1,0,3.00,142,ebook,,0,0,"Rosemarye Taylor,Valerie Doyle Collins",,,,,,1,0,,
17553501,,Scorpions Spiders Centipedes and Millipedes,9781453052785,,,,ES,2011/1/1,Dalmatian Press,,false,2,17553501,12,16,4,1,2011/1/1,,book,2,0,2,0,0,4.00,,,,4,1,Paul Kupperberg,,,,,,3,3,,science
17554001,1463352549,Hecha y Deshecha En El Salvador,9781463352547,,,,ES,2013/2/27,Palibrio,,false,2,17554001,1,0,0,0,2013/2/27,,,0,0,0,0,0,0.00,184,Paperback,,0,0,Jairo E. López,,,,,,1,0,,
17554501,,Julio Cortázar,,,,,ES,,,spa,false,2,535101,16,28,8,1,,Julio Cortázar,book,1,4,2,0,1,3.50,,,,2,0,Cristina Peri Rossi,,,,,,6,0,,
17555001,1558628878,"International Directory of Company Histories, Volume 151",9781558628878,,,,ES,2014/1/10,St. James Press,,false,1,17555001,0,0,0,0,,,,0,0,0,0,0,0.00,754,Hardcover,,0,0,,,,St. James Press,,,,0,,
17555501,1614235767,The Lake Erie Campaign of 1813: I Shall Fight Them This Day,9781614235767,,,,ES,2012/7/11,History Press (SC),,true,1,17555501,0,0,0,0,2012/7/11,,,0,0,0,0,0,0.00,128,ebook,,0,0,Walter P Rybka,,,,,,,0,,
17556001,1625841086,"Wicked Lexington, Kentucky",9781625841087,,,,ES,2011/7/29,History Press (SC),,true,5,12179701,82,115,33,7,2011/7/29,,,5,12,10,6,0,3.48,128,ebook,,0,0,Fiona Young-Brown,,,,,,40,1,4,"history,humor,non-fiction"
17556501,1934271616,Les Enseignements de L'Islam,9781934271612,,,,ES,2013/2/22,Ahmadiyya Anjuman Ishaat Islam Lahore USA,,true,1,17556501,0,0,0,0,2013/2/22,,,0,0,0,0,0,0.00,150,ebook,,0,0,Hazrat Mirza Ghulam,,,,,,,0,,
17557001,9814472743,"Nurturing Reflective Learners in Mathematics: Yearbook 2013, Association of Mathematics Educators",9789814472746,,,,ES,2013/3/14,World Scientific Publishing Company,,false,2,17557001,1,0,0,0,2013/1/1,,,0,0,0,0,0,0.00,328,Hardcover,,0,0,,,,Berinderjeet Kaur,,,1,0,,
17557501,1452119392,CB 2013 Tote Bag: TBD,9781452119397,,,,ES,2013/6/19,Chronicle Books,,false,1,17557501,0,0,0,0,2013/10/1,,not a book,0,0,0,0,0,0.00,,Novelty Book,,0,0,NOT A BOOK,,,,,,,0,,
17558001,4044710074,"薔薇のマリアVer1 つぼみのコロナ (Bara no Maria Ver, #2)",9784044710071,,,,ES,2006/8/1,Kadokawa Shoten,jpn,false,1,17558001,5,8,2,1,2006/8/1,薔薇のマリアVer1 つぼみのコロナ,book,1,0,1,0,0,4.00,317,Paperback,,2,1,Ao Jyuumonji,BUNBUN,,,,,3,0,,
17558501,,Love Bytes,9781622425136,,,,ES,2013/2/16,Siren Publishing,eng,true,5,17558501,262,488,133,23,2011/2/11,,book,48,27,32,18,8,3.67,100,ebook,2nd Revised Edition,85,20,Gale Stanley,,,,,,85,8,,"contemporary,fantasy,menage,novels,paranormal,romance,supernatural,vampires"
17559001,,حبيبى أون لاين,,,,,ES,,,,false,2,17559001,17,12,3,2,2010/1/1,,book,1,1,1,0,0,4.00,,,,3,1,أحمد كفافى,,,,,,14,0,,
17559501,,Maybe Perfect,,,,,ES,2013/1/20,wattpad,eng,false,1,17559501,188,392,102,4,2013/1/20,Maybe Perfect,book,32,32,30,6,2,3.84,,,,102,4,winx1348,,,,,,54,6,2,"high-school,teen,young-adult"
17560501,,"Review of Australian Fiction (Volume 5, Issue 3)",,,,,ES,2013/1/1,Review of Australian Fiction,eng,true,1,17560501,6,10,2,0,2013/1/1,,book,2,0,0,0,0,5.00,,ebook,,2,0,"Inga Simpson,Mary-Rose MacColl",,,,,,3,0,,
17561001,,2011: Primeros Relatos,9788493908805,,,,ES,2011/5/1,Ediciones de la Fundación de Cultura Andaluza,spa,false,1,17561001,3,0,0,0,2011/5/1,,book,0,0,0,0,0,0.00,85,Paperback,Unique Edition,0,0,"Alba Cuenca García,Alicia Gadea Sánchez,Beatriz Morillo Muela,Daniel Matías Carralero,Jose Antonio Ramírez García",,,,,,1,0,,
17561501,,Ennui,,B00BKRFVWO,,,ES,2013/1/1,Two Daughters,eng,true,2,17561501,20,33,7,0,2013/2/24,,book,5,2,0,0,0,4.71,,Kindle Edition,,7,0,Phillip Thomas Duck,,,,,,12,3,,
17562001,1466841249,The Green Coffee Bean Quick Weight Loss Diet,9781466841246,,,,ES,2013/5/28,St. Martin's Griffin,,true,3,17409762,9,2,1,0,2013/5/28,,book,0,0,0,1,0,2.00,160,ebook,,0,0,Leslie Pepper,,,,,,4,1,1,
17562501,,Amours,,,,,ES,1973/10/25,Mercure de France,fre,false,5,6635371,36,60,17,1,1906/1/1,Amours,book,4,3,8,2,0,3.53,117,Poche,Folio,2,0,Paul Léautaud,,,,,,12,1,1,
17563001,,"Jerome Myers: An Artist in Manhattan,  1867-1967",,,,,ES,,,,false,1,17563001,2,0,0,0,,,book,0,0,0,0,0,0.00,,,,0,0,"Delaware Art Center,Harry Wickey,Montclair Art Museum",,,,,,1,0,,
17563501,2896465928,The Thoughts and Prayers of Benedict XVI,9782896465927,,,,ES,,Novalis,,false,1,17563501,1,0,0,0,,,,0,0,0,0,0,0.00,32,Pamphlet,,0,0,Benedict XVI,,,,,,1,0,,
17564001,,سقوط اصفهان,,,,,ES,,,,false,16,218319,531,915,240,33,1998/1/1,Sauver Ispahan,book,50,113,61,14,2,3.81,,,,5,4,Jean-Christophe Rufin,,,,,,31,3,5,"adventure,european-literature,fiction,france,historical,historical-fiction,literature,novels"
17564501,8276340229,Brelære,,,,,ES,1995/1/1,Høyskoleforlaget A/S,nor,false,1,17564501,1,0,0,0,1995/1/1,,book,0,0,0,0,0,0.00,124,Paperback,,0,0,Atle Nesje,,,,,,,0,,
17565001,8177660640,Maza Gaon,9788177660647,,,,ES,1978/1/1,Mehta Publishing House,mar,false,1,17565001,232,238,63,1,1978/1/1,,book,21,20,11,9,2,3.78,312,Paperback,,63,1,रणजित देसाई,,,,,,163,2,4,
17565501,9043914495,Koersen in het duister,9789043914499,,,,ES,2012/4/1,Tirion Sport,nl,false,3,6797630,5252,14217,3414,206,2011/6/1,Racing Through the Dark,book,1312,1480,516,83,23,4.16,360,Paperback,,8,0,David Millar,,,,Jolanda te Lindert,,1181,15,83,"autobiography,biography,biography-memoir,fiction,france,history,memoir,non-fiction,sports"
17566001,,Create Your Own Water Filtration System On The Go! (So You Can Drink Your Own Pee If Need Be!),,B00BHB2RLQ,,,ES,2013/2/17,,,true,1,17566001,30,29,8,0,2013/2/17,,book,1,4,2,1,0,3.62,42,Kindle Edition,,8,0,Donald Langley,,,,,,15,0,4,
17566501,,Wild Thyme and Violets and Other Unpublished Stories,,B007UHR0AE,,,ES,2012/4/14,"Spatterlight Press, LLC",en-GB,true,3,17566500,14,13,5,1,2012/4/14,,book,0,0,4,0,1,2.60,322,Kindle Edition,,2,0,Jack Vance,,,,,,6,0,1,
17567001,0723565694,Asterix Annual 1980,,,,,ES,,World Distributors,,false,1,17567001,7,6,2,0,,,book,0,0,2,0,0,3.00,,,,2,0,"Albert Uderzo,René Goscinny",,,,,,2,0,,
17567501,,L'Amour inquiet,,,,,ES,2001/4/1,10-18,fre,false,2,5960633,7,15,4,0,1951/1/1,Unrast der Liebe,book,0,3,1,0,0,3.75,488,Poche,Bibliothéques 10-18,1,0,"Friderike Maria Burger Winternitz Zweig,Stefan Zweig",,,,Jacques Legrand,,2,0,,
17568501,9544595570,Оцеола,,,,,ES,1998/1/1,Хермес,bul,false,52,572690,1232,3228,816,14,1858/1/1,Osceola the Seminole: The Red Fawn of the Flower Land,book,277,283,207,41,8,3.96,332,Paperback,,1,0,Mayne Reid,,,,,,208,7,11,"adventure,american,british-literature,classics,fiction,historical,historical-fiction,history,literature,research,war,young-adult"
17569001,,Killing Doctor Jon,9780984025152,,,,ES,2013/3/9,Single Candle Press,eng,false,3,17568970,22,64,13,8,2013/3/9,,book,12,1,0,0,0,4.92,279,,trade paperback,0,0,Dale Amidei,,,,,,8,0,,"suspense,thriller"
17570001,,"The Gatekeeper's Daughter (Gatekeeper's Saga, #3)",,,,,ES,2013/5/1,Green Press/Eva Pohler,eng,false,8,17570001,2877,4235,1021,81,2013/4/30,,book,446,340,186,38,11,4.15,235,Paperback,,721,67,Eva Pohler,,,,,,1401,15,62,"contemporary,fantasy,fiction,magic,modern,mythology,paranormal,retellings,romance,urban-fantasy,young-adult"
17570501,,Persephone and Hades ( Good in Bed Erotic Shorts),9780983843726,,,,ES,2011/1/1,"Good in Bed LLC., 2011",eng,false,1,17570501,13,5,2,0,2011/1/1,,book,0,0,1,1,0,2.50,458,,2011,2,0,Cate Bellow,,,,,,9,0,,
17571001,,Geraldine,,,,,ES,1969/1/1,Editura pentru Literatură,rum,false,1,17571001,4,7,2,0,1969/1/1,,book,1,0,0,1,0,3.50,78,Paperback,Colecția Luceafărul,2,0,Sebastian Reichmann,,,,,,2,0,,
17571501,1421555263,"Sunny, Vol. 2",9781421555263,,,,ES,2013/11/19,VIZ Media LLC,,false,8,17571501,780,2080,471,31,2012/2/29,,book,246,177,46,2,0,4.42,216,Hardcover,,451,31,Taiyo Matsumoto,,,,,,220,16,,"adult,comics,fiction,graphic-novels,literature,manga,novels"
17572001,,Ho tok av seg blusen og sa ho var bibliotekar,,,,,ES,2012/1/1,Piggsvin,nno,false,3,17231491,97,191,61,6,2012/1/1,Ho tok av seg blusen og sa ho var bibliotekar ,book,4,14,32,8,3,3.13,205,Hardcover,,3,0,Bjørn Sortland,Øyvind Torseter,,,,,14,6,,"contemporary,novels,romance,short-stories"
17572501,1927018358,The Orange Trees of Baghdad,9781927018354,,,,ES,2014/3/1,Read Leaf,,false,8,2021329,203,331,88,14,2007/1/1,The Orange Trees of Baghdad: In Search of My Lost Family,,22,36,19,9,2,3.76,336,Paperback,,3,0,Leilah Nadir,,,,,,76,7,4,"american,history,memoir,non-fiction,society,war"
17573001,0300184611,The Future of Nature: Documents of Global Change,9780300184617,,,,ES,2013/10/22,Yale University Press,,false,3,22284733,21,21,6,1,2013/1/1,The Future of Nature,book,0,4,1,1,0,3.50,584,Paperback,,1,0,,,,"Libby Robin,Paul Warde,Sverker Sörlin",,,10,0,,"academic,science"
17573501,0263905918,Weddings: The Proposals: The Brooding Frenchman's Proposal / Memo: The Billionaire's Proposal / The Playboy Firefighter's Proposal,9780263905915,,,,ES,2013/4/1,Mills & Boon,eng,false,6,17663121,37,17,4,0,2013/4/1,,book,2,1,1,0,0,4.25,,Paperback,,1,0,"Emily Forbes,Melissa McClone,Rebecca Winters",,,,,,22,0,1,
17574001,0511839103,"Outsourcing: Design, Process and Performance",9780511839108,,,,ES,2011/2/1,Cambridge University Press,,true,5,17810846,5,13,3,0,2007/8/1,,,1,2,0,0,0,4.33,236,ebook,,0,0,Michael J. Mol,,,,,,1,0,,"academic,business"
17574501,064657566X,Once Upon a Time in Cabramatta,9780646575667,,,,ES,2012/1/1,Special Broadcast Service,,false,1,17574501,0,0,0,0,2012/1/1,,,0,0,0,0,0,0.00,,Paperback,,0,0,Thang Ngo,,,,,,,0,,
17575001,0854329587,Transformism: Melanie Jackson & Revital Cohen,9780854329588,,,,ES,2013/1/16,John Hansard Gallery University,,false,1,17575001,0,0,0,0,2013/2/1,,,0,0,0,0,0,0.00,30,Paperback,,0,0,Isobel Harbison,,,,,,,0,,
17575501,1101657847,"Talk to Me Like I'm Someone You Love, Revised Edition: Relationship Repair in a Flash",9781101657843,,,,ES,2013/1/3,Tarcher,,true,15,6649071,398,451,120,17,1994/3/1,Talk to Me Like I'm Someone You Love: Relationship Repair in a Flash,book,38,34,32,13,3,3.76,384,ebook,,0,0,Nancy Dreyfus,,,,,,130,6,34,"christian,health,love,marriage,non-fiction,psychology,relationships,science,self-help"
17576001,1134701055,Effective Leadership for School Improvement,9781134701056,,,,ES,2013/9/5,Routledge,,true,7,4457797,3,8,2,0,2002/12/1,Effective Leadership for School Improvement (School Leadership Series),book,0,2,0,0,0,4.00,216,ebook,,0,0,"Alma Harris,Christopher Day,David Hopkins",,,,,,1,0,,
17576501,1135064881,Fresh Verdicts on Joan of Arc,9781135064884,,,,ES,2013/3/7,Routledge,,true,10,314206,37,40,10,0,1996/5/1,Fresh Verdicts on Joan of Arc (The New Middle Ages),book,2,6,2,0,0,4.00,342,ebook,,0,0,,,,"Bonnie Wheeler,Charles T. Wood",,,22,1,,history
17577001,1135153795,The Democracy Advantage: How Democracies Promote Prosperity and Peace,9781135153793,,,,ES,2009/12/16,Routledge,,true,12,1392100,43,60,16,1,2004/11/29,The Democracy Advantage: How Democracies Promote Prosperity and Peace,,2,8,6,0,0,3.75,312,ebook,,0,0,"Joe Siegle,Michael Weinstein,Morton H. Halperin",,,,,,8,1,1,"non-fiction,textbooks"
17577501,,Henri s Walk to Paris,,,,,ES,,,,false,5,12074821,946,1367,326,48,1962/1/1,Henri's walk to Paris,book,143,117,55,8,3,4.19,,,,3,0,"Leonore Klein,Saul Bass",,,,,,188,13,,"adventure,art,childrens,fiction,france,humor,picture-books"
17578001,1136043381,"Editing Digital Film: Integrating Final Cut Pro, Avid, and Media 100",9781136043383,,,,ES,2012/11/12,Routledge,,true,6,1545443,4,4,1,0,2001/4/23,"Editing Digital Film: Integrating Final Cut Pro, Avid, and Media 100",,0,1,0,0,0,4.00,192,ebook,,0,0,Jaime Fowler,,,,,,2,0,,
17578501,1136533826,Global Environmental Risk,9781136533822,,,,ES,2013/5/13,Routledge,,true,8,3244592,1,4,1,0,2001/10/1,Global Environmental Risk (Earthscan Risk and Society Series),,0,1,0,0,0,4.00,592,ebook,,0,0,"Jeanne X. Kasperson,Roger E. Kasperson",,,,,,1,0,,
17579001,1136674209,"Economic Growth and Income Inequality in China, India and Singapore: Trends and Policy Implications",9781136674204,,,,ES,2013/3/1,Routledge,,true,8,13714122,5,0,0,1,2011/1/1,,,0,0,0,0,0,0.00,208,ebook,,0,0,"Bhanoji Rao,G. Shantakumar,Pundarik Mukhopadhaya",,,,,,4,0,,economics
17579501,1136722769,American Influence on English Education,9781136722769,,,,ES,2012/5/4,Routledge,,true,5,18635984,0,0,0,0,2012/1/19,,,0,0,0,0,0,0.00,4,ebook,,0,0,W H G Armytage,,,,,,,0,,
17580001,1136757228,Supporting Children with Autistic Spectrum Disorders,9781136757228,,,,ES,2013/1/1,David Fulton Publishers,,true,6,4954058,4,5,1,0,2004/6/1,Supporting Children with Autistic Spectrum Disorders (Supporting Children) (Supporting Children),,1,0,0,0,0,5.00,64,ebook,,0,0,Hull Learning Services,,,,,,1,0,,
17580501,1136802568,An Actor Prepares,9781136802560,,,,ES,1989/4/28,Routledge,,true,37,94675,8205,12296,3026,142,1938/1/1,Работа актера над собой,book,1159,1091,619,123,34,4.06,344,ebook,,0,0,Konstantin Stanislavski,,,,,,3608,26,593,"academic,art,classics,college,drama,film,history,literature,music,non-fiction,plays,psychology,reference,school,self-help,theatre,writing"
17581001,1136830308,Corrections: Foundations for the Future,9781136830303,,,,ES,2011/5/3,Routledge,,true,5,17581001,0,0,0,0,2011/2/7,,,0,0,0,0,0,0.00,640,ebook,,0,0,Jeanne B Stinchcomb,,,,,,,0,,
17581501,1136848177,"Gender, Emotions and Labour Markets - Asian and Western Perspectives",9781136848179,,,,ES,2010/12/14,Routledge,,true,9,19738163,0,0,0,0,2010/1/1,,,0,0,0,0,0,0.00,160,ebook,,0,0,"Ann Brooks,Theresa Devasahayam",,,,,,,0,,
17582001,1136868283,Diversity in Europe: Dilemnas of Differential Treatment in Theory and Practice,9781136868283,,,,ES,2010/11/29,Routledge,,true,4,17582000,0,0,0,0,2010/11/29,,,0,0,0,0,0,0.00,208,ebook,,0,0,,,,"Emanuela Ceva,Gideon Calder",,,,0,,
17582501,1136886486,Therapeutic Processes for Communication Disorders: A Guide for Clinicians and Students,9781136886485,,,,ES,2010/11/25,Psychology Press,,true,3,17582500,0,0,0,0,2010/11/25,,,0,0,0,0,0,0.00,288,ebook,,0,0,,,,Robert J Fourie,,,,0,,
17583001,1136902139,"Security, Law and Borders: At the Limits of Liberties",9781136902130,,,,ES,2010/9/21,Routledge,,true,4,9650013,0,0,0,0,2010/9/21,,,0,0,0,0,0,0.00,160,ebook,,0,0,Tugba Basaran,,,,,,,0,,
17583501,1136917381,Imperial Japan: 1926-1938,9781136917387,,,,ES,2010/10/18,Routledge,,true,8,14336115,3,0,0,0,2007/3/15,,,0,0,0,0,0,0.00,326,ebook,,0,0,A. Morgan Young,,,,,,3,0,,
17584001,1136931457,Grounding Religion: A Field Guide to the Study of Religion and Ecology,9781136931451,,,,ES,2010/10/4,Routledge,,true,15,10685013,48,44,11,0,2010/9/14,,book,6,1,2,2,0,4.00,242,ebook,,0,0,,,,"Richard Bohannon,Whitney Bauman",,,22,0,5,"philosophy,religion"
17584501,1136946950,Show Me the Money: Writing Business and Economics Stories for Mass Communication,9781136946950,,,,ES,2010/10/4,Routledge,,true,15,10535873,38,39,10,0,2004/4/20,,,2,5,3,0,0,3.90,396,ebook,,0,0,Chris Roush,,,,,,16,0,5,"american-history,business,economics,writing"
17585001,1136960937,A History of National Socialism (Rle Responding to Fascism),9781136960932,,,,ES,2010/11/1,Routledge,,true,6,16543917,0,0,0,0,2010/3/1,,,0,0,0,0,0,0.00,460,ebook,,0,0,Konrad Heiden,,,,,,,0,,
17585501,1136976213,Understanding Advanced Second-Language Reading,9781136976216,,,,ES,2010/9/13,Routledge,,true,8,9377949,11,16,4,0,2010/7/14,,,1,2,1,0,0,4.00,218,ebook,,0,0,Elizabeth B. Bernhardt,,,,,,5,0,,
17586001,1136990844,Social Justice Pedagogy Across the Curriculum: The Practice of Freedom,9781136990847,,,,ES,2010/4/5,Routledge,,true,3,17586001,0,0,0,0,2010/7/1,,,0,0,0,0,0,0.00,326,ebook,,0,0,,,,"Nikola Hobbel,Thandeka K Chapman",,,,0,,
17586501,1402287461,Don't Push the Button!,9781402287466,,,,ES,2013/11/1,Sourcebooks Jabberwocky,eng,false,5,17586501,2874,6784,1597,320,2013/11/1,Don't Push the Button!,book,751,560,232,39,15,4.25,32,Hardcover,,1467,301,Bill   Cotter,,,,,,679,43,17,"action,childrens,fantasy,fiction,funny,humor,picture-books"
17587001,1444005898,"The Double Cross (Sam Silver: Undercover Pirate, #6)",9781444005899,,,,ES,2013/5/7,Orion Children's,eng,false,4,17587001,42,94,23,2,2013/4/1,,book,11,6,4,1,1,4.09,144,Paperback,,19,2,"Jan Burchett,Sara Vogler",,,,,,13,1,1,"adventure,animals,art,health,history,literature,music,science"
17587501,1453006974,Angry Birds Star Wars: Ready! Aim! Fire!: Sticker Scene Plus Book to Color,9781453006979,,,,ES,2013/2/1,Dalmatian Press,eng,false,1,17587501,5,5,1,0,2013/2/1,,book,1,0,0,0,0,5.00,,Paperback,,1,0,,,,,,,5,0,,
17588001,1461271738,Secrets of the Mind: A Tale of Discovery and Mistaken Identity,9781461271734,,,,ES,2012/10/17,Copernicus Books,,false,3,4173109,7,4,1,0,1999/8/13,Secrets of the Mind,,0,1,0,0,0,4.00,230,Paperback,,0,0,A.G. Cairns-Smith,,,,,,7,0,,
17588501,1461355613,Mathematical Programming and Financial Objectives for Scheduling Projects,9781461355618,,,,ES,2012/10/23,Springer,,false,3,17588501,1,4,1,0,2001/6/30,,,0,1,0,0,0,4.00,187,Paperback,,1,0,Alf Kimms,,,,,,,0,,
17589001,1461370558,Multilevel Secure Transaction Processing,9781461370550,,,,ES,2012/10/11,Springer,,false,3,17589001,1,0,0,0,1999/11/30,,,0,0,0,0,0,0.00,126,Paperback,,0,0,"Binto George,Sushil Jajodia,Vijay Atluri",,,,,,1,0,,
17589501,1461634008,Persons and Liberal Democracy: The Ethical and Political Thought of Karol Wojtyla/John Paul II,9781461634003,,,,ES,2010/7/17,Lexington Books,,true,3,17589501,0,0,0,0,2010/1/1,,,0,0,0,0,0,0.00,158,ebook,,0,0,Edward Barrett,,,,,,,0,,
17590001,1469235188,The End of Men: And the Rise of Women,9781469235189,,,,ES,2013/9/3,Brilliance Audio,,false,22,13593564,6953,6443,1883,323,2012/1/1,,book,297,621,627,255,83,3.42,,Audio CD,,0,0,Hanna Rosin,,,,,,3744,40,180,"adult,business,contemporary,economics,essays,family,feminism,history,non-fiction,politics,psychology,reference,relationships,school,social-issues,society,sociology,unfinished"
17590501,1479126659,Fotoripples / 3,9781479126651,,,,ES,2012/8/24,Createspace Independent Publishing Platform,,false,1,17590501,0,0,0,0,2012/8/24,,,0,0,0,0,0,0.00,158,Paperback,,0,0,Albert Russo,,,,,,,0,,
17591001,1482599082,Top 25 Network Management Kpis of 2011-2012,9781482599084,,,,ES,2013/3/6,Createspace Independent Publishing Platform,,false,1,17591001,1,0,0,0,2013/3/6,,,0,0,0,0,0,0.00,76,Paperback,,0,0,,,,Aurel Brudan,,,1,0,,
17591501,1550593714,The Essential Equation: A Handbook for School Improvement,9781550593716,,,,ES,2009/1/1,Brush Education,,false,1,17591501,5,6,2,0,2009/1/1,,,0,0,2,0,0,3.00,152,Paperback,,2,0,"David Townsend,Pamela Adams",,,,,,2,0,1,school
17592001,1607180316,My Half Day,9781607180319,,,,ES,2008/7/10,Arbordale Publishing,,true,6,7057139,51,77,20,3,2008/1/1,,book,5,8,6,1,0,3.85,32,ebook,,0,0,"Dani Sneed,Doris Fisher",,,,,,20,1,,"childrens,poetry,school"
17592501,1620294443,"Bah Humbug, Mrs. Scrooge",9781620294444,,,,ES,2012/11/1,Barbour Publishing,,true,4,2197726,242,374,98,18,2005/10/1,"Bah Humbug, Mrs. Scrooge",book,29,32,27,10,0,3.82,176,ebook,,0,0,Joyce Livingston,,,,,,92,6,15,"christian,christian-fiction,christmas,fiction,holiday,religion,retellings,romance"
17593001,1625094361,Philosophy of Christian Ministry,9781625094360,,,,ES,2013/3/6,Xulon Press,,false,2,17593001,1,0,0,0,2013/3/6,,,0,0,0,0,0,0.00,120,Paperback,,0,0,Seong Soo Kim,,,,,,,0,1,
17593501,1780056184,"Insight Guides: Guatemala, Belize and the Yucatan",9781780056180,,,,ES,2013/1/29,Insight,,true,1,17593501,3,8,2,0,2013/1/29,,,0,2,0,0,0,4.00,,ebook,,2,0,Insight Guides,,,,,,1,0,,
17594001,184771594X,Gorlifo!,9781847715944,,,,ES,2013/2/1,Y Lolfa,,false,1,17594001,1,0,0,0,2013/2/1,,,0,0,0,0,0,0.00,48,Paperback,,0,0,Meinir Wyn Edwards,,,,,,1,0,,
17594501,1920712275,How Do I Look After My Kids Teeth: Oral 7 Hygiene/Paint Your Mouth: Visit 11 of 12 to Gargar the Dentist,9781920712273,,,,ES,2011/5/1,4 Your Smile 2 Shine,,true,1,17594501,0,0,0,0,2011/5/6,,,0,0,0,0,0,0.00,87,ebook,,0,0,Garth Pettit,,,,,,,0,,
17595001,3110288117,Polymer Surface Characterization,9783110288117,,,,ES,2014/7/28,de Gruyter,,true,3,17594983,0,0,0,0,2014/6/13,,,0,0,0,0,0,0.00,306,ebook,,0,0,,,"Antonella Rossi,Beat Keller,Dalia Yablon,Elvira De Giglio,Eva Bittrich,Fabio Palumbo,Filippo Mangolini,Klaus Jochen Eichhorn,Miroslav Slouf,Nicoletta Ditaranto,Rosa Di Mundo,Stefania Cometa",Luigia Sabbatini,,,,0,,
17595501,3110943573,Studien Zum Venezianischen Wortschatz Des 15. Und 16. Jahrhunderts,9783110943573,,,,ES,2011/12/7,de Gruyter,,true,3,15063745,1,4,1,0,1993/1/1,,,0,1,0,0,0,4.00,271,ebook,,1,0,Elke Sallach,,,,,,,0,,
17596001,3322933253,Engagierte Vaterschaft: Die Sanfte Revolution in Der Familie,9783322933256,,,,ES,2012/6/28,Vs Verlag Fur Sozialwissenschaften,,false,1,17596001,0,0,0,0,2012/6/28,,,0,0,0,0,0,0.00,352,Paperback,,0,0,,,,"Lbs-Initiative Junge Familie,Wassilios E. Fthenakis",,,,0,,
17596501,3642509835,Stahlgelenkketten Und Kettentriebe,9783642509834,,,,ES,2012/5/17,Springer,,false,1,17596501,0,0,0,0,2012/5/17,,,0,0,0,0,0,0.00,223,Paperback,,0,0,Hans-Gunther Rachner,,,,,,,0,,
17597001,3642638341,Verkehrsdynamik: Neue Physikalische Modellierungskonzepte,9783642638343,,,,ES,2012/10/12,Springer,,false,2,17597001,0,0,0,0,1997/2/7,,,0,0,0,0,0,0.00,308,Paperback,,0,0,Dirk Helbing,,,,,,,0,,
17597501,3846026182,Die Weissen Gotter,9783846026182,,,,ES,2013/3/6,Salzwasser-Verlag Gmbh,,false,4,17692140,3,5,1,0,2013/3/6,,,1,0,0,0,0,5.00,634,Paperback,,0,0,Eduard Stucken,,,,,,2,0,,
17598001,8132210220,Wetlands and Lakes of the World,9788132210221,,,,ES,2014/2/12,Springer,,false,1,17598001,1,0,0,0,2013/7/24,,,0,0,0,0,0,0.00,687,Hardcover,,0,0,Devashish Kar,,,,,,1,0,,
17598501,9027221170,English Grammar: A Function-Based Introduction. 2 Volumes (Set),9789027221179,,,,ES,1993/1/1,John Benjamins Publishing Company,,false,4,4978950,2,0,0,0,1993/1/1,English Grammar: A Function-Based Introduction,book,0,0,0,0,0,0.00,318,Paperback,,0,0,Talmy Givón,,,,,,2,0,,
17599001,9027232997,The End of the 'asian Model'?,9789027232991,,,,ES,2000/3/15,John Benjamins Publishing Company,,false,4,17599001,2,0,0,0,2000/3/15,,,0,0,0,0,0,0.00,228,Paperback,,0,0,,,,"Holger Henke,Ian Boxill",,,1,0,,
17599501,9027252300,The Emergence of Black English: Text and Commentary,9789027252302,,,,ES,1991/4/10,John Benjamins Publishing Company,,false,6,17599501,4,4,1,0,1991/1/1,,,0,1,0,0,0,4.00,362,Paperback,,1,0,,,,"Guy Bailey,Natalie Maynor,Patricia Cukor-Avila",,,2,0,,
17600001,9027275491,"Abduction, Belief and Context in Dialogue: Studies in Computational Pragmatics",9789027275493,,,,ES,2000/11/13,John Benjamins Publishing Company,,true,4,16983816,2,4,1,0,2000/9/1,,,0,1,0,0,0,4.00,477,ebook,,0,0,,,,"Harry C. Bunt,William Black",,,1,0,,
17600501,9027280347,The Perception of Nonverbal Behavior in the Career Interview,9789027280343,,,,ES,1983/1/1,John Benjamins Publishing Company,,true,1,17600501,1,0,0,0,1983/1/1,,,0,0,0,0,0,0.00,148,ebook,,0,0,Walburga Raffler-Engel,,,,,,,0,,
17601001,9027285217,"Cognitive Approaches to Tense, Aspect, and Epistemic Modality",9789027285218,,,,ES,2011/7/28,John Benjamins Publishing Company,,true,3,16974302,2,0,0,0,2011/7/15,,,0,0,0,0,0,0.00,319,ebook,,0,0,,,,"Adeline Patard,Frank Brisard",,,,0,1,
17601501,9027290113,Phraseology: An Interdisciplinary Perspective,9789027290113,,,,ES,2008/6/1,John Benjamins Publishing Company,,true,2,6663168,7,10,2,0,2008/6/1,Phraseology: An Interdisciplinary Perspective,,2,0,0,0,0,5.00,450,ebook,,0,0,,,,"Fanny Meunier,Sylviane Granger",,,6,0,,
17602001,9027294933,Multilingual Communication,9789027294937,,,,ES,2004/12/23,John Benjamins Publishing Company,,true,3,1842807,3,0,0,0,2004/12/23,Multilingual Communication (Hamburg Studies in Multilingualism),,0,0,0,0,0,0.00,359,ebook,,0,0,,,,"Jochen Rehbein,Juliane House",,,1,0,1,
17602501,9027299358,Pattern and Process: A Whiteheadian Perspective on Linguistics,9789027299352,,,,ES,2001/5/17,John Benjamins Publishing Company,,true,4,17598590,3,0,0,0,2001/5/17,,,0,0,0,0,0,0.00,319,ebook,,0,0,Michael Fortescue,,,,,,3,0,,
17603001,9251053227,Ethical Issues in Fisheries,9789251053225,,,,ES,2005/9/30,Fao,,false,1,17603001,0,0,0,0,2005/9/1,,,0,0,0,0,0,0.00,28,Paperback,,0,0,Food and Agriculture Organization of the United Nations,,,,,,,0,,
17603501,9253037938,Planificacion y Ordenacion de Cuencas Hidrograficas Con Ayuda de Computadora: Tecnologias Para La Planificacion Nacional,9789253037933,,,,ES,1996/8/30,Fao,,false,1,17603501,0,0,0,0,1996/8/1,,,0,0,0,0,0,0.00,94,Paperback,,0,0,Food and Agriculture Organization of the United Nations,,,,,,,0,,
17604001,9401039712,Mechanics of Elastic Biomolecules,9789401039710,,,,ES,2012/9/24,Springer,eng,false,4,22661820,0,0,0,0,2003/5/1,,,0,0,0,0,0,0.00,240,Paperback,,0,0,,,,"Henk L. Granzier,Miklos S.Z. Kellermayer,Wolfgang A. Linke",,,,0,,
17604501,9401056455,Citrus Processing: Quality Control and Technology,9789401056458,,,,ES,2012/11/5,Springer,,false,2,4034667,1,3,1,0,1991/6/27,Citrus Processing: Quality Control and Technology,,0,0,1,0,0,3.00,473,Paperback,,0,0,,,,Dan A. Kimball,,,,0,,
17605001,,"Coconut and Almond Flour Power: 40 Gluten-Free Recipes From Breakfast to Dessert Using Coconut Flour, Almond Flour",,B00BOGOTCO,,,ES,2013/3/3,,,true,1,17605001,54,74,22,1,2013/3/3,,book,5,5,6,5,1,3.36,134,Kindle Edition,,22,1,Devon Green,,,,,,23,1,5,"cookbooks,cooking"
17605501,,"My First Car Was a Motorcycle, My First Girl Was a Woman",,,,,ES,2013/6/4,Global Book Group,eng,true,3,17605499,286,43,9,0,2013/5/26,,book,7,2,0,0,0,4.78,,ebook,,0,0,Hedley Turk,,,,,,275,0,,
17606001,1477143475,Kouken,9781477143476,,,,ES,2013/2/28,Xlibris Corporation,,false,2,17606001,0,0,0,0,2013/2/28,,,0,0,0,0,0,0.00,186,Paperback,,0,0,Giddian Beer,,,,,,,0,,
17606501,1603748490,James's Joy,9781603748490,,,,ES,2013/6/17,Whitaker House,eng,false,3,17606501,42,63,15,1,2013/6/17,,book,6,6,3,0,0,4.20,144,Paperback,,13,1,Loree Lough,,,,,,25,0,,
17607001,3846023892,Das Naturgesetz,9783846023891,,,,ES,2013/2/22,Salzwasser-Verlag Gmbh,,false,2,17607001,0,0,0,0,2013/2/22,,,0,0,0,0,0,0.00,90,Paperback,,0,0,Bruno Bauch,,,,,,,0,,
17607501,,Submarines: Hunter/Killers and Boomers,0881768766,,,,ES,1990/1/1,"Publications International, Ltd",eng,false,1,17607501,4,10,2,0,1990/1/1,,book,2,0,0,0,0,5.00,198,Hardcover,,2,0,"Andy Lightbody, Joe Poyer",,,,,,1,0,,
17608001,,"O Imperador de Nihon-Ja (Ordem dos Arqueiros, #10)",9788539504770,,,,ES,2012/1/1,Fundamento,por,false,42,7592279,57160,171992,38895,1252,2011/6/17,,book,22731,11092,4088,721,263,4.42,424,Paperback,,46,2,John Flanagan,,,,E. Siegert,,10970,88,579,"action,adventure,childrens,epic-fantasy,fantasy,fiction,high-fantasy,historical,historical-fiction,juvenile,medieval,middle-grade,romance,teen,war,young-adult"
17608501,2366080131,La Fusée de Shitamachi,9782366080131,,,,ES,2012/11/1,Books editions,fre,false,4,10627626,151,273,64,7,2010/11/1,下町ロケット,book,31,23,7,2,1,4.27,468,Unknown Binding,,2,0,Jun Ikeido,,,,Patrick Honnoré,,53,2,8,fiction
17609001,,Lesbian Playhouse,,B008UVLSQG,,,ES,2012/8/7,Playhouse Press,eng,true,1,17609001,17,14,6,1,2012/8/7,,book,1,0,1,2,2,2.33,948,Kindle Edition,1,6,1,"Amy Polino,Audrey Hart,Kate Clairmont,Patricia  Hess,Stacie Monroe",,,,,,11,1,,erotica
17609501,,"Κοινωνική ιστορία της τέχνης: Προϊστορικοί χρόνοι, Aρχαία Aνατολή, Ελλάδα, Ρώμη, Mεσαίωνας (Κοινωνική ιστορία της τέχνης, #1)",9780006990093,,,,ES,1990/1/1,Κάλβος,gre,false,2,1512658,897,761,184,12,1951/1/1,The Social History of Art: Volume 1: From Prehistoric Times to the Middle Ages,book,90,46,33,13,2,4.14,359,Paperback,,4,1,Arnold Hauser,,,,,,166,3,3,"art,classics,college,history,literature,medieval,non-fiction,science,unfinished"
17610001,,Young Einstein: From the Doxerl Affair to the Miracle Year,,,,,ES,2013/1/1,,eng,true,2,17610001,184,323,82,7,2013/1/1,,book,24,32,24,1,1,3.94,90,Kindle Edition,,40,6,L. Randles Lagerstrom,,,,,,57,2,31,"biography,non-fiction,science"
17610501,,"S.E.C.R.E.T. (Secret, #1)",9789944826419,,,,ES,2013/1/1,Epsilon Yayınları,tur,false,53,16099174,15225,25419,7020,948,2012/1/1,S.E.C.R.E.T,book,1705,2365,1880,724,346,3.62,278,Paperback,,4,1,L. Marie Adeline,,,,Yeliz Kahraman,,6604,105,155,"adult,adult-fiction,bdsm,chick-lit,contemporary,erotica,fantasy,fiction,love,new-adult,romance,unfinished"
17611001,,Batman: Li'l Gotham #6,,,,,ES,2013/2/24,DC Comics,eng,true,3,17611001,49,115,27,2,2013/2/24,,book,13,8,6,0,0,4.26,22,ebook,,21,2,,,,,,,15,6,,"childrens,comics,graphic-novels,holiday,humor,superheroes"
17611501,,Belonging,,,,,ES,2012/8/21,,eng,true,6,17611501,92,78,19,0,1987/1/1,,book,8,7,2,2,0,4.11,380,Kindle Edition,,10,0,"Samantha James,Sandra James",,,,,,55,0,,"contemporary,love-story,regency,romance"
17612001,,L'impero romano: Dai successori di Augusto al sacco di Roma,,,,,ES,2013/3/18,Corriere della Sera,ita,false,1,17612001,4,4,1,0,2013/3/18,,book,0,1,0,0,0,4.00,431,Hardcover,La Storia #7,1,0,Aurelio Bernardi,,,,,,3,0,,history
17612501,,"Navigating Xcode 4.6 (iOS App Development for Non-Programmers, #3)",,B00BLS8LRO,,,ES,2013/2/25,"Oak Leaf Enterprises, Inc.",eng,true,2,17612501,20,13,3,0,2013/2/22,,book,1,2,0,0,0,4.33,917,Kindle Edition,,3,0,Kevin McNeish,,,,,,15,1,,
17613001,0552569011,Fairies of Blossom Bakery: Cookie and the Secret Sleepover,9780552569019,,,,ES,2013/7/4,Picture Corgi,,false,2,17613001,5,13,4,0,2013/7/4,,,1,0,2,1,0,3.25,32,Paperback,,4,0,Mandy Archer,,,,,,,0,,
17615001,1448138914,Money: The Unauthorised Biography,9781448138913,,,,ES,2013/6/6,Vintage Digital,,true,25,17307317,2445,2756,729,114,2013/6/6,,book,171,300,196,51,11,3.78,327,ebook,,0,0,Felix Martin,,,,,,1313,20,136,"biography,business,economics,essays,grad-school,history,non-fiction,philosophy,politics,science,society,sociology,unfinished"
17615501,144647741X,I Served The King Of England,9781446477410,,,,ES,2011/6/8,Vintage Digital,,true,85,397503,13734,25174,6140,454,1971/1/1,Obsluhoval jsem anglického krále,book,2407,2338,1078,236,81,4.10,,ebook,,0,0,Bohumil Hrabal,,,,,,6379,35,141,"classics,comedy,contemporary,european-literature,fiction,funny,historical,historical-fiction,history,humor,literary-fiction,literature,magical-realism,modern,modern-classics,novels,school,unfinished,war"
17616001,,The Unseen,9780989075008,,,,ES,2013/2/24,Prescott Publishing,eng,true,2,20459416,3,0,0,0,2013/2/23,,book,0,0,0,0,0,0.00,250,ebook,,0,0,Mark Ernest,,,,,,3,0,,
17616501,,التذكرة الفخرية,,,,,ES,1987/1/1,عالم الكتب,ara,false,1,17616501,6,3,1,1,1987/1/1,,book,0,0,1,0,0,3.00,387,Hardcover,,1,1,بهاء الدين الإربلي,,,,,,7,0,,
17617001,0732276047,"The Promise In A Kiss (Cynster, #0.5)",9780732276041,,,,ES,2002/1/1,HarperCollinsPublishers Pty Limited,eng,false,32,240453,8488,19762,4979,175,2001/1/1,The Promise in a Kiss,book,1753,1741,1147,254,84,3.97,357,Paperback,,8,0,Stephanie Laurens,,,,,,1951,30,92,"adult,chick-lit,christmas,fiction,france,historical,historical-fiction,history,holiday,novella,regency,romance"
17617501,,The Daring Prey,9781939916013,,,,ES,2013/3/15,Pink Flamingo Publications,eng,true,2,17617501,83,58,14,4,2013/3/15,,book,5,7,1,1,0,4.14,210,ebook,First,12,4,S.J. Lewis,,,,,,,3,1,bdsm
17618001,9512028719,Hotelli Firenzessä,,,,,ES,1986/1/1,Gummerus,fin,false,701,3087,255450,518995,132988,4728,1908/1/1,A Room with a View,book,41563,49571,31554,7934,2366,3.90,249,,,17,2,E.M. Forster,,,,,,103442,874,4339,"adult,adult-fiction,british-literature,classic-literature,classics,english-literature,feminism,fiction,historical,historical-fiction,literary-fiction,literature,love,modern-classics,novels,romance,school,travel"
17618501,,The Changing Sky,0553256343,,,,ES,1986/6/1,Bantam Books,eng,false,5,1388653,435,725,171,6,1986/6/1,The Changing Sky: A Practical Guide to Predictive Astrology,book,87,49,25,9,1,4.24,336,Paperback,,4,0,Steven  Forrest,,,,,,60,1,21,"non-fiction,research,spirituality"
17619001,,Peter Pan (Peter and Wendy),,B006V3ROPY,,,ES,2012/1/7,Goldfish Classics Publishing,eng,true,684,34268,416696,940991,230290,9133,1904/12/27,"Peter Pan, or the Boy Who Wouldn't Grow Up",book,95497,76105,45171,10056,3461,4.09,215,Kindle Edition,"Literature Classics Collection, Complete Edition (Annotated)",3,0,J.M. Barrie,Francis D. Bedford,,,,,138543,927,14169,"adventure,british-literature,childrens,classic-literature,classics,fairy-tales,fantasy,fiction,juvenile,literature,magic,middle-grade,movies,novels,plays,school,young-adult"
17619501,,Fermentų faktorius,,,,,ES,2011/1/1,Versus aureus,lit,false,34,1319002,3299,6660,1642,296,2005/7/8,The Enzyme Factor,book,607,660,272,66,37,4.06,168,Paperback,2nd edition,11,1,Hiromi Shinya,,,,,,1028,3,251,"food,health,non-fiction,research,science,self-help"
17620001,,Setni zvuci,,,,,ES,,"Arkanj, Čarda na kraj sveta",srp,false,1,17620001,1,0,0,0,,,book,0,0,0,0,0,0.00,48,Paperback,,0,0,Đoka Varenika,,,,,,,0,,
17620501,,Illuminati - The Book of Life,,B00BTGS9IO,,,ES,2013/3/12,"Tell-Tale Publishing Group, LLC",en-GB,true,5,17620501,108,205,43,10,2013/3/12,Illuminati - The Book of Life,book,35,6,2,0,0,4.77,355,Kindle Edition,1st,38,6,Elizabeth Alsobrooks,,,,,,62,4,2,"fantasy,paranormal,romance,suspense"
17621001,,Концепции Общественной Безопасности (КОБ),,,,,ES,,,rus,false,1,17621001,2,4,1,0,,,periodical,0,1,0,0,0,4.00,,Audiobook,,1,0,"K.P. Petrov,К.П. Петров",,,,,,1,0,,
17621501,2741300038,L'Image dans le tapis,9782741300038,,,,ES,1991/9/1,Critérion,fre,false,125,2153351,1964,3257,965,83,1896/1/1,The Figure in the Carpet,book,154,281,338,157,35,3.38,94,Broché,,2,0,Henry James,,,,Fabrice Hugot,,712,32,31,"adult-fiction,american,americana,canon,classics,drama,fiction,historical,horror,literature,modern-classics,mystery,novella,school,short-stories,victorian"
17622001,,Ricordo di Anna Paola Spadoni,9788876382864,,,,ES,2011/3/24,ISBN Edizioni,ita,false,1,17622001,3,3,1,0,2011/3/24,,book,0,0,1,0,0,3.00,224,,Novecento Italiano,1,0,Giuseppe Mazzaglia,,,,,,1,0,,
17622501,,The God of Foulness,,,,,ES,2004/1/1,Delirium Books,eng,false,1,17622501,10,19,4,1,2004/1/1,,book,3,1,0,0,0,4.75,127,Mini Hardcover,signed limited to 100 numbered copies,4,1,Matt Cardin,,,,,,5,1,,
17623001,,Znovu na Rio de la Plata,,,,,ES,1970/1/1,Mladé letá,slo,false,39,768584,342,804,215,1,1894/1/1,In den Kordilleren,book,47,74,85,9,0,3.74,,Hardcover,Klub mladých čitateľov,2,0,Karl May,,,,,,42,8,3,"adventure,classics,fiction,literature"
17623501,022603657X,"From Black Sox to Three-Peats: A Century of Chicago's Best Sportswriting from the ""Tribune,"" ""Sun-Times,"" and Other Newspapers",9780226036571,,,,ES,2013/10/25,University Of Chicago Press,,false,4,17623501,48,112,29,7,2013/1/1,,,6,15,6,2,0,3.86,256,Hardcover,,13,3,,,,Ron Rapoport,,,14,2,1,"non-fiction,sports,writing"
17624001,0142422886,Encyclopedia Brown and the Case of the Soccer Scheme,9780142422885,,,,ES,2013/9/12,Puffin Books,,false,4,13588436,582,1112,267,21,2012/10/25,,book,130,70,54,7,6,4.16,96,Paperback,,11,0,Donald J. Sobol,,,,,,132,17,62,"chapter-books,childrens,fiction,mystery"
17624501,,Anything You Can Do,,B00BS28NBW,,,ES,,Amazon Digital Services,en-GB,true,1,17624501,254,356,102,2,2013/3/10,,book,23,25,37,13,4,3.49,211,Kindle Edition,,102,2,Sally Berneathy,,,,,,128,8,3,"chick-lit,contemporary,modern,romance"
17625001,054417769X,Betty Crocker Outdoor Eats,9780544177697,,,,ES,2012/5/8,Betty Crocker,,true,4,19250932,6,11,3,0,2012/1/1,,book,0,2,1,0,0,3.67,48,ebook,,1,0,Betty Crocker,,,,,,2,0,,cookbooks
17625501,0739095137,"Masterwork Classics Duets, Level 4: A Graded Collection of Piano Duets by Master Composers",9780739095133,,,,ES,2013/3/1,Alfred Music,,false,1,17625501,0,0,0,0,2013/4/8,,,0,0,0,0,0,0.00,48,Paperback,,0,0,,,,"E.L. Lancaster,Gayle Kowalchyk,Jane Magrath",,,,0,,
17626001,0759625778,Creative Critics: Romantic Composers as Friends and Rivals,9780759625778,,,,ES,2001/10/1,Authorhouse,,true,2,6340896,0,0,0,0,2001/10/1,Creative Critics: Romantic Composers as Friends and Rivals,,0,0,0,0,0,0.00,,ebook,,0,0,"Frank Josserand,Jane Niermann Rossi",,,,,,,0,,
17626501,0759649162,I Got Stinky Feet,9780759649163,,,,ES,2001/12/1,Authorhouse,,true,2,7475475,1,0,0,0,2001/12/1,,,0,0,0,0,0,0.00,,ebook,,0,0,Dennis Domrzalski,,,,,,1,0,,
17627001,0759672482,The Friggin' Altos: A Crime Family Gone Crazy,9780759672482,,,,ES,2002/4/10,Authorhouse,,true,2,17627001,0,0,0,0,2002/4/10,,,0,0,0,0,0,0.00,,ebook,,0,0,"Laverne Zocco,Sam Zocco",,,,,,,0,,
17627501,075969429X,Self-Help for Writers: Winners Show You How,9780759694293,,,,ES,2002/4/29,Authorhouse,,true,2,17627501,0,0,0,0,2002/4/29,,,0,0,0,0,0,0.00,,ebook,,0,0,Erna Holyer,,,,,,,0,,
17628001,0987471112,The Zen Factor: Tools for Success,9780987471116,,,,ES,2013/2/20,Equil Books,,false,2,17628001,0,0,0,0,2012/12/16,,,0,0,0,0,0,0.00,288,Paperback,,0,0,Jacqueline Hope,,,,,,,0,,
17628501,1135912297,The Pleasures of the Imagination: English Culture in the Eighteenth Century,9781135912291,,,,ES,2013/3/12,Routledge,,true,3,1224123,729,450,107,12,1997/5/22,The Pleasures of the Imagination: English Culture in the Eighteenth Century,book,45,44,13,5,0,4.21,566,ebook,,0,0,John Brewer,,,,,,507,19,5,"academic,anthropology,art,british-literature,criticism,history,non-fiction,philosophy,sociology"
17629001,140331697X,Don't Mess with Jenny Lee,9781403316974,,,,ES,2002/7/1,Authorhouse,,true,2,7482691,1,0,0,0,2002/7/1,,,0,0,0,0,0,0.00,,ebook,,0,0,Bill Lloyd,,,,,,1,0,,
17629501,1403349541,"The Life and Death of a Gunfighter, Book 1, Part One: The Saga of Clay Allison/Gentlemen Gunfighter",9781403349545,,,,ES,2002/11/28,Authorhouse,,true,3,5115697,6,13,3,0,2002/11/28,"The Life and Death of a Gunfighter, Book 1, Part One: The Saga of Clay Allison/Gentlemen Gunfighter",,2,0,1,0,0,4.33,,ebook,,0,0,Clay Allison,,,,,,2,0,,
17630001,1403376166,Smelling Lilac,9781403376169,,,,ES,2002/10/16,Authorhouse,,true,3,11023123,4,4,1,0,2002/10/16,,,0,1,0,0,0,4.00,,ebook,,0,0,Ambrose E. Korn Jr.,,,,,,2,0,,
17630501,1404868739,Katie Woo,9781404868731,,,,ES,2011/1/1,Picture Window Books,,false,35,17630501,12,12,4,0,2011/1/1,,,1,0,1,2,0,3.00,,Paperback,,4,0,Fran Manushkin,,,,,,9,0,,
17631001,1410711161,A David Amongst Giants,9781410711168,,,,ES,2003/5/9,Authorhouse,,true,3,14898953,0,0,0,0,2003/5/9,,book,0,0,0,0,0,0.00,,ebook,,0,0,D.J.    Williams,,,,,,,0,,
17631501,1410732142,The People of Pleure: Portrait of a French Village,9781410732149,,,,ES,2003/6/24,Authorhouse,,true,2,17631501,0,0,0,0,2003/6/24,,,0,0,0,0,0,0.00,,ebook,,0,0,Hale Sturges II,,,,,,,0,,
17632001,1410755916,Holy Spirit and the Misunderstood Gift of New Tongues,9781410755919,,,,ES,2003/7/1,Authorhouse,,true,3,17632001,0,0,0,0,2003/7/1,,,0,0,0,0,0,0.00,,ebook,,0,0,Darryl Todman,,,,,,,0,,
17632501,1410784363,Wings for the Next Day,9781410784360,,,,ES,2004/3/19,Authorhouse,,true,2,9670781,0,0,0,0,2004/3/1,,,0,0,0,0,0,0.00,,ebook,,0,0,Sentia Muji,,,,,,,0,,
17633001,1414009682,Wilderness Glow,9781414009681,,,,ES,2003/10/29,Authorhouse,,true,1,17633001,0,0,0,0,2003/10/29,,,0,0,0,0,0,0.00,,ebook,,0,0,Marilyn M. Meilleur,,,,,,,0,,
17633501,1414043066,Moldea Tu Cuerpo,9781414043067,,,,ES,2004/4/19,Authorhouse,,true,3,7597375,0,0,0,0,2004/1/1,,,0,0,0,0,0,0.00,,ebook,,0,0,Ma Leticia M. Oliver,,,,,,,0,,
17634001,1418400076,Rogue Magic,9781418400071,,,,ES,2004/4/16,Authorhouse,,true,2,14291454,0,0,0,0,2004/4/16,,,0,0,0,0,0,0.00,,ebook,,0,0,G.F. Kaye,,,,,,,0,,
17634501,1418439320,Love the Common Denominator: My Journey to the Truth,9781418439323,,,,ES,2004/9/3,Authorhouse,,true,3,7061035,0,0,0,0,2002/1/1,,,0,0,0,0,0,0.00,,ebook,,0,0,PAUL MAGDALENE,,,,,,,0,,
17635001,141846709X,Four Corners Manhunt: One Detective's Story of the 1998 Tragedy,9781418467098,,,,ES,2004/5/25,Authorhouse,,true,2,17635001,3,0,0,0,2004/5/25,,,0,0,0,0,0,0.00,,ebook,,0,0,"Kathleen Quackenbush,Shirlee Forteneaux",,,,,,2,0,,
17635501,1420806076,Give Me Wings So I Can Fly: Fairy Tales,9781420806076,,,,ES,2004/10/19,Authorhouse,,true,1,17635501,0,0,0,0,2004/10/19,,,0,0,0,0,0,0.00,,ebook,,0,0,Rosa M Otero,,,,,,,0,,
17636001,1420899619,Murfi,9781420899610,,,,ES,2004/11/11,Authorhouse,,true,2,17636001,0,0,0,0,2004/11/11,,,0,0,0,0,0,0.00,,ebook,,0,0,Kenneth Fleischer,,,,,,,0,,
17636501,1425984134,Unbridled,9781425984137,,,,ES,2007/1/29,Authorhouse,,true,4,3333278,4,7,3,1,2007/1/29,UNbridled,,0,0,2,0,1,2.33,,ebook,,0,0,Samantha Elphick,,,,,,,0,,
17637001,1429695005,Staying Safe,9781429695008,,,,ES,2012/1/1,Capstone Press,,false,8,17636849,0,0,0,0,2011/7/1,,,0,0,0,0,0,0.00,48,Paperback,,0,0,"Lucia Raatma,Sally Lee",,,,,,,0,,
17637501,1481880969,THUGLIT Issue 3,9781481880961,,,,ES,2013/1/3,THUGLIT Publishing,en-US,true,3,17637501,77,207,52,4,2012/12/31,,book,20,17,10,4,1,3.98,128,Kindle Edition,,23,4,"Ed Kurtz,Hector Acosta,J.D. Hibbetts,John Hodgkins,Nathan Pettigrew,Paul Heatley,Rob Brunet,Terrence P. McCauley",,,Todd Robinson,,,14,2,5,"crime,short-stories"
17638001,1438988176,After All of the Tears,9781438988177,,,,ES,2009/9/22,Authorhouse,,true,3,19233942,0,0,0,0,2009/8/19,,,0,0,0,0,0,0.00,,ebook,,0,0,Baiyina Hodge,,,,,,,0,,
17638501,1449003788,Flight of the Green Bird,9781449003784,,,,ES,2009/7/30,Authorhouse,,true,1,17638501,0,0,0,0,2009/7/30,,,0,0,0,0,0,0.00,,ebook,,0,0,Myra S Shapiro,,,,,,,0,,
17639001,1449031803,"No Regrets, My Love",9781449031800,,,,ES,2009/12/1,Authorhouse,,true,4,7385864,4,10,2,0,2009/11/20,,,2,0,0,0,0,5.00,,ebook,,0,0,Margaret Cowie,,,,,,1,0,1,
17639501,1449059341,How to Pray,9781449059347,,,,ES,2010/2/3,Authorhouse,,true,4,14511165,1,0,0,0,2010/2/2,,,0,0,0,0,0,0.00,,ebook,,0,0,Charles L. Burton,,,,,,,0,,
17640001,1449092047,Fabric of an Education,9781449092047,,,,ES,2010/4/14,Authorhouse,,true,3,14513481,0,0,0,0,2010/4/14,,,0,0,0,0,0,0.00,,ebook,,0,0,Boureima Seyni Seybou,,,,,,,0,,
17640501,1452027501,The Scrying,9781452027500,,,,ES,2010/7/14,Authorhouse,,true,3,17640501,1,4,1,0,2010/7/6,,,0,1,0,0,0,4.00,,ebook,,1,0,Joseph R. Valentine,,,,,,1,0,,
17641001,1452066787,Pinoy Stewards in the U.S. Sea Services: Seizing Marginal Opportunity,9781452066783,,,,ES,2010/9/1,Authorhouse,,true,1,17641001,0,0,0,0,2010/9/22,,,0,0,0,0,0,0.00,,ebook,,0,0,Ray L Burdeos,,,,,,,0,,
17641501,1452124353,"One Pan, Two Plates: More Than 70 Complete Weeknight Meals for Two",9781452124353,,,,ES,2013/4/2,Chronicle Books (CA),,true,4,15791048,1410,1881,476,33,2013/4/1,,book,170,169,90,38,9,3.95,208,ebook,,3,0,Carla Snyder,,,,,,644,14,145,"adult,cookbooks,cooking,food,health,non-fiction,reference"
17642001,1456734105,A New Song: Poems of Life and Faith,9781456734107,,,,ES,2011/4/5,Authorhouse,,true,4,14357406,0,0,0,0,2011/4/4,,,0,0,0,0,0,0.00,,ebook,,0,0,B.J. Carter,,,,,,,0,,
17642501,1456757938,Senatorial Revenge,9781456757939,,,,ES,2011/3/30,Authorhouse,,true,3,17642501,1,0,0,0,2011/3/29,,,0,0,0,0,0,0.00,,ebook,,0,0,Elmer L. Snow III,,,,,,1,0,,
17643001,1456784110,Cockney Savage,9781456784119,,,,ES,2010/11/29,Authorhouse,,true,3,14362168,1,4,1,0,2010/11/29,,,0,1,0,0,0,4.00,,ebook,,0,0,Barrie Armstrong,,,,,,,0,,
17643501,1459639065,The Obsessive Compulsive Trap: Real Help for a Real Struggle (Large Print 16pt),9781459639065,,,,ES,2012/6/1,ReadHowYouWant,,false,2,16598080,0,0,0,0,2004/6/1,,,0,0,0,0,0,0.00,226,Paperback,,0,0,Mark Crawford,,,,,,,0,,
17644001,1463412479,Fell Too Deep,9781463412470,,,,ES,2010/11/29,Authorhouse,,true,3,14395915,2,0,0,0,2010/11/29,,,0,0,0,0,0,0.00,,ebook,,0,0,Patrice L. Guyton,,,,,,2,0,,
17644501,1463431570,Jed,9781463431570,,,,ES,2011/8/8,Authorhouse,,true,4,14397440,0,0,0,0,2011/7/27,,,0,0,0,0,0,0.00,,ebook,,0,0,Ronald Lee Weagley,,,,,,,0,,
17645001,1463450249,No Parents at All,9781463450243,,,,ES,2012/1/4,Authorhouse,,true,3,17645001,0,0,0,0,2011/10/31,,,0,0,0,0,0,0.00,,ebook,,0,0,Rennie Ferrante,,,,,,,0,,
17645501,1467036293,The Mustard Seed,9781467036290,,,,ES,2011/12/1,Authorhouse,,true,2,14413061,0,0,0,0,2011/10/18,,,0,0,0,0,0,0.00,,ebook,,0,0,Jackie Ellermann,,,,,,,0,,
17646001,146709420X,Predictions for 2013-2014,9781467094207,,,,ES,2012/2/6,Authorhouse,,true,4,17646001,0,0,0,0,2011/11/17,,,0,0,0,0,0,0.00,,ebook,,0,0,Kurt B. Bakley,,,,,,,0,,
17646501,1467889822,Mission Afoot Volume 1: A Journey of Discovery about Life Itself Inspired by the 200 Mile Coast to Coast Walk Across Britain,9781467889827,,,,ES,2011/9/29,Authorhouse,,true,2,17646501,0,0,0,0,2011/9/29,,,0,0,0,0,0,0.00,,ebook,,0,0,Simon Branson,,,,,,,0,,
17647001,1468530291,The African and Conscientization: A Critical Approach to African Social and Political Thought with Particular Reference to Nigeria,9781468530292,,,,ES,2012/2/8,Authorhouse,,true,4,17647001,0,0,0,0,2012/1/6,,,0,0,0,0,0,0.00,,ebook,,0,0,Christian C. Anyanwu,,,,,,,0,,
17647501,1468550195,Out of the Prison House,9781468550191,,,,ES,2012/3/6,Authorhouse,,true,4,15881587,0,0,0,0,2012/3/6,,,0,0,0,0,0,0.00,,ebook,,0,0,V.D. Carroll,,,,,,,0,,
17648001,1468573268,Living Peace,9781468573268,,,,ES,2012/4/18,Authorhouse,,true,4,17648001,1,0,0,0,2012/4/18,,,0,0,0,0,0,0.00,,ebook,,0,0,Karen J. Fox,,,,,,,0,1,
17648501,1468595423,Pards: A Novel of the Civil War,9781468595420,,,,ES,2012/6/6,Authorhouse,,true,2,17648501,0,0,0,0,2012/6/1,,,0,0,0,0,0,0.00,,ebook,,0,0,"H J Popowski,Wm Russ McClelland",,,,,,,0,,
17649001,1477211985,Seeing Is Believing,9781477211984,,,,ES,2012/5/31,Authorhouse,,true,4,15889441,9,4,1,0,2012/5/31,,,0,1,0,0,0,4.00,,ebook,,0,0,Laura Geil,,,,,,6,0,,
17649501,1477227202,Governance: An Insider's Reflections,9781477227206,,,,ES,2012/9/19,Authorhouse,,true,3,17649501,1,0,0,0,2012/9/7,,,0,0,0,0,0,0.00,,ebook,,0,0,Civil Liberties Organisation,,,,,,,0,,
17650001,1477242244,Komfo Takes a Deutsche Dame,9781477242247,,,,ES,2012/11/19,Authorhouse,,true,3,17650001,0,0,0,0,2012/11/19,,,0,0,0,0,0,0.00,,ebook,,0,0,John Coomson,,,,,,,0,,
17650501,1477256830,Tales That Wag,9781477256831,,,,ES,2012/8/13,Authorhouse,,true,3,20116728,1,2,1,0,2012/8/13,,,0,0,0,1,0,2.00,,ebook,,0,0,Maryanne Burke Battistini,,,,,,,0,,
17651001,1477271198,The Ratters of Lightning Ridge,9781477271193,,,,ES,2012/10/22,Authorhouse,,true,7,22701623,1,0,0,0,2009/8/1,,,0,0,0,0,0,0.00,,ebook,,0,0,Richard W. Holmes,,,,,,1,0,,
17651501,1477285318,The Poetry of Jim Shelley,9781477285312,,,,ES,2013/1/7,Authorhouse,,true,4,17651501,0,0,0,0,2013/1/7,,,0,0,0,0,0,0.00,,ebook,,0,0,Jacob Yusufov,,,,,,,0,,
17652001,1477299866,Romantic Insanity,9781477299869,,,,ES,2013/1/4,Authorhouse,,true,3,17652001,0,0,0,0,2013/1/4,,,0,0,0,0,0,0.00,,ebook,,0,0,Patrick Basu,,,,,,,0,,
17652501,1481708635,Acting as Your Job: A Step by Step Guide on How You Can Become a Working Actor,9781481708630,,,,ES,2013/1/22,Authorhouse,,true,3,17295004,0,0,0,0,2013/1/22,,,0,0,0,0,0,0.00,,ebook,,0,0,P.J. Medina,,,,,,,0,,
17653001,148178711X,Outlawed: Looking for Trouble,9781481787116,,,,ES,2013/3/14,Authorhouse,,false,3,17653000,0,0,0,0,2013/3/14,,,0,0,0,0,0,0.00,296,Hardcover,,0,0,Mark Howell,,,,,,,0,,
17653501,1486479693,The Ben Chaplin Handbook - Everything You Need to Know about Ben Chaplin,9781486479696,,,,ES,2013/3/4,Emereo Publishing,,true,3,17591347,1,0,0,0,2013/3/4,,,0,0,0,0,0,0.00,88,ebook,,0,0,Emily   Smith,,,,,,1,0,,
17654001,1591400147,Designing Instruction for Technology-Enhanced Learning,9781591400141,,,,ES,2001/7/1,Idea Group Publishing,,true,2,17654001,2,4,1,0,2001/1/1,,,0,1,0,0,0,4.00,287,ebook,,1,0,,,,Patricia L Rogers,,,1,0,,
17654501,1604868562,"Asia's Unknown Uprisings Volume 2: People Power in the Philippines, Burma, Tibet, China, Taiwan, Bangladesh, Nepal, Thailand and Indonesia 19472009",9781604868562,,,,ES,2013/4/1,PM Press,,true,6,13218889,105,58,14,1,2012/4/1,,book,4,8,2,0,0,4.14,520,ebook,,0,0,George Katsiaficas,,,,,,81,1,3,"history,non-fiction,politics"
17655001,161950149X,Catamount,9781619501492,,,,ES,2013/3/8,"Gypsy Shadow Publishing, LLC",,true,2,17655001,3,8,2,1,2013/3/8,,,1,0,1,0,0,4.00,,ebook,,2,1,Stephen M. DeBock,,,,,,1,0,,paranormal
17655501,1783142235,Vocabulario Español-Alemán: 3000 Palabras Más Usadas,9781783142231,,,,ES,2013/7/11,Andrey Taranov,,true,2,17655501,0,0,0,0,2013/2/18,,,0,0,0,0,0,0.00,,ebook,,0,0,Andrey Taranov,,,,,,,0,,
17656001,8883432770,"La principessa splendente, Vol. 9 (La principessa splendente,  輝夜姫 #9)",9788883432774,,,,ES,2004/1/4,Planet Manga,ita,false,4,11137739,19,36,10,0,1998/1/1,,book,2,4,3,0,1,3.60,205,Paperback,,2,0,Reiko Shimizu,,,,,,4,0,,"comics,manga"
17656501,,Como organizar as finanças,7898083940596,,,,ES,,Online,por,false,1,17656501,1,0,0,0,,,book,0,0,0,0,0,0.00,82,Mass Market Paperback,1,0,0,Sandra de Cássia,,,,,,,0,,
17657001,0736898204,Play It Safe!,9780736898201,,,,ES,2004/1/1,Compass Point Books,,false,3,3000061,1,4,1,0,2003/8/1,Play It Safe!: Set B (Phonic Readers),,0,1,0,0,0,4.00,8,Paperback,,0,0,Cindy Chapman,,,,,,,0,,
17657501,1240160887,"Severall Acts of the Commons of England in Parliament Assembled, for the Abolishing of Deanes, Deans and Chapters, Canons, Prebends, and Other Offices and Titles (1649)",9781240160884,,,,ES,2010/12/14,"Proquest, Eebo Editions",,false,1,17657501,0,0,0,0,2010/12/14,,,0,0,0,0,0,0.00,212,Paperback,,0,0,England & Wales Sovereign,,,,,,,0,,
17658001,1434262197,"Hit the Road, Helen! (Myth-O-Mania, #9)",9781434262196,,,,ES,2013/9/1,Stone Arch Books,eng,false,5,17658001,773,1220,293,41,2013/7/1,,book,146,77,47,18,5,4.16,240,Hardcover,,233,40,Kate McMullan,Denis Zilber,,,,,234,9,58,"adventure,childrens,fantasy,fiction,humor,middle-grade,mythology,retellings,science-fiction-fantasy"
17658501,1477293019,Reflections of My Soul: Book 2,9781477293010,,,,ES,2013/2/26,Authorhouse,,false,2,17658501,0,0,0,0,2013/2/26,,,0,0,0,0,0,0.00,368,Paperback,,0,0,Joseph W. Boland,,,,,,,0,,
17659001,148178692X,Silence!: An Act of Worship,9781481786928,,,,ES,2013/3/11,Authorhouse UK,,false,1,17659001,0,0,0,0,2013/3/11,,,0,0,0,0,0,0.00,60,Paperback,,0,0,Colette Adesua Nemedia-Kuponiyi,,,,,,,0,,
17659501,1486486541,The Human Boy and the War,9781486486540,,,,ES,2013/3/11,Tebbo,,false,22,17811406,3,8,2,0,1916/1/1,,book,1,0,1,0,0,4.00,66,Paperback,Original Classic Edition,0,0,Eden Phillpotts,,,,,,1,0,,classics
17660001,1908142103,Invisible Bullets,9781908142108,,,,ES,2013/2/1,Wasyl Nimenko,,false,3,17660001,3,9,2,2,2013/2/13,,,1,1,0,0,0,4.50,298,Paperback,,2,2,Wasyl Nimenko,,,,,,1,0,,
17660501,,The Key,,,,,ES,2012/1/1,,eng,true,3,17564159,51,58,18,1,2004/1/1,,book,1,5,9,3,0,3.22,63,ebook,,2,0,Blair MacGregor,,,,,,24,10,,"fantasy,fiction,short-stories"
17661001,,"Essências (Trilogia Sombras, #2)",9788579801006,,,,ES,2012/1/1,Rocco,por,false,18,7159016,30117,59297,14297,635,2010/8/31,The Haunted,book,6822,4040,2442,708,285,4.15,472,Paperback,,1,0,Jessica Verday,,,,,,13903,78,152,"classics,contemporary,death,fantasy,fiction,ghosts,gothic,high-school,horror,love,magic,mystery,novels,paranormal,romance,supernatural,teen,urban-fantasy,young-adult"
17661501,5763207203,"Не кричи: ""Волки!""",,,,,ES,1998/1/1,,rus,false,75,72659,32046,84456,20138,914,1963/1/1,Never Cry Wolf: The Amazing True Story of Life Among Arctic Wolves,book,9022,7109,3170,563,274,4.19,,,,18,1,"Farley Mowat,Фарли Моуэт",,,,,,9761,33,265,"adult,adventure,animals,autobiography,biography,biography-memoir,classics,fiction,history,humor,literature,memoir,nature,non-fiction,novels,realistic-fiction,school,science,survival,travel,young-adult"
17662001,,O plano astral,,,,,ES,,Pensamento,por,false,88,243117,907,1181,323,25,1895/1/1,"The Astral Plane: Its Scenery, Inhabitants & Phenomena",book,94,84,101,28,16,3.66,126,Mass Market Paperback,3,1,0,Charles W. Leadbeater,,,,,,388,6,108,"amazon,classics,ghosts,magic,non-fiction,paranormal,philosophy,reference,research,science,self-help,spirituality"
17662501,,Elefante,9788540503014,,,,ES,2013/3/1,Cosac Naify,por,false,2,17662501,100,264,64,5,2013/3/1,,book,23,27,13,1,0,4.12,32,Paperback,,60,5,Bartolomeu Campos de Queirós,,,,,,21,1,,"comics,fiction,short-stories"
17663501,0857990136,Unforgettable,9780857990136,,,,ES,2013/1/1,Escape Publishing,,true,5,17206880,306,249,67,18,2011/6/1,,book,22,20,13,8,4,3.72,202,ebook,,1,0,Elise K. Ackers,,,,,,207,10,1,"adult,contemporary,fiction,inspirational,new-adult,novella,romance"
17664001,,"Pingüino: Dolor y prejuicio (Penguin, Especiales Batman)",9789876902496,,,,ES,2013/2/1,"ECC Sudamérica (El Catálogo del Cómic, DC Comics)",spa,false,9,13518673,1432,2574,659,74,2012/10/25,Penguin: Pain and Prejudice #1-5,periodical,186,269,163,38,3,3.91,120,Hardcover,Especiales Batman,17,3,Gregg Hurwitz,,,,,,670,21,6,"american,comics,contemporary,fiction,graphic-novels,graphic-novels-comics,horror,superheroes"
17664501,,Darkhawk #22: Return to Forever! Part Two: Flaming Terror! with Ghost Rider,,,,,ES,1992/12/22,Marvel Comics,eng,false,2,17664501,8,20,5,0,1992/12/1,(Darkhawk #22) Return to Forever! Part Two: Flaming Terror! with Ghost Rider ,periodical,3,1,0,0,1,4.00,32,,30th anniversary The Amazing Spiderman 1962-1992,3,0,Danny Fingeroth,,,,,,2,1,,"comics,marvel"
17665001,,Ett Drömspel,,,,,ES,1966/1/1,Svenska Bokförlaget / Bonniers,swe,false,35,141834,4025,6789,1849,72,1901/1/1,Ett drömspel,book,481,604,499,206,59,3.67,129,Hardcover,,3,1,August Strindberg,,,,,,1676,33,19,"academic,adult,classics,drama,fantasy,fiction,literature,plays,poetry,school,theatre"
17665501,,Uzależnienie od narkotyków - Od teorii do praktyki terapeutycznej,9788376415987,,,,ES,2012/1/1,,pol,false,1,17665501,1,4,1,0,2012/1/1,,book,0,1,0,0,0,4.00,,Paperback,,1,0,Anna Kurzeja (red.),,,,,,,0,,
17666001,,"Ružičasta ruža  (Rose, #2)",9789536685196,,,,ES,2002/1/1,,scr,false,19,130900,8009,19319,5040,167,1997/1/1,One Pink Rose,book,1589,1548,1465,349,89,3.83,150,,,19,1,Julie Garwood,,,,,,1217,37,269,"adult,family,fiction,historical,historical-fiction,history,humor,novella,romance,short-stories"
17666501,,Drunk on Sports,,B00BWAIWQQ,,,ES,2013/3/19,Vigliano Books,en-GB,true,3,17666501,323,673,169,17,2013/3/18,,book,51,72,39,6,1,3.98,159,Kindle Edition,,157,13,Tim Cowlishaw,,,,,,127,5,6,"autobiography,memoir,non-fiction,sports"
17667001,,"Glow (Glow, #1)",,B00BVPDCQ2,,,ES,2013/3/16,,en-GB,true,1,17667001,409,345,89,12,2013/3/16,,book,33,27,19,5,5,3.88,282,Kindle Edition,,89,12,Molly Bryant,,,,,,288,24,2,"chick-lit,contemporary,erotica,funny,new-adult,romance"
17667501,,Tuesdays at the Castle,9781408831991,,,,ES,2013/3/1,Bloomsbury Childrens Publishing,eng,true,24,10508431,31674,62431,15294,2150,2011/10/25,Tuesdays at the Castle,book,5726,6053,2785,504,226,4.08,,ebook,,5,0,Jessica Day George,,,,,,13666,109,332,"adventure,chapter-books,childrens,fairy-tales,family,fantasy,fiction,high-fantasy,humor,juvenile,magic,middle-grade,mystery,science-fiction-fantasy,young-adult"
17668001,1599615800,Indiana Jones and the Spear of Destiny (Volume 4),9781599615806,,,,ES,2009/1/1,Spotlight,eng,false,1,17668001,26,36,12,1,,,book,0,3,7,1,1,3.00,28,Hardcover,Reinforced library bound edition,12,1,Elaine Lee,,,,,,11,0,1,"graphic-novels,mythology"
17668501,,Mystery By Moonlight,,,,,ES,1966/1/1,Scholastic Book Services,eng,false,10,1916842,128,244,62,7,1963/1/1,Mystery by Moonlight,,18,24,18,2,0,3.94,128,Paperback,,7,1,Mary C. Jane,,,,,,32,6,1,"childrens,fiction,mystery"
17669001,,Indian horse,,,,,ES,,,,false,18,11994903,23513,45328,10366,1304,2012/1/27,,book,5394,3744,990,174,64,4.37,,,,0,0,Richard Wagamese,,,,,,11254,180,368,"abuse,adult,adult-fiction,contemporary,cultural,fiction,historical,historical-fiction,history,literary-fiction,literature,memoir,novels,school,sports,young-adult"
17669501,0765374099,The Cure,9780765374097,,,,ES,2013/9/17,Forge Books,eng,false,7,17669501,1492,2998,779,74,2013/9/1,The Cure,book,267,245,178,60,29,3.85,320,Hardcover,,351,54,Douglas E. Richards,,,,,,485,9,58,"aliens,fiction,horror,medical,mystery,romance,science-fiction,science-fiction-fantasy,thriller"
17670001,0340281979,Handle with Care!,,,,,ES,1982/1/1,Hodder and Stoughton,,false,2,22864359,217,254,60,10,1982/1/1,Handle With Care!,book,27,22,10,0,1,4.23,120,Paperback,,1,0,Sinclair B. Ferguson,,,,,,126,5,8,"christian,christianity,faith,non-fiction,reference,religion,theology"
17670501,9878393079,Przetrwałem Afganistan,,,,,ES,2010/1/1,inne spacery,pol,false,61,711901,103172,286845,65964,6503,2006/6/12,Lone Survivor: The Eyewitness Account of Operation Redwing and the Lost Heroes of SEAL Team 10,book,36656,19159,7443,1894,812,4.35,387,Paperback,,7,3,Marcus Luttrell,,,,,,26339,104,311,"action,adult,adventure,american-history,autobiography,biography,biography-memoir,historical,history,leadership,memoir,movies,non-fiction,politics,survival,thriller,war"
17671001,,Une veuve de papier,,,,,ES,1999/11/1,France Loisirs,fre,false,106,4659,73820,202475,53963,2474,1998/1/1,A Widow for One Year,book,12459,21377,15387,3771,969,3.75,641,Hardcover,,2,0,John Irving,,,,,,10726,50,832,"adult,adult-fiction,american,classics,contemporary,death,drama,family,fiction,literary-fiction,literature,love,marriage,novels,realistic-fiction,relationships,romance,unfinished"
17671501,,Tredve dager i Sandefjord,9788202370626,,,,ES,2011/1/1,Cappelen Damm,nor,false,4,13615029,171,293,87,3,2011/1/1,Tredve dager i Sandefjord,book,7,33,32,15,0,3.37,,Audio CD,,4,0,Vigdis Hjorth,,,,,,36,3,4,"biography,contemporary,drama,fiction,humor,non-fiction,novels"
17672001,1609054113,Peter Panda Melts Down,9781609054113,,,,ES,2014/2/11,Blue Apple Books,,false,1,17672001,311,211,63,23,2013/11/12,,,18,9,18,13,5,3.35,40,Hardcover,,63,23,Artie Bennett,,,,,,227,8,3,"animals,childrens,family,humor,love,mental-health,parenting,picture-books,poetry"
17672501,1476740542,Why John Roberts Was Wrong About Healthcare: A Conservative Critique of The Supreme Court's Obamacare Ruling,9781476740546,,,,ES,2013/6/17,Threshold Editions,,true,1,17672501,52,56,12,0,2013/6/24,,book,8,4,0,0,0,4.67,100,ebook,,12,0,Mike  Lee,,,,,,35,0,,"health,politics"
17673501,,Taking Flight poems,9780987138118,,,,ES,2013/3/23,Poetica Christi Press,eng,false,1,17673501,6,4,1,1,2013/3/23,,book,0,1,0,0,0,4.00,120,Paperback,,1,1,,,,Janette Fernando,,,5,0,,"christian,poetry"
17674001,1851242589,Prize Volumes: Catalogue for Designer Bookbinders International Competition 2013,9781851242580,,,,ES,2013/9/15,"Bodleian Library, University of Oxford",,false,1,17674001,1,0,0,0,2013/9/15,,,0,0,0,0,0,0.00,112,Hardcover,,0,0,,,,Jeanette Koch,,,1,0,,
17674501,0874202620,"When the Road Price Is Right: Land Use, Tolls, and Congestion Pricing",9780874202625,,,,ES,2013/3/1,Urban Land Institute,,false,1,17674501,0,0,0,0,2013/3/1,,,0,0,0,0,0,0.00,52,Paperback,,0,0,"Rachel MacCleery,Sarah Jo Peterson",,,,,,,0,,
17675001,0670025666,"Lincoln's Boys: John Hay, John Nicolay, and the War for Lincoln's Image",9780670025664,,,,ES,2014/2/4,Viking,eng,false,4,17675001,2147,1967,502,94,2013/10/17,,book,133,225,119,20,5,3.92,400,Hardcover,,424,89,Joshua Zeitz,,,,,,1479,21,45,"american,american-history,biography,history,non-fiction,politics"
17675501,,The Hansel and Gretel Arousing Complete Collection,,B00BW9RJNO,,,ES,2013/3/17,Pyramid Erotic Press ,en-GB,true,1,17675501,30,28,8,0,2013/3/17,,book,1,3,3,1,0,3.50,159,Kindle Edition,,8,0,Melanie Moorhac,,,,,,13,3,2,"adult,collections,erotica,fantasy,paranormal"
17676001,0829765581,Santa Biblia ultrafina compacta RVR,9780829765588,,,,ES,2013/8/26,Vida,,false,2,17676001,0,0,0,0,2013/8/25,,,0,0,0,0,0,0.00,1024,Leather Bound,,0,0,,,,,,,,0,,
17676501,1466978651,The Four Magical Powers,9781466978652,,,,ES,2013/3/19,Trafford Publishing,,false,2,17676500,3,0,0,0,2013/3/19,,,0,0,0,0,0,0.00,202,Hardcover,,0,0,Salyka Sally Phanthip,,,,,,3,0,,
17677001,148271390X,Lifemender,9781482713909,,,,ES,2013/3/1,Createspace,,false,1,17677001,0,0,0,0,2013/3/19,,,0,0,0,0,0,0.00,146,Paperback,,0,0,Tim Roehl,,,,,,,0,,
17677501,1486440908,The Syrian Christ - The Original Classic Edition,9781486440900,,,,ES,2013/3/18,Emereo Classics,,false,2,17722458,0,0,0,0,2013/3/18,,,0,0,0,0,0,0.00,102,Paperback,,0,0,Abraham Mitrie Rihbany,,,,,,,0,,
17678001,1620328429,Illumination and Interpretation: The Holy Spirit's Role in Hermeneutics,9781620328422,,,,ES,2013/3/6,Wipf & Stock Publishers,,false,3,17678001,1,5,1,0,2013/3/6,,,1,0,0,0,0,5.00,191,Paperback,,0,0,M X Seaman,,,,,,,0,,
17678501,0007492723,Journeys. Sally Gray,9780007492725,,,,ES,2012/9/1,Collins Educational,,false,1,17678501,0,0,0,0,2012/9/1,,,0,0,0,0,0,0.00,48,Hardcover,,0,0,Sally Gray,,,,,,,0,,
17679001,0199774110,Before Bioethics: A History of American Medical Ethics from the Colonial Period to the Bioethics Revolution,9780199774111,,,,ES,2013/10/7,"Oxford University Press, USA",,false,4,17679001,31,15,4,1,2013/1/1,,,2,0,1,1,0,3.75,476,Hardcover,,3,0,Robert Baker,,,,,,20,0,,
17679501,0330508458,Dunkirk: Retreat to Victory,9780330508452,,,,ES,2009/5/1,Pan Publishing,,true,11,6728840,616,635,173,27,2008/5/1,Dunkirk: Retreat to Victory,,38,63,51,19,2,3.67,,ebook,,0,0,Julian Thompson,,,,,,274,12,123,"france,history,non-fiction,survival,war"
17680001,0571290205,How I Won the War,9780571290208,,,,ES,2012/3/15,Faber  Faber,eng,false,7,2142464,715,1919,455,25,1963/1/1,How I Won the War,book,210,155,72,15,3,4.22,256,Paperback,Faber Finds,0,0,Patrick  Ryan,,,,,,102,8,6,"classics,comedy,contemporary,fiction,funny,historical-fiction,history,humor,modern,music,novels,school,war"
17680501,0751792209,Cfa Navigator - Level 2 Complete Package,9780751792201,,,,ES,2011/1/1,BPP Publishing,,false,1,17680501,0,0,0,0,2011/1/1,,,0,0,0,0,0,0.00,,Hardcover,,0,0,BPP Learning Media,,,,,,,0,,
17681001,0806143606,The Dig: In Search of Coronado's Treasure,9780806143606,,,,ES,2013/8/28,University of Oklahoma Press,,false,3,17681001,462,33,10,0,2013/8/28,,book,4,1,2,0,3,3.30,248,Paperback,,8,0,Sheldon Russell,,,,,,447,1,,"detective,historical-fiction,suspense"
17681501,0984823468,"Climb the Mountain - You Can, Yes You!",9780984823468,,,,ES,2013/3/15,Plain Vision Publishing,,true,2,17681501,1,0,0,0,2012/6/5,,,0,0,0,0,0,0.00,,ebook,,0,0,Pearl Glasgow,,,,,,,0,,
17682001,1118541235,Nutrition and Development: Short and Long Term Consequences for Health,9781118541234,,,,ES,2013/4/16,Wiley-Blackwell,,true,3,17681999,3,0,0,0,2013/4/1,,,0,0,0,0,0,0.00,376,ebook,,0,0,,,British Nutrition Foundation,,,,2,0,,
17682501,1118714598,Global Issues in Institutional Research,9781118714591,,,,ES,2013/5/17,Jossey-Bass,,true,6,18541752,1,0,0,0,2013/1/1,,book,0,0,0,0,0,0.00,112,ebook,,0,0,,,,"Angel Calderon,Karen L. Webber",,,,1,,
17683001,1288409702,An Analytical Model of Nanometer Scale Viscoelastic Properties of Polymer Surfaces Measured Using an Atomic Force Microscope,9781288409709,,,,ES,2012/12/6,Biblioscholar,,false,1,17683001,0,0,0,0,2012/12/6,,,0,0,0,0,0,0.00,132,Paperback,,0,0,Jacob B Goldberg,,,,,,,0,,
17683501,128882498X,"Igniting the Light Elements: The Los Alamos Thermonuclear Weapon Project, 1942-1952",9781288824984,,,,ES,2013/2/28,Biblioscholar,,false,1,17683501,3,0,0,0,2013/2/28,,,0,0,0,0,0,0.00,344,Paperback,,0,0,Anne C. Fitzpatrick,,,,,,3,0,,
17684001,1405368845,Scotland,9781405368841,,,,ES,2012/4/1,DK Eyewitness Travel,,false,26,744524,672,1574,377,21,1999/10/1,Scotland (Eyewitness Travel Guides),book,159,139,67,10,2,4.18,240,Paperback,,6,0,Alastair Scott,,,,,,170,5,9,"history,medieval,non-fiction,reference,travel"
17684501,1409474941,"Keats, Hermeticism, and the Secret Societies",9781409474944,,,,ES,2013/4/1,Ashgate Publishing,,true,8,2369674,14,5,1,0,2008/1/1,"Keats, Hermeticism, and the Secret Societies (The Nineteenth Century)",,1,0,0,0,0,5.00,214,ebook,,0,0,Jennifer N. Wunder,,,,,,9,0,1,
17685001,1444156144,My Inset: Gcse Maths from D to C for Borderline Learners,9781444156140,,,,ES,2012/9/1,Hodder Education,,false,1,17685001,0,0,0,0,2012/9/1,,,0,0,0,0,0,0.00,,Hardcover,,0,0,Brian Speed,,,,,,,0,,
17685501,1445428180,Sport,9781445428185,,,,ES,2011/2/1,Parragon Publishing,,false,1,17685501,1,0,0,0,2011/2/1,,,0,0,0,0,0,0.00,,Paperback,,0,0,,,,,,,1,0,,
17686001,1466604050,Advancing the Next-Generation of Mobile Computing: Emerging Technologies,9781466604056,,,,ES,2012/2/29,Information Science Reference,,true,5,16783272,3,4,1,0,2011/12/29,,,0,1,0,0,0,4.00,344,ebook,,0,0,,,,"Edgar R. Weippl,Ismail Khalil",,,2,0,,
17686501,1466622407,"Information Technologies, Methods, and Techniques of Supply Chain Management",9781466622401,,,,ES,2012/4/30,Business Science Reference,,true,5,15031367,1,4,1,0,2012/1/1,,,0,1,0,0,0,4.00,449,ebook,,0,0,,,,John Wang,,,,0,,
17687001,1466641746,"E-Government Success Around the World: Cases, Empirical Studies, and Practical Recommendations",9781466641747,,,,ES,2013/6/30,Information Science Reference,,true,4,17687002,1,0,0,0,2013/1/1,,,0,0,0,0,0,0.00,358,ebook,,0,0,,,,J. Ramon Gil-garcia,,,1,0,,
17687501,1475981627,From a Distance,9781475981629,,,,ES,2013/3/19,iUniverse,,false,3,17687500,1,4,1,0,2013/3/19,,,0,1,0,0,0,4.00,300,Hardcover,,0,0,Vernon Bargainer,,,,,,,0,,
17688001,1482658453,"Twinkle, Twinkle, Nighty Night",9781482658453,,,,ES,2013/3/19,Createspace Independent Publishing Platform,,false,2,17688001,3,5,1,0,2013/3/19,,,1,0,0,0,0,5.00,54,Paperback,,1,0,Alexis H. Purcell,,,,,,1,0,1,
17688501,1486493351,The Green Bough - The Original Classic Edition,9781486493357,,,,ES,2013/3/11,Emereo Publishing,,true,13,17279794,1,0,0,1,1921/1/1,,book,0,0,0,0,0,0.00,76,ebook,,0,0,E. Temple Thurston,,,,,,,0,,
17689001,1602553424,Francisco: El Primer Papa Latinoamericano,9781602553422,,,,ES,2013/5/6,Grupo Nelson,,true,3,18988035,32,60,16,1,2013/5/7,,book,6,1,8,1,0,3.75,176,ebook,,2,1,Mario Escobar,,,,,,9,0,2,"biography,religion"
17689501,1622954327,Eyes Like Mine,9781622954322,,,,ES,2013/5/7,Tate Publishing & Enterprises,,false,2,17689501,4,11,3,0,2013/5/7,,,2,0,0,0,1,3.67,224,Paperback,,2,0,Susan Vance,,,,,,1,0,,
17690001,1780970943,The Fashion & Friendship Tattoo Book,9781780970943,,,,ES,2012/7/1,Carlton Publishing Group,,false,1,17690001,0,0,0,0,2012/7/1,,,0,0,0,0,0,0.00,32,Paperback,,0,0,Caroline Rowlands,,,,,,,0,,
17690501,9789509693,El proceso educativo según Paulo Freire y Enrique Pichon- Rivière,,,,,ES,2009/1/1,ediciones Cinco,spa,false,2,17690501,41,23,6,1,2009/1/1,El proceso Educativo según Paulo Freire y Enrique Pichon- Rivière,book,0,5,1,0,0,3.83,120,Paperback,primera edición - séptima reimpresión,5,1,"Ana P. de Quiroga,Paulo Freire",,,,,,29,0,1,
17691001,1869662997,Party Food for Girls,9781869662998,,,,ES,2011/9/1,New Holland Publishers (Nz) Ltd,,false,1,17691001,1,0,0,0,2011/9/1,,,0,0,0,0,0,0.00,,Paperback,,0,0,Alessandra Zecchini,,,,,,1,0,,
17691501,1909141046,"Teachin Osteopathic Research: Proceedings of the Osean Open Forum 2012. Editors, Paolo Tozzi and Raimund Engel",9781909141049,,,,ES,2013/4/1,Handspring Publishing,,false,1,17691501,0,0,0,0,2013/4/1,,,0,0,0,0,0,0.00,68,Paperback,,0,0,Paolo Tozzi,,,,,,,0,,
17692001,3642375545,Protein-Nanoparticle Interactions: The Bio-Nano Interface,9783642375545,,,,ES,2013/7/4,Springer,,false,4,17692001,2,0,0,0,2013/1/1,,,0,0,0,0,0,0.00,86,Hardcover,,0,0,"L'Hocine Yahia,Masoud Rahman,Morteza Mahmoudi,Nancy Tawil,Sophie Laurent",,,,,,1,0,,
17692501,8192485196,World Peace Volume Ten,9788192485195,,,,ES,2013/1/15,Institute of Development Studies and Policy Resear,,true,1,17692501,0,0,0,0,2013/1/15,,,0,0,0,0,0,0.00,,ebook,,0,0,"Pritam Mallick,Suresh Chandra Mallick",,,,,,,0,,
17693001,,The Little Purple Book for Children:Lent,,,,,ES,2012/1/1,Little Books,eng,false,1,17693001,1,5,1,0,2012/1/1,,book,1,0,0,0,0,5.00,106,Paperback,,1,0,"Ken Untener,Nancy Ayotte",,,,,,,0,,
17693501,1771480653,The Uncertainty Principle,9781771480659,,,,ES,2013/4/30,ChiZine,,true,1,17693501,1,2,1,0,2013/4/30,,book,0,0,0,1,0,2.00,25,ebook,,1,0,Robert Boyczuk,,,,,,,0,,
17694001,,Casanova,9788883023446,,,,ES,2007/1/1,L'Epos,ita,false,1,17694001,1,3,1,0,2007/1/1,Casanova,book,0,0,1,0,0,3.00,189,Paperback,,1,0,Fabrizio Borin,,,,,,,0,,
17694501,0307897141,Ni No Kuni: Wrath of the White Witch,9780307897145,,,,ES,2013/2/1,Prima Games,,false,2,16099144,140,449,99,1,2013/1/22,,book,60,35,2,1,1,4.54,400,Hardcover,Prima's Official Game Guide  (UK),9,0,Howard Grossman,,,,,,16,0,5,"contemporary,fantasy,fiction,non-fiction,reference"
17695001,,The Brightness of Stars: Stories of Adults Who Came Through the British Care System,,B00BZZ8ULU,,,ES,2013/3/31,,en-GB,true,3,17694997,238,126,28,6,2013/3/31,,book,18,6,4,0,0,4.50,,Kindle Edition,,5,0,Lisa  Cherry,,,,,,197,3,3,"biography,biography-memoir,non-fiction"
17695501,9759802597,Şam Kitabı Yeryüzü Mektupları,,,,,ES,2006/1/1,Fide Yayıncılık,tur,false,1,17695501,2,7,2,0,2006/1/1,,book,0,1,1,0,0,3.50,173,Paperback,,2,0,Taha Kılınç,,,,,,,0,,
17696001,,catch and release in the cradle of civilization and other satirical collages,,,,,ES,2007/1/1,Dean Street Press,eng,false,1,17696001,1,0,0,0,2007/1/1,,book,0,0,0,0,0,0.00,,Paperback,,0,0,Geronimas Giniotis,,,,,,,0,,
17696501,,Načrtovana ljubezen,9789616788427,,,,ES,2010/1/1,Avrora,slv,false,34,2660720,11205,24865,6488,678,2008/1/1,Private Arrangements,book,2004,2248,1561,495,180,3.83,300,,,3,0,Sherry Thomas,,,,,,2055,48,113,"adult,adult-fiction,family,fiction,historical,historical-fiction,marriage,regency,romance,victorian"
17697001,,"The Seventh (Parker, #7)",9781609984304,,,,ES,2011/11/1,AudioGO,,false,22,618849,2233,6417,1566,136,1966/1/1,The Seventh,book,516,728,288,27,7,4.10,4,Audiobook,WMA,6,4,Richard Stark,,,,,Stephen R. Thorne,431,15,11,"action,adventure,crime,fiction,mystery,mystery-thriller,novels,suspense,thriller"
17697501,,Their Ancient Grudge,,,,,ES,1950/1/1,Dell,eng,false,2,6503116,9,7,2,0,1950/1/1,Their Ancient Grudge (Appalachian Echoes),,0,1,1,0,0,3.50,,Mass Market Paperback,Abridged,0,0,Harry Harrison Kroll,,,,,,7,0,,
17698001,,1 Ei - 50 Rezepte,9783833835155,,,,ES,2013/3/11,Gräfe und Unzer Verlag,,true,2,17698001,1,0,0,0,2013/3/11,,book,0,0,0,0,0,0.00,,Kindle Edition,Jeden-Tag-Küche,0,0,Bettina Matthaei,,,,,,,0,,
17698501,,"Case si oameni din Bucuresti, Vol. 1",9789735035853,,,,ES,2012/6/1,Humanitas,rum,false,1,17698501,45,71,20,4,2012/6/1,"Case si oameni din Bucuresti, Vol. 1 ",book,5,6,6,1,2,3.55,204,Paperback,,20,4,Andrei Pippidi,,,,,,16,0,1,history
17699001,,Black Mail: Book II,,B00BOXP9RQ,,,ES,2013/3/1,So Fundamental Publications,eng,true,2,24850807,12,29,6,2,2013/3/1,,book,5,1,0,0,0,4.83,64,Kindle Edition,,5,2,T.M. Duncan,,,,,,6,0,,
17699501,,"Parabellum (The Brigio Series, #1)",,B00BX0223O,,,ES,2013/3/22,,en-GB,true,3,17699501,83,41,12,1,2013/3/22,,book,0,6,5,1,0,3.42,274,Kindle Edition,,12,1,Mitch Goth,,,,,,60,8,1,"crime,fiction,mystery,suspense,thriller"
17700001,,Sweden (DK Eyewitness Travel Guide),,,,,ES,,,eng,false,15,10129562,154,324,78,8,2005/4/18,Sweden (DK Eyewitness Travel Guide),book,26,42,6,4,0,4.15,,Paperback,,1,0,Ulf Johansson,,,,,,12,2,1,"non-fiction,travel"
17700501,,Сърдитко,,,,,ES,1985/1/1,Български писател,bul,false,1,17700501,18,40,10,1,1985/1/1,,book,4,2,4,0,0,4.00,112,Paperback,,10,1,Чичо Стоян,,,,,,1,1,,"childrens,poetry"
17701001,1480040479,Read Through the Bible in a Year Journal,9781480040472,,,,ES,2012/10/2,Createspace,eng,false,1,17701001,0,0,0,0,2012/10/2,,book,0,0,0,0,0,0.00,382,Paperback,,0,0,Rob Westbrook,,,,,,,0,,
17701501,2894060661,Itinéraires d'Hubert Aquin,,,,,ES,1992/1/1,Bibliothèque québécoise,fre,false,1,17701501,1,3,1,0,1992/1/1,,book,0,0,1,0,0,3.00,359,,,1,0,Guylaine Massoutre,,,,,,,0,,
17702001,1137307730,"Japan, the US, and Regional Institution-Building in the New Asia: When Identity Matters",9781137307736,,,,ES,2013/8/21,Palgrave Macmillan,,false,2,18724079,0,0,0,0,2013/1/1,,,0,0,0,0,0,0.00,288,Hardcover,,0,0,Kuniko Ashizawa,,,,,,,0,,
17702501,,2001: The Centenary Election,,,,,ES,2002/1/1,University of Queensland Press,eng,false,1,17702501,1,4,1,0,2002/1/1,,book,0,1,0,0,0,4.00,350,Paperback,,1,0,John Warhurst & Marian Simms,,,,,,,0,,
17703001,,Viimeiseen mieheen,9789512062980,,,,ES,2003/1/1,Gummerus,fin,false,9,14839,65552,171065,42289,814,2001/11/6,Last Man Standing,book,14594,17257,8630,1369,439,4.05,704,Hardcover,,2,0,David Baldacci,,,,,,14735,21,1426,"action,adult,adult-fiction,adventure,american,contemporary,crime,detective,fiction,murder-mystery,mystery,mystery-thriller,novels,suspense,thriller"
17703501,,مرآة الزمان في تواريخ الأعيان ج١,,,,,ES,2013/1/1,الرسالة العالمية - دمشق,ara,false,1,17703501,56,34,8,1,2013/1/1,,book,5,1,1,1,0,4.25,530,Hardcover,1,8,1,سبط ابن الجوزي,,,,,,43,0,4,history
17704001,,"The Glory of the Lord Risen Upon It: First Presbyterian Church Columbia, South Carolina, 1795-19995",,,,,ES,1995/1/1,D. B. Calhoun,eng,false,1,17704001,5,3,1,1,1995/1/1,,book,0,0,1,0,0,3.00,,,,1,1,David B. Calhoun,,,,,,2,0,1,
17704501,0307828484,House of the Horrible Ghosts,9780307828484,,,,ES,2013/5/29,Random House Books for Young Readers,eng,true,6,2552590,13,7,4,1,1997/4/1,House Of The Horrible Ghosts (Stepping Stone),book,0,0,1,1,2,1.75,80,ebook,,1,1,Geoffrey Hayes,,,,,,4,1,1,childrens
17705001,,Demokratie! Nein Danke? Demokratieverdruss in Deutschland,9783801203900,,,,ES,2009/1/1,Verlag J.H.W. Dietz Nachf.,ger,false,1,17705001,1,4,1,0,2009/1/1,,book,0,1,0,0,0,4.00,135,Paperback,,1,0,Serge Embacher,,,"Frank D. Karl,Friedrich-Ebert-Stiftung",,,,0,,
17705501,1480144223,"Heaven Born On Earth: ""Holiday Thoughts""",9781480144224,,,,ES,2012/10/19,CreateSpace.com,eng,false,1,17705501,0,0,0,0,2012/10/19,"Heaven Born On Earth: ""Holiday Thoughts""",book,0,0,0,0,0,0.00,32,Paperback,,0,0,Patricia A. Lopez,,,,,,,0,,
17706001,8385560521,Niedaleko Avonlea,,,,,ES,1996/1/1,Novus Orbis,pol,false,11,5049349,284,408,102,5,1996/1/1,"Chronicles of Avonlea, & Further Chronicles of Avonlea",,38,32,26,6,0,4.00,224,Paperback,,0,0,L.M. Montgomery,,,,,,101,6,10,"adult-fiction,childrens,classics,fiction,realistic-fiction,short-stories"
17706501,0984432051,Following Her Beloved: The Memoirs of Henrietta Shuck Missionary Wife and Mother,9780984432059,,,,ES,2012/1/1,Corner Pillar Press,eng,false,13,17706501,16,23,5,1,2011/2/16,,book,4,0,1,0,0,4.60,236,Paperback,,4,1,Henrietta Hall Shuck,,,Jennifer     Adams,,,9,2,1,"biography,non-fiction"
17707001,8499881939,La India: Retrato de una sociedad,9788499881935,,,,ES,2013/10/1,Editorial Kairos,,false,9,1231635,595,714,192,25,2009/4/17,The Indians: Portrait of a People,book,42,78,52,16,4,3.72,272,Paperback,,2,1,"Katharina Kakar,Sudhir Kakar",,,,,,230,6,11,"anthropology,history,inspirational,international,non-fiction,psychology,sociology,travel"
17707501,1594488223,"Drama High: The Incredible True Story of a Brilliant Teacher, a Struggling Town, and the Magic of Theater",9781594488221,,,,ES,2013/9/26,Riverhead Books,eng,false,10,17707501,3929,4893,1212,266,2013/9/26,"Drama High: The Incredible True Story of a Brilliant Teacher, a Struggling Town, and the Magic of Theater",book,436,465,246,50,15,4.04,352,Hardcover,,1012,235,Michael Sokolove,,,,,,1345,39,101,"adult,biography,biography-memoir,drama,education,high-school,memoir,non-fiction,plays,school,teaching,theatre,unfinished"
17708001,1849822433,Farewell to Prague,9781849822435,,,,ES,2014/12/9,MP Publishing,,false,4,617406,795,1432,345,18,2001/3/1,Farewell To Prague,book,149,127,47,16,6,4.15,182,Paperback,,0,0,Miriam Darvas,,,,,,360,10,24,"autobiography,biography,biography-memoir,british-literature,drama,european-literature,family,historical,historical-fiction,history,memoir,non-fiction,novella,novels,politics,war"
17708501,1283613883,Where Do We Go from Here?: American Democracy and the Renewal of the Radical Imagination,9781283613880,,,,ES,2013/10/19,Lexington Books,,true,5,7956559,6,2,1,0,2010/1/1,,,0,0,0,1,0,2.00,226,ebook,,0,0,,,,Mark Major,,,5,0,,
17709001,1283742357,Birthright,9781283742351,,,,ES,2012/11/20,Yale University Press,,true,5,13594009,149,76,20,2,2012/11/5,,,3,11,5,1,0,3.80,265,ebook,,0,0,Stephen R. Kellert,,,,,,39,2,5,"health,nature,non-fiction,philosophy"
17709501,1283876221,Egg White Cookbook: 75 Recipes for Nature's Perfect Food,9781283876223,,,,ES,2014/5/20,M. Evans and Company,,true,4,17043462,2,0,0,0,2005/1/1,,,0,0,0,0,0,0.00,204,ebook,,0,0,"Barbara Leopold,Margaret Blackstone",,,,,,2,0,,
17710001,1283881411,Modern British Party System,9781283881418,,,,ES,2000/1/1,Sage Publications Ltd,,true,6,12183124,3,0,0,0,2000/1/1,,,0,0,0,0,0,0.00,323,ebook,,0,0,Paul D. Webb,,,,,,1,0,,
17710501,1283886561,World Yearbook of Education 1997: Intercultural Education,9781283886567,,,,ES,2014/5/9,Routledge,,true,5,17534803,0,0,0,0,2012/1/1,,,0,0,0,0,0,0.00,225,ebook,,0,0,,,,Jagdish Gundara,,,,0,,
17711001,128389212X,Cross-Cultural Management,9781283892124,,,,ES,2014/6/13,Business Expert Press,,true,4,17711001,4,2,1,0,2011/1/1,,,0,0,0,1,0,2.00,230,ebook,,1,0,Veronica Velo,,,,,,3,0,,
17711501,1283897555,Neighborhood and Life Chances,9781283897556,,,,ES,2014/5/17,University of Pennsylvania Press,,true,4,7983520,20,10,3,0,2011/1/1,,,0,2,0,1,0,3.33,393,ebook,,0,0,,,,"Eugenie L. Birch,Harriet Newburger,Susan M. Wachter",,,16,0,1,
17712001,1283905108,Music Therapy and Addictions,9781283905107,,,,ES,2014/5/10,Jessica Kingsley Publishers,,true,4,10366175,51,41,10,1,2010/4/1,,,4,3,3,0,0,4.10,178,ebook,,0,0,"David Aldridge,Jörg Fachner",,,,,,35,0,2,
17712501,1283910624,Multivariate Statistical Process Control: Process Monitoring Methods and Applications,9781283910620,,,,ES,2013/1/28,Springer London,,true,5,17712501,0,0,0,0,2012/11/21,,,0,0,0,0,0,0.00,204,ebook,,0,0,"Zhihuan Song,Zhiqiang Ge",,,,,,,0,,
17713001,1283916118,Home Winemaking for Dummies,9781283916110,,,,ES,2010/1/1,For Dummies,,true,5,8601340,55,75,19,1,2010/10/12,,,8,4,5,2,0,3.95,388,ebook,,0,0,Tim Patterson,,,,,,19,0,2,unfinished
17713501,1771115181,Compromises For His Moose (Kontra's Menagerie #11),9781771115186,,,,ES,2013/4/1,Extasy Books,eng,true,2,17713501,905,2534,663,30,2013/4/1,,book,189,220,206,43,5,3.82,97,ebook,,553,25,Charlie Richards,,,,,,100,8,9,"contemporary,erotica,family,fantasy,fiction,gay,lgbt,magic,paranormal,romance,shapeshifters,supernatural,urban-fantasy,vampires,werewolves"
17714001,0986887013,Dailyhaiku V,9780986887017,,,,ES,2013/3/28,Dailyhaiku,,false,1,17714001,0,0,0,0,2013/3/28,,,0,0,0,0,0,0.00,76,Paperback,,0,0,"Nicole Pakan,Patrick M. Pilarski",,,,,,,0,,
17714501,1452569193,Trust: Acting from Source,9781452569192,,,,ES,2013/3/25,Balboa Press,,false,3,17714501,0,0,0,0,2013/3/25,,,0,0,0,0,0,0.00,108,Paperback,,0,0,Shea Hampton,,,,,,,0,,
17715001,1479782211,"The White Boar and the Red Dragon: A Novel about Richard of Gloucester, Later King Richard 111 and Henry Tudor",9781479782215,,,,ES,2013/3/23,Xlibris Corporation,eng,false,3,17715000,20,12,3,0,2013/6/5,,book,1,1,1,0,0,4.00,334,Hardcover,,0,0,Margaret W. Price,,,,,,4,0,,fiction
17715501,1483611477,Is It Murder or Waste Management?: The Bucks County Butcher,9781483611471,,,,ES,2013/3/23,Xlibris Corporation,,false,3,19801883,2,1,1,0,2013/3/23,,,0,0,0,0,1,1.00,126,Hardcover,,0,0,V.H. Markle,,,,,,1,0,,
17716001,162509499X,The Grace of Hope,9781625094995,,,,ES,2013/3/25,Xulon Press,,false,1,17716001,0,0,0,0,2013/3/25,,,0,0,0,0,0,0.00,450,Paperback,,0,0,Joyce L. Pearson,,,,,,,0,,
17716501,3409241469,Immobilien Investment: Produkte . Markte . Strategien,9783409241465,,,,ES,1997/2/26,Gabler Verlag,,false,1,17716501,0,0,0,0,1997/2/26,,,0,0,0,0,0,0.00,466,Paperback,,0,0,,,,Marlies Brunner,,,,0,,
17717001,3531129333,Allgemeine Literaturwissenschaft: Konturen Und Profile Im Pluralismus,9783531129334,,,,ES,1999/5/28,Vs Verlag Fur Sozialwissenschaften,,false,1,17717001,0,0,0,0,1999/5/28,,,0,0,0,0,0,0.00,192,Paperback,,0,0,,,,Carstenglish Zelle,,,,0,,
17717501,3810007838,Sinnwelt Freizeit: Jugendliche Zwischen Markten Und Verbanden,9783810007834,,,,ES,1990/1/30,Vs Verlag Fur Sozialwissenschaften,,false,1,17717501,0,0,0,0,1990/1/30,,,0,0,0,0,0,0.00,109,Paperback,,0,0,"Helmut Willems,Roland Eckert,Thomas Drieseberg",,,,,,,0,,
17718001,9401407576,Hotels à la Carte: Provence & Côte d'Azur,9789401407571,,,,ES,2013/6/16,Lannoo Publishers,,false,1,17718001,1,0,0,0,2013/8/16,,book,0,0,0,0,0,0.00,223,Hardcover,,0,0,"Hendrik Biegs,Luc Quisenaerts",,,,,,1,0,,
17718501,0321513894,A Developer's Guide to SQL Server 2005,9780321513892,,,,ES,2006/5/8,Addison-Wesley Professional,,true,4,1987099,15,14,4,0,2006/4/28,A Developer's Guide to SQL Server 2005 (Microsoft .NET Development Series),,2,0,0,2,0,3.50,9998,ebook,,0,0,"Bob Beauchemin,Dan Sullivan",,,,,,1,0,,
17719001,0520929985,Sixties: 1960-1969,9780520929982,,,,ES,2003/5/2,University of California Press,,true,3,1845633,64,70,19,0,2000/1/1,"The Sixties: 1960-1969 (History of the American Cinema, #8)",book,4,8,5,1,1,3.68,359,ebook,,0,0,Paul Monaco,,,,,,32,1,1,"film,history,movies,reference,school"
17719501,0606318410,Mort,9780606318419,,,,ES,2013/1/29,Turtleback Books,,false,144,386372,237178,708481,167378,3973,1987/11/12,Mort,book,73540,64665,24912,3124,1137,4.23,295,Hardcover,,21,3,Terry Pratchett,,,,,,46224,479,2012,"adult,adult-fiction,adventure,british-literature,comedy,death,fantasy,fiction,funny,high-fantasy,humor,magic,novels,science-fiction,science-fiction-fantasy,speculative-fiction,supernatural,young-adult"
17720001,0819226475,Spiritual Direction in Context,9780819226471,,,,ES,2006/3/1,Morehouse Publishing,,true,2,88663,14,24,6,0,2006/3/1,,,3,1,1,1,0,4.00,192,ebook,,0,0,,,,Nick Wagner,,,3,0,,spirituality
17720501,1118553896,Introduction to Soil Mechanics,9781118553893,,,,ES,2013/6/19,Wiley-Blackwell,,true,5,17720500,2,0,0,0,2013/4/1,,,0,0,0,0,0,0.00,608,ebook,,0,0,Bela Bodo,,,,,,1,0,,
17721001,1445024551,After Such Kindness,9781445024554,,,,ES,2013/3/1,ISIS Audio Books,eng,false,11,13628969,297,543,153,35,2012/7/5,After Such Kindness,book,15,79,40,13,6,3.55,13,Audio Cassette,,0,0,Gaynor Arnold,,,,,"Paul Ansdell,Penelope Rawlins",124,9,2,"contemporary,detective,family,fiction,historical,historical-fiction,literary-fiction,novels,religion,victorian"
17721501,1461719046,Audio and Video Equipment Basics for Libraries,9781461719045,,,,ES,2006/2/16,Scarecrow Press,,true,1,17721501,0,0,0,0,2006/2/16,,,0,0,0,0,0,0.00,152,ebook,,0,0,Jim Farrington,,,,,,,0,,
17722001,1481728830,Stalks of Talk: Essays and Poems,9781481728836,,,,ES,2013/3/25,Authorhouse,,true,2,17715160,0,0,0,0,2013/3/25,,,0,0,0,0,0,0.00,,ebook,,0,0,Patti Ross,,,,,,,0,,
17722501,1486499511,"Clara Vaughan, Volume II of III",9781486499519,,,,ES,2013/3/18,Emereo Publishing,,true,7,24113292,9,12,3,1,2012/12/18,,book,1,1,1,0,0,4.00,64,ebook,,1,0,R.D. Blackmore,,,,,,6,0,1,classics
17723001,1601387105,How to Open & Operate a Financially Successful Independent Record Label: With Companion CD-ROM,9781601387103,,,,ES,2011/9/30,Atlantic Publishing Group Inc.,,true,3,20825234,5,16,4,0,2008/7/1,,,0,4,0,0,0,4.00,288,ebook,,0,0,Martha Maeda,,,,,,,0,,
17723501,162619100X,Portsmouth Women: Madams  Matriarchs Who Shaped New Hampshire's Port City,9781626191006,,,,ES,2013/5/21,The History Press,,false,5,18063767,20,32,8,0,2013/5/21,,,2,4,2,0,0,4.00,128,Paperback,,2,0,,,,Laura Pope,,,10,0,,non-fiction
17724001,3643903464,China's South-South Relations,9783643903464,,,,ES,2013/5/21,LIT Verlag,,false,1,17724001,1,0,0,0,2013/4/1,,,0,0,0,0,0,0.00,144,Paperback,,0,0,,,,Bettina Gransow,,,1,0,,
17724501,,Save Yourself Some Pain,,,,,ES,1997/1/1,Living Waters Publications,,false,1,17724501,13,23,6,0,1997/1/1,,book,3,1,1,0,1,3.83,34,,,6,0,Ray Comfort,,,,,,6,1,1,
17725001,,Mémoire Trouble,9782894307643,,,,ES,,,fre,false,37,6314652,10617,20106,5447,679,2008/1/1,,book,1119,2162,1638,421,107,3.69,392,,,0,1,Lisa Unger,,,,,,3725,43,136,"adult,adult-fiction,contemporary,crime,fiction,mental-illness,mystery,mystery-thriller,novels,romance,suspense,thriller"
17726001,,The Pandora Sequence,,,,,ES,,,,true,5,17327213,473,822,196,5,1988/1/1,,,86,69,35,5,1,4.19,,ebook,,0,0,Frank Herbert,,,,,,175,3,26,"literature,science-fiction"
17726501,,"L'espéranto, fil d'Ariane du cœur et de l'esprit",,,,,ES,1959/1/1,,epo,false,1,17726501,1,0,0,0,1959/1/1,,book,0,0,0,0,0,0.00,,Paperback,,0,0,Pierre DELAIRE,,,,,,,0,,
17727001,,Front Porch: American Athenaeum,,B00C4K2UK2,,,ES,2013/3/31,Sword and Saga Press,eng,true,3,17727001,89,32,7,1,2013/3/31,,book,5,1,1,0,0,4.57,,Kindle Edition,,7,1,,,"Carmen Welsh,Claude Clayton Smith,J. Patrick Lewis,Mary Buchinger,Nandini Pandya,Paula Brackston,Red Haircrow,Richie Swanson,Robert W. Kingett",Hunter Liguore,,,77,0,,fiction
17727501,,El Coche Numero 13,,,,,ES,1909/1/1,Casa Editora La Nacion,spa,false,3,17727502,32,54,12,0,1909/1/1,,book,7,4,1,0,0,4.50,,,,0,0,Xavier de Montepin,,,,,,17,0,3,
17728001,,Sensuous Magic: A Guide for Adventurous Couples,,,,,ES,1993/9/1,Richard Kasak Books,eng,false,7,125480,615,568,146,13,1993/1/1,,book,48,48,38,10,2,3.89,195,Paperback,First Richard Kasak Book edition,2,0,Patrick Califia-Rice,,,,,,305,6,3,"amazon,bdsm,fantasy,lgbt,non-fiction,queer,reference,self-help"
17728501,,Госпожа Берта Гарлан,,,,,ES,1977/8/1,"""Народна култура""",bul,false,1,17728501,3,4,1,0,1977/8/1,"Госпожа Берта Гарлан (Библиотека „Панорама“, #68)",book,0,1,0,0,0,4.00,288,Mass Market Paperback,"Библиотека „Панорама“, #68",1,0,Arthur Schnitzler,,,,Фани Караджова - Потоцка,,2,0,,
17729001,,Et in Arcadia ego,,,,,ES,1942/1/1,Mondadori,ita,false,4,17729001,7,4,1,0,1942/1/1,,book,0,1,0,0,0,4.00,212,Paperback,Lo Specchio,1,0,Emilio Cecchi,,,,,,4,1,,
17729501,,The War of the Worlds,,,,,ES,2005/1/1,Dalmatian Press,eng,false,1834,8909,378529,800263,209930,6215,1895/5/1,The War of the Worlds ,book,54594,80712,58454,12913,3257,3.81,250,Leather Bound,,2,0,H.G. Wells,,,,,,133164,583,8374,"adult,adult-fiction,adventure,aliens,british-literature,classic-literature,classics,dystopia,english-literature,fantasy,fiction,horror,literature,novels,post-apocalyptic,school,science,science-fiction,science-fiction-fantasy,speculative-fiction,thriller,unfinished,victorian,war"
17730501,1405912456,"Gabriel's Redemption (Gabriel's Inferno, #3)",9781405912457,,,,ES,2013/12/5,Penguin,en-GB,false,37,16247792,68682,142653,33778,2762,2013/12/3,Gabriel's Redemption,book,16936,9845,5119,1358,520,4.22,477,Paperback,UK,114,24,Sylvain Reynard,,,,,,13,197,12,"adult,adult-fiction,chick-lit,college,contemporary,drama,erotica,fiction,love,new-adult,romance"
17731001,,Remarkable Refrigerator Cakes,,B009VNX82O,,,ES,2012/10/8,168 Publishing,en-GB,true,2,17731001,50,47,13,1,2012/10/8,,book,2,7,2,1,1,3.62,59,Kindle Edition,,13,1,Cooking Penguin,,,,,,23,1,4,"amazon,cookbooks,cooking"
17731501,0090862708,A Wind from the Hill,,,,,ES,1968/1/1,Hurst & Blackett,eng,false,1,17731501,1,0,0,0,1968/1/1,,book,0,0,0,0,0,0.00,183,,,0,0,Annette Eyre,,,,,,,0,,
17732001,,Las preguntas indeseables,,,,,ES,1984/1/1,Formato 16,spa,false,1,17732001,2,4,1,1,1984/1/1,,book,0,1,0,0,0,4.00,,Paperback,,1,1,Consuelo Tomás Fitzgerald,,,,,,,0,,
17732501,9604556711,Τα δέκα πιο όμορφα πειράματα,9789604556717,,,,ES,2009/11/1,Μεταίχμιο,gre,false,24,2200247,3168,3568,992,155,2008/1/1,The Ten Most Beautiful Experiments,book,192,326,371,88,15,3.60,241,Paperback,,2,0,George Johnson,,,,,,931,25,55,"academic,biography,essays,history,literature,non-fiction,science,textbooks"
17733001,,Harbiye Kazanı,9789753900102,,,,ES,1989/1/1,E Yayınları,tur,false,1,17733001,2,0,0,0,1989/1/1,,book,0,0,0,0,0,0.00,176,,1.Baskı,0,0,Kerim Korcan,,,,,,1,0,,
17734001,,Poesía chilena de hoy. De Parra a nuestros días,9789568415051,,,,ES,1998/1/1,Metales Pesados,spa,false,1,17734001,8,10,2,0,1998/11/1,,book,2,0,0,0,0,5.00,554,Paperback,,2,0,,,,Erwin Díaz,,,1,0,2,
17734501,8711396504,En lille bog om Blixen,978871139650,,,,ES,2012/1/1, Lindhardt og Ringhof,,false,2,17734501,27,52,13,2,2012/1/1,,book,3,7,3,0,0,4.00,233,Hardcover,,12,2,Sune De Souza Schmidt-Madsen,,,,,,8,0,3,"biography,biography-memoir,modern,non-fiction"
17735001,,"Sex, sandheder og sammenbrud",9788712048046,,,,ES,2012/1/1,Gads Forlag,dan,false,1,17735001,6,13,6,0,2012/1/1,,book,0,1,1,2,2,2.17,192,Hardcover,,6,0,Marianne Eilenberger,,,,,,,1,,
17735501,,"Unhinged (Underworld, #1)",,B014S4AEOK,,,ES,2013/4/6,Smashwords Edition,eng,true,9,36443526,2472,1024,252,86,2013/4/6,,book,111,76,46,8,11,4.06,,ebook,,155,59,Chani Lynn Feener,,,,,,2147,12,7,"fantasy,fiction,ghosts,high-school,mythology,paranormal,retellings,romance,young-adult"
17736001,,Soldatensouvenir (Keepsakes German Edition),,B00AZRBEP8,,,ES,,,ger,true,3,17911892,3,4,1,1,2012/1/28,,book,0,1,0,0,0,4.00,17,ebook,,0,0,Maria Santicelli,,,,,,1,0,1,
17736501,9793827025,PAGAR,,,,,ES,,PT. Prima Infosarana Media,ind,false,1,17736501,4,4,1,0,,PAGAR,book,0,1,0,0,0,4.00,64,Magazine,,1,0,Redaksi Serial Rumah,,,,,,3,0,,
17737001,0807042463,"""You Can Tell Just By Looking"": And 20 Other Myths about LGBT Life and People",9780807042465,,,,ES,2013/10/1,Beacon Press,,true,5,17262459,684,466,146,39,2013/1/1,,book,21,36,53,22,14,3.19,208,ebook,,1,0,"Ann Pellegrini,Michael Amico,Michael Bronski",,,,,,65,21,18,"adult,collections,feminism,lgbt,mental-health,non-fiction,queer,research,science"
17737501,9646233031,خنکای سپیده دم سفر,,,,,ES,1385/1/1,انتشارات خجسته,per,false,1,17737501,21,23,7,1,1385/1/1,خنکای سپیده دم سفر,book,0,4,1,2,0,3.29,112,Hardcover,,7,1,ناهید طباطبایی,,,,,,11,0,,
17738001,,Strong Weakness - Unexpected Love: Keri's Story (2),,B00BPU4KFA,,,ES,2013/3/5,,eng,true,1,17738001,5,0,0,0,2013/3/5,,book,0,0,0,0,0,0.00,,Kindle Edition,,0,0,Jade Ryan,,,,,,3,0,,fiction
17738501,,The Races of Violet Dawn: Skarren,,,,,ES,,The Inner Circle,,true,1,17738501,1,0,0,0,,,book,0,0,0,0,0,0.00,10,ebook,,0,0,,Robert Gallgher,,,,,,0,,
17739501,,Judgement by Fire,,,,,ES,,,,false,2,1949866,14,28,8,0,1988/6/12,Judgement by Fire,book,2,1,4,1,0,3.50,,,,1,0,Frederick D. Huebner,,,,,,1,0,,mystery
17740001,,In The Penal Colony,,,,,ES,,Feedbooks,eng,true,183,581552,24689,53279,13368,698,1919/10/1,In der Strafkolonie,book,4404,5344,2805,653,162,3.99,34,ebook,,28,4,Franz Kafka,,,,Ian C. Johnston,,8009,63,189,"adult,adult-fiction,classics,crime,dystopia,european-literature,fiction,high-school,horror,literary-fiction,literature,magical-realism,modern-classics,novella,novels,philosophy,school,science-fiction,short-stories"
17740501,0606315365,The Test,9780606315364,,,,ES,2013/2/1,Turtleback Books,,false,7,9977175,4938,5679,1266,151,2010/12/15,,book,889,193,121,36,27,4.49,139,Hardcover,,0,0,Peggy Kern,,,,,,2918,15,205,"contemporary,drama,fiction,love,realistic-fiction,school,social-issues,young-adult"
17741001,1240404867,Helpes to Humiliation (1630),9781240404865,,,,ES,2010/12/29,"Proquest, Eebo Editions",,false,1,17741001,0,0,0,0,2010/12/29,,book,0,0,0,0,0,0.00,168,Paperback,,0,0,Robert Bolton,,,,,,,0,,
17741501,1481786563,Strife of Decades,9781481786560,,,,ES,2013/4/1,Authorhouse,,false,2,17741501,0,0,0,0,2013/4/1,,,0,0,0,0,0,0.00,210,Paperback,,0,0,Odayam Misbah,,,,,,,0,,
17742001,1603865543,Your Invisible Power,9781603865548,,,,ES,2013/3/29,Merchant Books,,false,59,22415,1631,2434,599,51,1921/1/1,Your Invisible Power,,267,164,117,41,10,4.06,108,Paperback,,5,0,Geneviève Behrend,,,,,,716,11,153,"health,non-fiction,personal-development,philosophy,psychology,religion,self-help,short-stories,spirituality"
17742501,3639463676,Auswirkungen Der Basel III Liquiditatsvorschriften Fur Banken,9783639463675,,,,ES,2013/2/11,AV Akademikerverlag,,false,1,17742501,0,0,0,0,2013/2/11,,,0,0,0,0,0,0.00,92,Paperback,,0,0,Nazim Boris,,,,,,,0,,
17743001,5699093451,Война в белом аду,9785699093458,,,,ES,2005/1/1,"ЭКСМО, Москва",rus,false,1,17743001,0,0,0,0,2005/1/1,,book,0,0,0,0,0,0.00,382,Hardcover,,0,0,"Jean Mabire,Жан Мабир",,,,,,,0,,
17743501,0060560991,Paradise Alley,9780060560997,,,,ES,2002/12/3,HarperCollins,,true,20,116462,2614,4949,1215,133,2002/1/1,Paradise Alley,book,443,493,219,45,15,4.07,704,ebook,,0,0,Kevin Baker,,,,,,1128,9,54,"adult-fiction,american,american-history,contemporary,fiction,historical,historical-fiction,history,mystery,non-fiction,politics,war"
17744001,0060795255,The Prince's Bride,9780060795252,,,,ES,2004/11/9,HarperCollins,,true,14,232125,2738,5228,1345,58,2001/1/1,"The Prince's Bride (Effingtons, #4)",book,379,514,387,51,14,3.89,384,ebook,,0,0,Victoria Alexander,,,,,,170,21,30,"adult,fiction,historical,historical-fiction,regency,romance"
17744501,9132157096,"Om jag kunde drömma (Twilight, #1)",9789132157097,,,,ES,2009/1/1,B. Wahlströms,swe,false,253,41865,5190391,15702082,4381814,98593,2005/10/5,Twilight,book,1529263,980148,888965,484842,498596,3.58,448,Hardcover,Utökad version,129,10,Stephenie Meyer,,,,Carina Jansson,,589985,2226,20851,"chick-lit,contemporary,drama,fantasy,fiction,high-school,horror,love,movies,novels,paranormal,romance,science-fiction,supernatural,teen,urban-fantasy,vampires,werewolves,young-adult"
17745001,0061150991,Magic Time: Angelfire,9780061150999,,,,ES,2006/2/14,HarperCollins,,true,14,674039,431,932,246,22,2002/12/1,Angelfire,book,70,91,55,23,7,3.79,416,ebook,,0,0,"Marc Scott Zicree,Maya Kaathryn Bohnhoff",,,,,,21,8,5,"dystopia,fantasy,fiction,magic,paranormal,science-fiction,urban-fantasy,young-adult"
17745501,0061208256,Mind Set!,9780061208256,,,,ES,2006/10/24,HarperCollins,,true,15,40754,701,850,251,26,2006/1/1,Mind Set!: Reset Your Thinking and See the Future,,42,75,85,36,13,3.39,304,ebook,,0,0,John Naisbitt,,,,,,346,9,20,"business,collections,economics,education,leadership,non-fiction,personal-development,philosophy,psychology,science,self-help,social,unfinished"
17746001,0061283207,"Best Practices: Communicating Effectively: Write, Speak, and Present with Authority",9780061283208,,,,ES,2007/4/3,HarperCollins,,true,6,1384383,41,56,15,0,2007/4/3,"Best Practices: Communicating Effectively: Write, Speak, and Present with Authority (Best Practices)",,2,8,4,1,0,3.73,160,ebook,,0,0,Garry Kranz,,,,,,13,0,2,"business,non-fiction,writing"
17746501,0061355623,Setting the Table,9780061355622,,,,ES,2007/3/20,HarperCollins,,true,16,213280,8521,13116,3231,316,2006/10/1,Setting the Table: The Transforming Power of Hospitality in Business,book,1201,1236,614,145,35,4.06,336,ebook,,0,0,Danny Meyer,,,,,,3918,21,650,"adult,american,autobiography,biography,business,cooking,education,family,food,leadership,memoir,non-fiction,school,self-help,unfinished"
17747001,0061434329,Sure of You,9780061434327,,,,ES,2007/5/29,HarperCollins,,true,3,16259,9640,26177,6505,208,1989/1/1,Sure of You,book,2224,2487,1543,229,22,4.02,272,ebook,,0,0,Armistead Maupin,,,,,,1641,39,47,"adult-fiction,american,classics,comedy,contemporary,drama,fiction,funny,gay,humor,lgbt,literary-fiction,literature,marriage,novels,queer,realistic-fiction,romance"
17747501,0061460699,The Gospel According to Dogs,9780061460692,,,,ES,2007/7/10,HarperCollins,,true,8,447981,20,25,7,0,2007/7/10,The Gospel According to Dogs: What Our Four-Legged Saints Can Teach Us,,3,0,2,2,0,3.57,128,ebook,,0,0,Robert L. Short,,,,,,8,0,3,
17748001,0061492264,The Alphabet of Grace,9780061492266,,,,ES,2007/9/11,HarperCollins,,true,11,123302,1464,2882,696,49,1969/1/1,The Alphabet of Grace,book,280,262,131,18,5,4.14,128,ebook,,0,0,Frederick Buechner,,,,,,620,17,23,"christian,christianity,faith,fiction,literature,non-fiction,reference,religion,spirituality,teaching,theology"
17748501,0061550108,Where Do Nudists Keep Their Hankies?,9780061550102,,,,ES,2007/11/13,HarperCollins,,true,9,1504263,297,421,131,17,2006/1/1,Where Do Nudists Keep Their Hankies?: ... and Other Naughty Questions You Always Wanted Answered,,24,28,45,20,14,3.21,288,ebook,,0,0,Mitchell Symons,,,,,,123,8,3,"adventure,comedy,funny,health,humor,non-fiction,reference,science,self-help,short-stories,travel"
17749001,0061631795,Bound,9780061631795,,,,ES,2008/4/1,HarperCollins,,true,10,1945184,4307,8545,2226,337,2008/4/1,Bound: A Novel,book,541,957,586,112,30,3.84,336,ebook,,0,0,Sally Cabot Gunning,,,,,,1544,17,124,"adult,adult-fiction,american,american-history,fiction,historical,historical-fiction,history,literary-fiction"
17749501,0061657530,In the Highlander's Bed,9780061657535,,,,ES,2008/1/29,HarperCollins,,true,18,1814694,2275,4383,1178,74,2008/1/29,In the Highlander's Bed,book,298,387,385,82,26,3.72,384,ebook,,0,0,Cathy Maxwell,,,,,,634,12,21,"adult,fiction,historical,historical-fiction,regency,romance"
17750001,0061670332,The Cactus Eaters,9780061670336,,,,ES,2008/5/20,HarperCollins,,true,6,2767943,2734,4138,1204,190,2008/5/20,The Cactus Eaters: How I Lost My Mind-and Almost Found Myself-on the Pacific Crest Trail (P.S.),book,197,384,409,176,38,3.44,400,ebook,,0,0,Dan White,,,,,,1239,10,28,"adventure,biography,biography-memoir,essays,health,memoir,nature,non-fiction,psychology,science,sports,travel"
17750501,0061707066,Runaway Ralph,9780061707063,,,,ES,2008/5/6,HarperCollins,,true,51,13168,25441,76986,19434,376,1970/1/1,Runaway Ralph,book,6555,6720,5190,792,177,3.96,224,ebook,,0,0,"Beverly Cleary,Tracy Dockray",,,,,,1035,168,121,"adventure,animals,chapter-books,childrens,classics,family,fantasy,fiction,humor,juvenile,middle-grade,novels,realistic-fiction,school,young-adult"
17751001,0061754293,Oscar Micheaux: The Great and Only,9780061754296,,,,ES,2008/9/30,HarperCollins,,true,9,742698,223,208,52,10,2007/6/1,Oscar Micheaux: The Great and Only: The Life of America's First Great Black Filmmaker,book,13,28,9,2,0,4.00,432,ebook,,0,0,Patrick McGilligan,,,,,,137,6,23,"biography,business,film,historical,history,non-fiction"
17751501,0061785725,The Unwritten Rules of Baseball,9780061785726,,,,ES,2009/3/24,HarperCollins,,true,8,3982497,350,666,181,16,2009/3/11,"The Unwritten Rules of Baseball: The Etiquette, Conventional Wisdom, and Axiomatic Codes of Our National Pastime",,33,69,69,8,2,3.68,256,ebook,,0,0,Paul Dickson,,,,,,124,6,10,"non-fiction,psychology,relationships,sports"
17752001,0061832618,Wind Rider,9780061832611,,,,ES,2009/1/20,HarperCollins,,true,1,517063,245,528,127,19,2006/10/1,Wind Rider,book,60,34,28,3,2,4.16,320,ebook,,0,0,Susan Williams,,,,,,79,10,5,"action,adventure,animals,childrens,fantasy,historical,historical-fiction,middle-grade,young-adult"
17752501,0061867136,Bardisms,9780061867132,,,,ES,2009/4/7,HarperCollins,,true,9,5403712,337,203,56,10,2009/4/1,Bardisms: Shakespeare for All Occasions,,13,16,21,5,1,3.62,320,ebook,,0,0,Barry Edelstein,,,,,,150,12,26,"british-literature,criticism,fiction,literary-fiction,non-fiction,reference"
17753501,006192072X,The E-Myth Enterprise,9780061920721,,,,ES,2009/6/23,HarperCollins,,true,18,6623727,1118,1263,345,43,2009/6/23,The E-Myth Enterprise: How to Turn A Great Idea Into a Thriving Business,,100,102,90,32,21,3.66,224,ebook,,0,0,Michael E. Gerber,,,,,,228,12,43,"business,inspirational,leadership,non-fiction,self-help"
17754001,0061954357,Goddesses #1: Heaven Sent,9780061954351,,,,ES,2009/6/9,HarperCollins,,true,9,1923104,372,731,197,20,2002/2/1,"Heaven Sent (Goddesses, #1)",book,49,70,58,12,8,3.71,192,ebook,,0,0,Clea Hantman,,,,,,78,11,1,"chick-lit,childrens,contemporary,fairy-tales,fantasy,fiction,love-story,middle-grade,mythology,retellings,teen,young-adult"
17754501,0203046536,Key Issues for Primary Schools,9780203046531,,,,ES,1999/2/4,Routledgefalmer,,true,9,1596362,0,0,0,0,1999/2/4,Key Issues for Primary Schools,,0,0,0,0,0,0.00,,ebook,,0,0,Michael Farrell,,,,,,,0,,
17755001,0203073495,"Death, Burial and Rebirth in the Religions of Antiquity",9780203073490,,,,ES,1999/6/24,Routledge,,true,8,1912760,31,43,12,1,1999/6/24,"Death, Burial and the Rebirth in the Religions of Antiquity (Religion in the First Christian Centuries)",,2,5,4,0,1,3.58,,ebook,,0,0,Jon Davies,,,,,,10,1,2,"death,non-fiction,religion,research,school"
17755501,0203183541,Hong Kong as an International Financial Centre,9780203183540,,,,ES,2001/3/15,Routledge Curzon,,true,4,16766536,0,0,0,0,2001/3/15,,,0,0,0,0,0,0.00,,ebook,,0,0,Catherine R. Schenk,,,,,,,0,,
17756001,0203566823,"Understanding, Managing and Implementing Quality",9780203566824,,,,ES,2001/12/13,Routledge,,true,10,19850722,3,3,1,0,2001/12/13,,,0,0,1,0,0,3.00,,ebook,,0,0,"David Preece,Jiju Antony,Jiju Antony",,,,,,2,0,,
17756501,0314279431,"Criminal Procedure: Cases, Problems and Exercises: Investigative Processes",9780314279439,,,,ES,2013/4/3,West Academic Publishing,,false,1,17756501,3,2,1,0,2013/4/3,,,0,0,0,1,0,2.00,794,Paperback,,1,0,"Catherine Hancock,John M. Burkoff,Russell L. Weaver",,,,,,2,0,,
17758001,0415709059,African Youth in Contemporary Literature and Popular Culture: Identity Quest,9780415709057,,,,ES,2013/11/1,Routledge,,false,7,17758001,7,14,3,0,2013/1/1,,,2,1,0,0,0,4.67,256,Hardcover,,3,0,,,,"Lindah Mhando,Vivian Yenika-Agbaw",,,2,0,,
17758501,0595725716,Son of a Son of a Politician,9780595725717,,,,ES,2002/1/30,Writers Club Press,,true,2,17758501,0,0,0,0,2002/1/30,,,0,0,0,0,0,0.00,,ebook,,0,0,Andrew Jarosh,,,,,,,0,,
17759001,059574382X,April Showers and Daffodils,9780595743827,,,,ES,2003/2/24,Writers Club Press,,true,3,17759001,0,0,0,0,2003/2/24,,,0,0,0,0,0,0.00,,ebook,,0,0,Connie Downes,,,,,,,0,,
17759501,0755122755,When the Gangs Came to London,9780755122752,,,,ES,2012/9/30,House of Stratus,eng,true,20,2008360,72,98,33,5,1932/1/1,When The Gangs Came To London,book,2,8,14,5,4,2.97,220,ebook,,0,0,Edgar Wallace,,,,,,23,1,2,"crime,fiction,mystery,suspense,thriller"
17760001,075958155X,Because the Night,9780759581555,,,,ES,2001/2/1,iPublish.com,,true,45,36060,2077,4383,1262,47,1984/1/1,Because the night,book,167,435,512,124,24,3.47,,ebook,,0,0,James Ellroy,,,,,,495,6,33,"american,crime,detective,fiction,history,literature,mystery,mystery-thriller,novels,thriller,unfinished"
17760501,0786509945,The Cove,9780786509942,,,,ES,2001/6/1,Jove Books,,true,39,342240,38897,81003,21027,858,1996/4/1,The Cove,book,6655,7337,4960,1425,650,3.85,384,ebook,,0,0,Catherine Coulter,,,,,,12344,37,865,"action,adult,adult-fiction,adventure,chick-lit,contemporary,crime,detective,drama,fiction,murder-mystery,mystery,mystery-thriller,romance,suspense,thriller"
17761001,0786536969,No Finish Line: My Life as I See It,9780786536962,,,,ES,2003/6/5,Putnam Publishing Group,,true,18,6611496,170,220,59,7,2001/1/1,No Finish Line,book,14,22,17,5,1,3.73,,ebook,,0,0,"Marla Runyan,Sally Jenkins",,,,,,88,3,6,"biography,health,non-fiction,sports"
17761501,0786569085,Miss Julia Throws a Wedding,9780786569083,,,,ES,2006/4/20,Penguin Books,,true,20,668555,6043,15466,3919,235,2002/4/29,"Miss Julia Throws a Wedding (Miss Julia, #3)",book,1207,1482,1070,133,27,3.95,320,ebook,,1,0,Ann B. Ross,,,,,,392,26,159,"adult,chick-lit,christian-fiction,comedy,contemporary,cozy-mystery,fiction,funny,humor,mystery,mystery-thriller,realistic-fiction,romance"
17762001,0813143284,Team 19 in Vietnam: An Australian Soldier at War,9780813143286,,,,ES,2013/9/12,University Press of Kentucky,,true,5,17761999,12,4,1,0,2013/1/1,,,0,1,0,0,0,4.00,432,ebook,,0,0,David Millie,,,,,,5,0,2,
17762501,097789715X,35 Miles from Shore: The Ditching and Rescue of Alm Flight 980,9780977897155,,,,ES,2008/4/1,Odyssey Publications,,true,8,3000055,1616,1411,367,38,2008/1/1,35 Miles from Shore: The Ditching and Rescue of ALM Flight 980,book,97,142,106,18,4,3.84,,ebook,,0,0,Emilio Corsetti III,,,,,,969,12,132,"amazon,american-history,autobiography,contemporary,history,non-fiction,survival,tragedy"
17763001,1101016485,Growing Up on the Spectrum,9781101016480,,,,ES,2009/3/19,Viking Books,,true,7,4975034,285,334,86,15,2009/1/1,"Growing Up on the Spectrum: A Guide to Life, Love, and Learning for Teens and Young Adults with Autism and Asperger's",book,27,33,18,5,3,3.88,320,ebook,,0,0,Claire LaZebnik,,,,,,122,4,12,"education,health,lgbt,medical,non-fiction,parenting,psychology,science,young-adult"
17763501,1101047364,The Duck That Won the Lottery,9781101047361,,,,ES,2009/4/28,Plume Books,,true,11,4679185,1299,1334,382,52,2007/11/8,The Duck That Won the Lottery: and 99 Other Bad Arguments: And 99 Other Bad Arguments,book,61,137,129,39,16,3.49,336,ebook,,0,0,Julian Baggini,,,,,,730,6,68,"leadership,non-fiction,philosophy,politics,reference,teaching"
17764001,110107986X,Killer Summer,9781101079867,,,,ES,2009/6/30,Penguin Adult,,true,31,6564242,2484,5405,1449,155,2009/6/1,Killer Summer,book,277,604,487,62,19,3.73,384,ebook,,0,0,Ridley Pearson,,,,,,539,10,26,"adult,detective,fiction,literature,mystery,mystery-thriller,suspense,thriller"
17764501,1101109661,"Think Big, ACT Small",9781101109663,,,,ES,2005/5/5,Portfolio,,true,13,897844,614,870,230,19,2005/1/1,"Think Big, Act Small: How America's Best Performing Companies Keep the Start-up Spirit Alive",book,57,85,71,15,2,3.78,288,ebook,,0,0,Jason Jennings,,,,,,269,10,36,"business,leadership,non-fiction,reference"
17765001,1118597044,Probabilistic Search for Tracking Targets: Theory and Modern Applications,9781118597040,,,,ES,2013/3/25,Wiley,,true,2,17765001,0,0,0,0,2013/7/1,,,0,0,0,0,0,0.00,352,ebook,,0,0,Eugene Kagan,,,,,,,0,,
17765501,1136465766,Toward a Scientific Practice of Science Education,9781136465765,,,,ES,2013/4/3,Routledge,,true,7,18978071,2,0,0,0,1990/7/1,,,0,0,0,0,0,0.00,368,ebook,,0,0,,,,"Frederick Reif,James G. Greeno,Marjorie Gardner",,,2,0,,
17766001,1283921995,Health Policy in the Market State,9781283921992,,,,ES,2014/5/9,Allen & Unwin Academic,,true,2,17766001,0,0,0,0,1999/2/1,,,0,0,0,0,0,0.00,365,ebook,,0,0,Linda Hancock,,,,,,,0,,
17766501,1283929031,How Inflation Affects You,9781283929035,,,,ES,2012/12/28,Rosen Young Adult,,true,2,17766501,0,0,0,0,2012/12/15,,,0,0,0,0,0,0.00,82,ebook,,0,0,Terry Teague Meyer,,,,,,,0,,
17767001,1283941899,International Entrepreneurship: The Effect of Firm Age on Motives for Internationalization,9781283941891,,,,ES,2014/5/19,Routledge,,true,6,18635853,0,0,0,0,2013/1/1,,,0,0,0,0,0,0.00,255,ebook,,0,0,Candida G. Brush,,,,,,,0,,
17767501,1283947242,Fables and the Art of Leadership: Applying the Wisdom of Mister Rogers to the Workplace,9781283947244,,,,ES,2013/1/9,Palgrave MacMillan,eng,true,2,17767501,12,11,3,1,2012/1/1,,book,0,2,1,0,0,3.67,221,ebook,,3,1,"Donna Mitroff,Ian I. Mitroff",,,,,,8,0,,
17768001,1283953234,Rosen,9781283953238,,,,ES,2014/5/9,Parkstone Press,,true,5,17768001,0,0,0,0,2011/7/1,,,0,0,0,0,0,0.00,256,ebook,,0,0,Victoria Charles,,,,,,,0,,
17768501,1283959291,Edward Hopper,9781283959292,,,,ES,2014/5/9,Parkstone Press,,true,23,2396919,53,100,29,3,2007/4/1,Edward Hopper (Temporis Collection),,3,13,7,6,0,3.45,200,ebook,,0,0,Gerry Souter,,,,,,16,4,1,"adult,art,non-fiction"
17769001,1283965070,"Japanese Labour and Management in Transition: Diversity, Flexibility and Participation",9781283965071,,,,ES,2014/5/19,Routledge,,true,7,17509440,1,5,1,1,1997/3/13,,,1,0,0,0,0,5.00,365,ebook,,0,0,,,,"Hiroko Sato,Mari Sako",,,,0,,
17769501,1283970546,"Engendering Mayan History: Kaqchikel Women as Agents and Conduits of the Past 1875-1970: Kaqchikel Women as Agents and Conduits of the Past, 1875-1970",9781283970549,,,,ES,2014/5/10,Routledge,,true,7,4508972,5,7,2,0,2005/1/1,,,0,1,1,0,0,3.50,345,ebook,,0,0,David Carey Jr.,,,,,,3,0,,
17770001,1283976129,"How Difficult It Is to Be God: Shining Path S Politics of War in Peru, 1980 1999",9781283976121,,,,ES,2013/1/23,University of Wisconsin Press,,true,6,12659293,107,131,35,2,2011/1/1,,book,9,13,10,1,2,3.74,274,ebook,,0,0,Carlos Iván Degregori,,,Steve J. Stern,,,42,0,10,"anthropology,history"
17770501,1283983796,Andy Roddick,9781283983792,,,,ES,2013/1/25,Rourke Educational Media,,true,3,1522546,1,0,0,0,2004/1/7,"Andy Roddick: Discover the LIfe of a Sports Star II (Armentrout, David, Discover the Life of a Sports Star II)",,0,0,0,0,0,0.00,28,ebook,,0,0,David Armentrout,,,,,,1,0,,
17771001,1283988933,What Does Green Mean?,9781283988933,,,,ES,2013/1/26,Rourke Educational Media,,true,5,14587782,6,4,1,0,2011/8/1,,book,0,1,0,0,0,4.00,28,ebook,,0,0,Barbara L. Webb,,,,,,2,0,,
17771501,1283993996,Business Strategies and Approaches for Effective Engineering Management,9781283993999,,,,ES,2013/8/2,Business Science Reference,,true,4,17771501,3,4,1,0,2013/3/31,,,0,1,0,0,0,4.00,370,ebook,,1,0,,,,"Mohammad Khan,Saqib Saeed",,,1,0,,
17772001,129905501X,Friedrich Engels,9781299055018,,,,ES,2014/4/6,Routledge,,true,7,2183467,5,1,1,0,1976/4/22,Freidrich Engels,,0,0,0,0,1,1.00,468,ebook,,0,0,W.O. Henderson,,,,,,2,0,1,
17772501,1299135137,Stockton to Malone: The Rise of the Utah Jazz,9781299135130,,,,ES,2014/5/9,Taylor Trade Publishing,,true,4,2325115,68,126,32,3,1998/1/1,Stockton to Malone: The Rise of the Utah Jazz,,13,7,9,3,0,3.94,96,ebook,,0,0,Roland Lazenby,,,,,,31,0,3,"autobiography,non-fiction,sports"
17773001,129914151X,How to Think about Law School: A Handbook for Undergraduates and Their Parents,9781299141513,,,,ES,2013/5/1,R & L Education,,true,4,20408857,9,11,3,0,2013/2/1,,,1,1,0,1,0,3.67,155,ebook,,1,0,Michael R. Dillon,,,,,,3,1,1,
17773501,1402280300,The Naked Roommate: And 107 Other Issues You Might Run Into in College,9781402280306,,,,ES,2013/4/23,Sourcebooks,,true,28,236679,1688,2837,756,82,2005/1/1,The Naked Roommate: And 107 Other Issues You Might Run Into in College,,202,258,222,55,19,3.75,560,ebook,,0,0,Harlan Cohen,,,,,,552,13,104,"college,education,high-school,humor,non-fiction,self-help,short-stories,young-adult"
17774001,1429510854,Through the Grinder,9781429510851,,,,ES,2007/2/1,Berkley Prime Crime,,true,13,518714,10589,25664,6625,509,2004/10/5,,book,1839,2572,1830,307,77,3.87,288,ebook,,0,0,Cleo Coyle,,,,,,2084,63,132,"adult,adult-fiction,chick-lit,contemporary,cooking,cozy-mystery,crime,detective,fiction,food,murder-mystery,mystery,mystery-thriller,romance,suspense,thriller"
17774501,1429547111,The Awakening,9781429547116,,,,ES,2007/10/2,Berkley,,true,8,1708122,1622,2976,815,89,2007/10/2,"Servant: The Awakening (Servant Series, #1)",book,212,273,218,58,54,3.65,304,ebook,,0,0,L.L. Foster,,,,,,551,13,7,"contemporary,crime,demons,fantasy,fiction,horror,paranormal,romance,supernatural,suspense,urban-fantasy"
17775001,1429588551,Wood,9781429588553,,,,ES,2007/11/27,Penguin Books,,true,1,17775001,0,0,0,0,2007/11/27,,,0,0,0,0,0,0.00,496,ebook,,0,0,Harvey Green,,,,,,,0,,
17775501,1436219310,The New Breed,9781436219310,,,,ES,1988/7/1,Jove Books,,true,3,214714,3986,11442,2716,40,1987/9/2,The New Breed,book,1174,1018,461,54,9,4.21,384,ebook,,0,0,W.E.B. Griffin,,,,,,460,7,98,"action,adult-fiction,adventure,fantasy,fiction,historical,historical-fiction,history,leadership,novels,science,thriller,war"
17776001,1436245435,Murder in Amsterdam,9781436245432,,,,ES,2007/8/28,Penguin Books,eng,true,22,9950,2535,4721,1270,131,2006/1/1,Murder in Amsterdam: The Death of Theo van Gogh and the Limits of Tolerance,book,228,568,380,75,19,3.72,288,ebook,,0,0,Ian Buruma,,,,,,923,11,54,"art,college,crime,fiction,grad-school,history,non-fiction,politics,religion,school,society,sociology,true-crime,war"
17776501,1436278546,The Van,9781436278546,,,,ES,1993/8/1,Penguin Books,,true,36,42701,8436,23720,6023,198,1991/1/1,The Van,book,1621,2707,1443,206,46,3.94,320,ebook,,0,0,Roddy Doyle,,,,,,1269,15,38,"adult,adult-fiction,classics,comedy,contemporary,drama,family,fiction,funny,graphic-novels,humor,literary-fiction,literature,modern,novels,realistic-fiction,unfinished"
17777001,1440609675,Airs Beneath the Moon,9781440609671,,,,ES,2006/12/26,Ace Books,,true,7,717977,937,1637,452,46,2006/12/26,Airs Beneath the Moon,book,103,155,130,48,16,3.62,336,ebook,,0,0,Toby Bishop,,,,,,390,13,4,"adult,animals,epic,epic-fantasy,fantasy,fiction,high-fantasy,historical-fiction,magic,teen,young-adult"
17777501,1440663920,King John,9781440663925,,,,ES,2000/8/1,Penguin Books,,true,473,82365,7825,11067,3359,316,1595/1/1,The Life and Death of King John,book,444,861,1410,529,115,3.29,384,ebook,,0,0,William Shakespeare,,,,,,3311,50,77,"british-literature,classic-literature,classics,drama,english-literature,fiction,france,historical,historical-fiction,history,literature,medieval,plays,poetry,politics,school,theatre,war"
17778001,1444174371,Political Philosophy: All That Matters,9781444174373,,,,ES,2012/11/30,Teach Yourself,,false,4,17778001,51,83,22,1,2012/11/30,,,4,9,9,0,0,3.77,160,Paperback,,20,1,Johanna Oksala,,,,,,18,0,3,"non-fiction,philosophy,politics"
17778501,1459719387,Hostile Seas: A Mission in Pirate Waters,9781459719385,,,,ES,2013/9/23,Dundurn,eng,true,5,17721230,199,59,14,5,2013/1/1,,book,6,5,3,0,0,4.21,272,ebook,,0,0,J.L. Savidge,,,,,,182,1,2,"biography,non-fiction"
17779001,1469245183,Tomorrow's Promise,9781469245188,,,,ES,2013/10/1,Brilliance Audio,,false,9,30384,6095,9551,2584,95,1983/1/1,Tomorrow's Promise,book,708,760,798,259,59,3.70,,Audio CD,,0,0,Sandra Brown,,,,,,1045,15,1253,"adult,chick-lit,contemporary,drama,fiction,harlequin,historical,politics,romance"
17779501,1477242228,African Parents Must Know: Child Protection and Welfare Issues in the United Kingdom,9781477242223,,,,ES,2013/4/4,Authorhouse,,true,3,17779500,1,0,0,0,2013/4/4,,,0,0,0,0,0,0.00,,ebook,,0,0,Kemi Williams,,,,,,1,0,,
17780001,1481735616,And Then the End Will Come!: (But Five Things You Need to Know in the Meantime),9781481735612,,,,ES,2013/4/1,Authorhouse,,true,4,17741483,140,71,16,6,2013/4/1,,book,10,3,3,0,0,4.44,,ebook,,0,0,Brandon Andress,,,,,,120,2,,"christian,funny,non-fiction,religion,self-help,survival,theology"
17780501,1550925261,Supply Shock: Economic Growth at the Crossroads and the Steady State Solution,9781550925265,,,,ES,2013/4/26,New Society Publishers,,true,4,16057534,192,208,53,14,2013/1/1,,,17,20,12,3,1,3.92,384,ebook,,0,0,Brian Czech,,,,,,115,3,12,"academic,business,economics,history,non-fiction"
17781001,1581124767,Awakening Women's Orgasm: A Guide for Women and Their Lovers,9781581124767,,,,ES,2005/3/15,Universal Publishers,,true,2,9864767,1,5,1,0,2005/3/1,,,1,0,0,0,0,5.00,,ebook,,0,0,"Al Link,Pala Copeland",,,,,,1,0,,
17781501,1588248275,"That's Hard, That's Easy",9781588248275,,,,ES,2001/3/1,Ipicturebooks,,true,9,4664060,19,19,8,1,1998/4/1,"That'S Hard, That'S Easy (Real Kids Readers, Level 2)",,0,1,2,4,1,2.38,,ebook,,0,0,Margery Bernstein,,,,,,1,5,,
17782001,1589292448,Taiamoora,9781589292444,,,,ES,2002/6/1,PocketPCpress,,true,2,6290942,2,3,1,0,2000/9/21,Taiamoora,book,0,0,1,0,0,3.00,300,ebook,,0,0,Chandra Clarke,,,,,,,0,,
17782501,1595951024,Aquarium of the Pacific: Long Beach's New Civic Attraction,9781595951021,,,,ES,2004/6/9,Francis Hamit Electronic Publishing,,true,2,16406420,0,0,0,0,2004/3/1,,,0,0,0,0,0,0.00,,ebook,,0,0,Francis Hamit,,,,,,,0,,
17783001,1603704493,And the Two Shall Become One,9781603704496,,,,ES,2008/8/13,Torquere Press,,true,6,4322077,454,805,201,15,2008/8/1,"And the Two Shall Become One (Legends of the Romanorum, #2)",book,75,69,43,11,3,4.00,,ebook,,1,0,"Mychael Black,Shayne Carmichael",,,,,,190,20,5,"angels,contemporary,demons,erotica,fantasy,gay,magic,paranormal,romance,supernatural,urban-fantasy,vampires"
17783501,1617839647,Christopher Columbus (Great Explorers),9781617839641,,,,ES,2013/9/1,ABDO & Daughters,,false,3,17783501,4,8,2,0,2013/1/1,,book,1,0,1,0,0,4.00,32,Hardcover,,2,0,Jim Ollhoff,,,,,,,1,,
17784001,1843500299,The Provost,9781843500292,,,,ES,2002/6/28,Soft Editions,,true,45,4946777,103,65,23,4,1822/1/1,The Provost,book,2,3,9,7,2,2.83,,ebook,,0,0,John Galt,,,,,,59,4,4,"classics,drama,fiction,literature,unfinished"
17784501,1930815352,Gojiro,9781930815353,,,,ES,2000/10/1,Electricstory.com,,true,6,939965,226,245,76,10,1991/1/1,Gojiro,book,6,29,23,12,6,3.22,,ebook,,0,0,Mark Jacobson,,,,,,104,3,5,"fantasy,fiction,horror,humor,novels,science-fiction,speculative-fiction"
17785001,3527673768,Effektiver Lernen F�r Dummies,9783527673766,,,,ES,2013/3/29,Wiley-Vch,,true,6,17851016,12,19,5,0,2013/2/1,,book,0,4,1,0,0,3.80,328,ebook,,0,0,Birgit Ebbert,,,,,,2,1,2,non-fiction
17785501,7214088231,Gravity: Sales Center Design. 6,9787214088239,,,,ES,2012/11/1,Cepiec,,false,1,17785501,0,0,0,0,2012/11/1,,,0,0,0,0,0,0.00,336,Hardcover,,0,0,,,,"Huang Ying,Ma Yong",,,,0,,
17786001,1452112584,"1, 2, 3 Quilt: Shape Up Your Skills with 24 Stylish Projects",9781452112589,,,,ES,2013/9/10,Chronicle Books,,false,3,17786001,85,101,28,5,2013/9/10,,,4,11,11,2,0,3.61,168,Paperback,,22,5,Ellen Luckett Baker,,,,,,22,1,11,non-fiction
17786501,,Auf der Suche nach dem verlorenen Sohn,9783498053048,,,,ES,2006/1/1,Rowolth,ger,false,2,17786501,6,15,4,0,2006/1/1,,book,0,3,1,0,0,3.75,158,Hardcover,,3,0,"Inge Jens,Walter Jens",,,,,,2,0,,
17787001,,Passion's Trust (Pleasure Brigade #4),,,,,ES,2013/4/3,Ellora's Cave,,true,3,17787001,48,66,16,3,2013/4/3,,book,6,6,4,0,0,4.12,,ebook,,13,3,Cara Carnes,,,,,,29,2,,erotica
17787501,,"Reunion (TheGod Hunters, #2)",9781623804800,,,,ES,2013/5/6,Dreamspinner Press,eng,false,3,17787498,46,33,9,2,2013/5/5,,book,2,4,2,0,1,3.67,344,Paperback,,0,0,Mark     Reed,,,,,,9,2,,"paranormal,supernatural"
17788001,,El collar del neandertal,9788499981154,,,,ES,2012/6/6,Temas de hoy,spa,false,17,763902,395,657,178,27,1999/5/1,El collar del Neandertal. En busca de los primeros pensadores,book,34,69,63,10,2,3.69,320,Paperback,,2,1,Juan Luis Arsuaga,,,,,,162,9,5,"anthropology,education,history,non-fiction,philosophy,science"
17788501,,চলচ্চিত্রযাত্রা,9789843338860,,,,ES,2012/2/1,প্রথমা প্রকাশন,ben,false,1,17788501,82,111,29,5,2012/2/1,চলচ্চিত্রযাত্রা,book,6,14,8,0,1,3.83,176,Hardcover,1st Edition,29,5,Tareque Masud,,,,,,38,3,4,"autobiography,biography,non-fiction"
17789001,9844371333,রবোনগরী,,,,,ES,1997/6/1,কাকলী প্রকাশনী ,ben,false,1,17789001,578,1220,342,3,1997/6/1,,book,61,113,132,31,5,3.57,88,Hardcover,,342,3,Muhammed Zafar Iqbal,,,,,,32,2,1,"aliens,fiction,science-fiction,short-stories"
17790001,,A vida e a alma dos animais,978857353475,,,,ES,2010/1/1,EME,por,false,1,17790001,1,3,1,0,2010/1/1,,book,0,0,1,0,0,3.00,160,Paperback,1,1,0,Celso Martins,,,,,,,0,,
17790501,,Tako☆yaki Princess,,,,,ES,2011/1/26,M&C!,ind,false,3,7701542,292,420,104,6,2008/1/1,たこ☆やきプリンセス,book,57,17,13,11,6,4.04,,Paperback,,4,3,Rino Mizuho,,,,,,190,1,9,"collections,manga,romance"
17791001,,Fünf Freunde Drei Diebesbanden im Visier (Sammelband 10),9783809428220,,,,ES,2012/1/1,Bassermann Verlag,ger,false,1,17791001,15,33,8,0,1971/1/1,,book,3,3,2,0,0,4.12,463,Hardcover,,8,0,Claude Voilier,,,,,,1,0,,
17791501,,Друзья боевого мага (Лукоморье 5),,,,,ES,,,rus,false,1,17791501,12,33,10,0,,,book,1,3,4,2,0,3.30,300,,,10,0,Сергей Бадей,,,,,,1,0,,
17792001,0074502786,Eletrônica: dispositivos e circuitos,,,,,ES,1981/1/1,McGraw-Hill,por,false,1,17792001,7,9,3,0,1981/1/1,,book,1,0,0,2,0,3.00,412,Paperback,1,3,0,"Christos C. Halkias,Jacob Millman",,,,,,3,0,,
17792501,8494027816,Puntos de experiencia,9788494027819,,,,ES,2012/11/14,Dibbuks,spa,false,1,17792501,24,51,17,3,2012/11/14,,book,1,5,5,5,1,3.00,96,Hardcover,,17,3,,Pere Mejan,,,,,4,0,,comics
17793001,,"Geheimcode Katzenpfote(Sherlock Holmes Academy,)",,,,,ES,,,ger,false,1,17793001,3,14,3,0,,,book,2,1,0,0,0,4.67,,,,3,0,Holly Watson,,,,,,,0,,
17793501,,Insights of an Outsider,,,,,ES,1972/1/1,,eng,false,1,17793501,1,0,0,0,1972/1/1,,book,0,0,0,0,0,0.00,100,,,0,0,Benjamin Lichtenberg,,,,,,1,0,,
17794001,1780170815,Enterprise Content Management: A Business and Technical Guide,9781780170817,,,,ES,2011/5/16,"BCS, The Chartered Institute for IT",,true,4,12481544,18,28,7,0,2011/1/1,,,2,3,2,0,0,4.00,172,ebook,,0,0,Stephen A. Cameron,,,,,,7,1,,
17794501,1626020256,The Beard,9781626020252,,,,ES,2013/3/22,Beginnings Press,eng,true,2,17794501,144,342,98,14,2013/3/22,,book,17,32,34,12,3,3.49,78,Kindle Edition,,97,14,Anne Eton,,,,,,35,8,,"adult,chick-lit,comedy,contemporary,erotica,funny,gay,lgbt,novella,politics,romance,unfinished"
17795001,,Swimming and Flying,,B00BS7MP1G,,,ES,2013/3/11,Mark Haddon,eng,true,1,17795001,108,150,41,4,2013/3/11,Swimming and Flying,book,12,9,15,4,1,3.66,24,Kindle Edition,,41,4,Mark Haddon,,,,,,62,0,1,"biography,non-fiction"
17795501,,Družba Isusova,,,,,ES,1988/1/1,Znanje,scr,false,6,12773328,78,170,44,4,1969/1/1,Tovaryšstvo Ježíšovo,book,14,16,10,2,2,3.86,380,Paperback,Biblioteka EvergriN,2,0,Jiří Šotola,,,,,,23,0,,historical-fiction
17796001,1441796991,"The Hermit of Eyton Forest (Chronicles of Brother Cadfael, #14)",9781441796998,,,,ES,2004/11/9,"Blackstone Audio, Inc.",eng,false,53,131697,6765,16354,4031,174,1987/1/1,The Hermit of Eyton Forest  ,book,1319,1762,835,91,24,4.06,8,Audiobook,,8,3,Ellis Peters,,,,,Roe Kendall,1309,24,430,"british-literature,cozy-mystery,crime,detective,fiction,historical,historical-fiction,history,medieval,murder-mystery,mystery,mystery-thriller,novels,thriller"
17796501,,"Animal Daddies and My Daddy (A Little Golden Book, #576)",,,,,ES,1976/1/1,"Western Publishing Company, Inc.",,false,4,2313330,93,162,43,2,1968/1/1,Animal Daddies and My Daddy (A Little Golden Book),book,13,14,10,5,1,3.77,,Hardcover,,3,1,Barbara Shook Hazen,Ilse-Margret Vogel,,,,,16,3,,"childrens,family,fiction,juvenile,picture-books"
17797001,,Andersen Stories (Pleasure Reading Series),,,,,ES,1996/1/1,Garrard Publishing Company,eng,false,2,17797001,7,15,4,0,1996/1/1,Andersen Stories,book,1,1,2,0,0,3.75,165,Hardcover,,4,0,Edward W. Dolch,,,,,,1,0,,
17797501,,The Classic Buses,,,,,ES,1990/1/1,Fraser Stewart Book Wholesale Ltd.,eng,false,1,17797501,0,0,0,0,1990/1/1,,book,0,0,0,0,0,0.00,121,Hardcover,,0,0,Gavin Booth,,,,,,,0,,
17798001,,Sky Lift,,,,,ES,1953/1/1,,eng,false,2,17798001,124,157,44,4,1953/1/1,,book,11,12,12,9,0,3.57,,,,44,4,Robert A. Heinlein,,,,,,55,13,,science-fiction
17798501,8477954739,Las mujeres en la prehistoria,9788477954736,,,,ES,2008/1/1,Diputació de València / Museu de Prehistòria de València,spa,false,2,17798501,3,0,0,0,2006/6/1,Les dones en la prehistòria,book,0,0,0,0,0,0.00,165,Paperback,1st edition,0,0,Yolanda Aixelà Cabré,,,,,,1,1,,"art,history"
17799001,3737056307,Stars Over Sarawak,,,,,ES,1974/1/1,Harlequin,,false,3,8085528,60,65,22,7,1974/1/1,Stars Over Sarawak,book,1,6,8,5,2,2.95,186,Paperback,,1,0,Anne Hampson,,,,,,26,0,,"harlequin,romance"
17799501,1442317639,Pimsleur Chinese (Cantonese) Level 1 Lesson 29 MP3: Learn to Speak and Understand Cantonese Chinese with Pimsleur Language Programs,9781442317635,,,,ES,2011/2/1,Pimsleur,,false,1,17799501,0,0,0,0,,,,0,0,0,0,0,0.00,,Audiobook,,0,0,Pimsleur Language Programs,,,,,,,0,,
17800001,1442322179,Pimsleur Ojibwe Level 1 Lesson 17 MP3: Learn to Speak and Understand Ojibwe with Pimsleur Language Programs,9781442322172,,,,ES,2011/2/1,Pimsleur,,false,1,17800001,0,0,0,0,2011/2/1,,,0,0,0,0,0,0.00,,Audiobook,,0,0,Pimsleur Language Programs,,,,,,,0,,
17800501,,"Querido, estás morto",9781301066803,,,,ES,2013/4/15,João Dias Martins,por,true,2,29092393,18,21,8,1,2013/4/15,,book,0,1,4,2,1,2.62,13,ebook,,7,1,João Dias Martins,,,,,,3,1,3,"fiction,short-stories"
17801001,,River of Bones,,B00CC481S0,,,ES,2013/4/12,Endeavour Press,en-GB,true,2,33359144,645,135,38,21,2013/4/12,River of Bones,book,10,13,5,8,2,3.55,109,Kindle Edition,1,33,18,Jodi Cleghorn,,,,,,-45,3,,"adult,contemporary,fiction,horror"
17801501,,Moord op Huilwater,9789089530509,,,,ES,,Ailantus,nl,false,14,21817562,724,1233,329,42,2009/1/1,Plaasmoord,book,72,139,89,21,8,3.75,484,Paperback,,8,0,Karin Brynard,,,,,,277,6,34,"crime,fiction,historical-fiction,mystery"
17802001,0785830642,"The Tai Chi Healing Bible: Improve Your Energy, Coordination and Effectiveness by Embracing the Movements, Culture and Philosophy of this Ancient Practice",9780785830641,,,,ES,2014/1/20,Chartwell Books,,false,2,17802001,15,16,5,2,2014/1/1,,,0,1,4,0,0,3.20,224,Spiral-bound,,3,1,Eric Chaline,,,,,,7,0,1,
17802501,1782431551,The Inn at the Top: Life at the Highest Inn in Great Britain,9781782431558,,,,ES,2013/12/1,Michael O'Mara,,false,3,17802501,499,1080,301,20,2013/9/24,,book,77,91,80,38,15,3.59,256,Paperback,,110,18,Neil Hanson,,,,,,103,4,24,"biography,biography-memoir,memoir,non-fiction"
17803001,0300196679,"Robert Morris: Object Sculpture, 1960-1965",9780300196672,,,,ES,2014/1/28,Yale University Press,,false,1,17803001,4,2,1,0,2014/1/28,,,0,0,0,1,0,2.00,320,Hardcover,,1,0,Jeffrey Weiss,,,,,,3,0,,art
17803501,041582267X,Debt and Credit in Global Capitalism: Forging Spaces of Debtfare and Dispossession,9780415822671,,,,ES,2013/11/11,Routledge,,false,2,17803500,7,4,1,0,2013/11/11,,,0,1,0,0,0,4.00,240,Paperback,,1,0,Susanne Soederberg,,,,,,6,0,,
17804001,0495822418,Oncologic Emergencies: Sepsis (DVD),9780495822417,,,,ES,2007/1/1,Cengage Learning,,true,2,17804000,0,0,0,0,2007/1/1,,,0,0,0,0,0,0.00,,ebook,,0,0,"Media Concept,Media Concept",,,,,,,0,,
17804501,0735669902,Microsoft SQL Server 2012 Integration Services,9780735669901,,,,ES,2012/8/29,Microsoft Press,,true,7,13588594,30,37,8,2,2012/7/22,,,6,1,1,0,0,4.62,668,ebook,,0,0,"Kaarthik Sivashanmugam,Matt Masson,Rakesh Parida,Wee-Hyong Tok,Xiaoning Ding",,,,,,15,1,,"amazon,technology"
17805001,0826107133,Fast Facts for the Faith Community Nurse,9780826107138,,,,ES,2011/6/20,Springer Publishing Company,,true,1,17805001,0,0,0,0,2011/6/20,,,0,0,0,0,0,0.00,224,ebook,,0,0,Janet Susan Hickman,,,,,,,0,,
17805501,110703938X,Epic Visions: Visuality in Greek and Latin Epic and Its Reception,9781107039384,,,,ES,2013/8/15,Cambridge University Press,,false,3,17805501,1,0,0,0,2013/7/31,,,0,0,0,0,0,0.00,344,Hardcover,,0,0,,,,"Caroline Vout,Helen Lovatt",,,1,0,,
17806001,129915672X,The Politics of Exile,9781299156722,,,,ES,2013/2/20,Routledge,,true,8,16685221,160,439,97,8,2012/12/1,,,57,34,6,0,0,4.53,219,ebook,,0,0,Elizabeth Dauphinee,,,,,,47,2,,"fiction,historical-fiction,history,non-fiction,novels,philosophy,war"
17806501,1299184952,Vladimir Jankelevitch and the Question of Forgiveness,9781299184954,,,,ES,2013/3/15,Lexington Books,,true,3,16270357,3,8,2,0,2013/1/16,,,1,0,1,0,0,4.00,253,ebook,,0,0,,,,Alan Udoff,,,1,0,,
17807001,1299190448,"Beroepsbekering: Konfrontasie, Krisis En Kentering!",9781299190443,,,,ES,2014/5/9,Knowres Publishing,,true,1,17807001,0,0,0,0,2007/6/30,,,0,0,0,0,0,0.00,216,ebook,,0,0,Johann Coetzee,,,,,,,0,,
17807501,1299196225,Photon-Atom Interactions,9781299196223,,,,ES,1989/1/1,Academic Press,,true,3,2129526,4,9,2,0,1989/1/1,Photon-Atom Interactions,,1,1,0,0,0,4.50,422,ebook,,0,0,Mitchel Weissbluth,,,,,,2,0,,
17808001,1299222838,The Spike Jonze Handbook - Everything You Need to Know about Spike Jonze,9781299222830,,,,ES,2013/1/1,Emereo Publishing,,true,3,17469872,1,0,0,0,2013/2/22,,,0,0,0,0,0,0.00,466,ebook,,0,0,Emily   Smith,,,,,,1,0,,
17808501,1299261981,Screening the Dark Side of Love: From Euro-Horror to American Cinema,9781299261983,,,,ES,2013/3/7,Palgrave MacMillan,,true,5,13695873,11,11,3,0,2012/10/16,,,0,2,1,0,0,3.67,283,ebook,,0,0,,,,"Karen A. Ritzenhoff,Karen Randell",,,5,-1,2,non-fiction
17809001,1299277284,Business and Scientific Workflows: A Web Service-Oriented Approach,9781299277281,,,,ES,2013/7/18,Wiley-IEEE Press,,true,1,17809001,0,0,0,0,2013/3/1,,,0,0,0,0,0,0.00,272,ebook,,0,0,"Mengchu Zhou,Wei Tan",,,,,,,0,,
17809501,1299284310,"Control & Dynamic Systems, Volume 22: Advances in Theory and Applications",9781299284319,,,,ES,2014/5/9,Academic Press,,true,1,17809501,0,0,0,0,1985/1/1,,book,0,0,0,0,0,0.00,419,ebook,,0,0,,,,Cornelius T. Leondes,,,,0,,
17810001,1299304214,Krankheit: Lernen Im Ausnahmezustand?: Brustkrebs Und Herzinfarkt Aus Interdisziplinarer Perspektive. Mit Online-Material Fur Fachleute,9781299304215,,,,ES,2014/6/15,Springer,,true,1,17810001,0,0,0,0,2013/1/1,,,0,0,0,0,0,0.00,575,ebook,,0,0,"Astrid Seltrecht,Dieter Nittel",,,,,,,0,,
17810501,1299313973,How to Assess Students and Trainees in Medicine and Health,9781299313972,,,,ES,2013/5/20,Wiley-Blackwell,,true,5,20234247,0,0,0,0,2013/3/7,,,0,0,0,0,0,0.00,225,ebook,,0,0,,,,"Ann Griffin,Frank C. Hay,Olwyn M.R. Westwood",,,,0,,
17811001,1299335586,Common Musculoskeletal Problems: A Handbook,9781299335585,,,,ES,2014/5/10,Springer New York,,true,6,9076247,1,0,0,1,2010/1/1,,book,0,0,0,0,0,0.00,159,ebook,,0,0,"James M. Daniels,M Rebecca Hoffman",,,,,,,0,,
17811501,1299358756,The Milkmaid of Montfermeil (Novels of Paul de Kock Volume XX),9781299358751,,,,ES,2013/1/1,Emereo Publishing,eng,true,8,21063527,1,0,0,0,2011/10/1,,,0,0,0,0,0,0.00,153,ebook,The Original Classic Edition,0,0,Paul de Kock,,,,,,1,0,,
17812001,1299364454,Chemical Methods of Rock Analysis,9781299364455,,,,ES,2012/1/1,Butterworth-Heinemann,,true,2,17812001,0,0,0,0,1981/6/29,,,0,0,0,0,0,0.00,396,ebook,,0,0,"D. Hutchison,P.G. Jeffrey",,,,,,,0,,
17812501,1299396844,Race and Racism: An Introduction,9781299396845,,,,ES,2014/5/10,Altamira Press,,true,9,1136590,7,12,3,1,2005/12/8,Race and Racism: An Introduction,,0,3,0,0,0,4.00,290,ebook,,0,0,Carolyn Fluehr-Lobban,,,,,,1,1,,
17813001,1299404243,Number Theory and Dynamical Systems,9781299404243,,,,ES,2014/5/10,Cambridge University Press,,true,4,3870171,0,0,0,0,1989/11/9,Number Theory and Dynamical Systems (London Mathematical Society Lecture Note Series),,0,0,0,0,0,0.00,,ebook,,0,0,"J.A.G. Vickers,M.M. Dodson",,,,,,,0,,
17813501,1299409903,Classroom-Based Assessment in the School Foreign Language Classroom,9781299409903,,,,ES,2012/1/1,Peter Lang Publishing,,true,3,17813501,0,0,0,0,2012/8/13,,,0,0,0,0,0,0.00,236,ebook,,0,0,Kathryn Hill,,,,,,,0,,
17814001,1300666595,Iconospheres,9781300666592,,,,ES,2013/2/28,Lulu.com,eng,false,1,17814001,1,0,0,0,2013/2/28,,book,0,0,0,0,0,0.00,38,Paperback,,0,0,Dan  Lewis,,,,,,1,0,,
17814501,1426717679,Sanctuary: Unexpected Places Where God Found Me,9781426717673,,,,ES,2010/8/1,Dimensions for Living,,true,4,198845,104,146,34,3,2005/9/15,Sanctuary: Unexpected Places Where God Found Me,,15,14,5,0,0,4.29,,ebook,,0,0,Becca Stevens,,,,,,63,1,1,"autobiography,faith,memoir,non-fiction,religion,spirituality"
17815001,1447145216,Macleod's Introduction to Medicine: A Doctor's Memoir,9781447145219,,,,ES,2013/8/22,Springer,,false,3,19152955,8,4,1,0,2013/8/20,,,0,1,0,0,0,4.00,213,Paperback,,1,0,Jonathan Waxman,,,,,,6,0,,
17815501,1451155093,A Practical Guide to Dermal Filler Procedures,9781451155099,,,,ES,2012/1/1,Lippincott Williams & Wilkins,,true,6,13197050,36,47,10,1,2011/12/9,,,8,1,1,0,0,4.70,176,ebook,,0,0,"Dalano Hoang,Rebecca Small",,,,,,18,0,6,
17816001,1454830999,"Legal Method and Writing, Seventh Edition",9781454830993,,,,ES,2014/2/14,Aspen Publishers,,false,1,17816001,4,7,2,0,2014/2/3,,,0,1,1,0,0,3.50,656,Paperback,,2,0,Calleros,,,,,,1,0,1,
17816501,1461477859,Neurological Syndromes: A Clinical Guide to Symptoms and Diagnosis,9781461477853,,,,ES,2013/8/3,Springer,,false,4,19894785,2,0,0,0,2013/1/1,,,0,0,0,0,0,0.00,279,Paperback,,0,0,,,,J. Gordon Millichap,,,2,0,,
17817001,1469810395,Psychiatric-Mental Health Nursing,9781469810393,,,,ES,2012/8/1,Lippincott Williams & Wilkins,,true,26,2411979,384,379,96,4,2001/2/15,Psychiatric Mental Health Nursing,,38,28,22,3,5,3.95,530,ebook,,0,0,Sheila L. Videbeck,,,,,,126,1,11,"education,medical,mental-health,non-fiction,science"
17817501,1477707794,Ancient Roman Geography,9781477707791,,,,ES,2013/7/15,PowerKids Press,,false,5,17817501,1,0,0,0,2013/1/1,,,0,0,0,0,0,0.00,24,Hardcover,,0,0,Amelie von Zumbusch,,,,,,,0,,
17818001,1483620018,Kamal the African Warrior: Book One of the Sharman Series,9781483620015,,,,ES,2013/4/11,Xlibris Corporation,,false,2,17818001,0,0,0,0,2013/4/11,,,0,0,0,0,0,0.00,348,Paperback,,0,0,Paul Odiaka,,,,,,,0,,
17818501,1608208613,Murder Book (Boystown #5),9781608208616,,,,ES,2013/4/1,MLR Press,,false,6,24806206,666,1441,318,71,2013/4/4,,book,200,98,12,5,3,4.53,184,Paperback,,93,25,Marshall Thornton,,,,,,101,7,15,"action,contemporary,crime,dark,fiction,gay,historical,historical-fiction,lgbt,mystery,queer,suspense,thriller"
17819001,1625490224,My Father Was a Poet,9781625490223,,,,ES,2013/4/9,Wordtech Communications,,false,1,17819001,2,5,1,0,2013/4/9,,,1,0,0,0,0,5.00,98,Paperback,,1,0,Lester Graves Lennon,,,,,,1,0,,
17819501,1849960445,Developing Multidatabase Mining Applications,9781849960441,,,,ES,2010/1/1,Springer,,true,1,17819501,0,0,0,0,2010/1/1,,,0,0,0,0,0,0.00,129,ebook,,0,0,Animesh Adhikari,,,,,,,0,,
17820001,1484053699,"Second Chance Boyfriend (Drew + Fable, #2)",9781484053690,,,,ES,2013/4/5,CreateSpace Independent Publishing Platform,en-US,false,29,17316075,50885,139480,34386,2112,2013/4/5,Second Chance Boyfriend,book,12734,13105,6708,1427,412,4.06,320,Paperback,1st Edition,19,6,Monica  Murphy,,,,,,2826,281,81,"abuse,adult,chick-lit,college,contemporary,dark,drama,erotica,family,fiction,love,new-adult,realistic-fiction,romance,sports,young-adult"
17820501,,Saving the Fig Tree Till Last:  Diary of an American Adventurer in Southwest France,,,,,ES,2011/9/6,,eng,true,1,17820501,1,0,0,0,2011/8/1,,book,0,0,0,0,0,0.00,390,Kindle Edition,,0,0,Patricia Ann McKinnes,,,,,,,0,,
17821001,1299127908,Culture Shift: Engaging Current Issues with Timeless Truth,9781299127906,,,,ES,2014/6/13,Multnomah Books,,true,12,1968474,949,1449,379,57,2008/1/1,Culture Shift: Engaging Current Issues with Timeless Truth (Today's Critical Concerns),,88,152,126,10,3,3.82,,ebook,,0,0,R. Albert Mohler Jr.,,,,,,394,12,26,"christian,christianity,faith,grad-school,history,non-fiction,personal-development,philosophy,politics,religion,theology"
17821501,1299226876,White Picket Fences,9781299226876,,,,ES,2014/5/10,Waterbrook Press,,true,9,6457680,3066,5478,1499,185,2009/9/25,White Picket Fences,book,278,570,528,101,22,3.65,,ebook,,1,0,Susan Meissner,,,,,,1201,24,53,"adult,adult-fiction,chick-lit,christian,christian-fiction,contemporary,fiction,historical-fiction,mystery,novels"
17822001,1299255949,So Little Time,9781299255944,,,,ES,2014/5/10,Multnomah Books,,true,7,647055,224,286,75,3,2002/3/25,So Little Time (Mail Order Bride Series #9; Large Print Edition),book,26,21,17,10,1,3.81,,ebook,,0,0,"Al Lacy,JoAnna Lacy",,,,,,98,1,3,"adult-fiction,christian,christian-fiction,drama,fiction,historical,historical-fiction,inspirational,romance,young-adult"
17822501,0878396845,Seasons of Raina,9780878396849,,,,ES,2013/6/1,North Star Press of St. Cloud,,false,4,17822501,176,32,9,0,2013/6/1,,,4,1,2,0,2,3.56,267,Paperback,,8,0,Milissa Nelson,,,,,,163,0,,young-adult
17823001,1452569355,Mom's Losing Her Memory I'm Losing My Mind!: Taking Care of Mom and Dad with Memory Decline,9781452569352,,,,ES,2013/4/4,Balboa Press,,false,4,20423682,8,8,2,1,2013/4/4,,,1,0,1,0,0,4.00,252,Hardcover,,1,0,Kathy Jean Stewart,,,,,,5,0,1,
17823501,,Natalie Saurs,,,,,ES,2013/4/8,Createspace,,false,5,23197201,5,15,3,0,2013/2/9,,book,3,0,0,0,0,5.00,340,Paperback,,0,0,Michael Angliss,,,,,,2,0,,
17824001,1618635093,I Am: The Holy Spirit,9781618635099,,,,ES,2013/3/1,Bookstand Publishing,,false,1,17824001,0,0,0,0,2013/3/29,,,0,0,0,0,0,0.00,170,Paperback,,0,0,Word of Hope Ministries,,,,,,,0,,
17824501,8867720228,Approaching the Navel of the Darkened Soul,9788867720224,,,,ES,2013/4/4,IPOC di Pietro Condemi,,false,1,17824501,0,0,0,0,2013/4/4,,,0,0,0,0,0,0.00,188,Paperback,,0,0,Romano Màdera,,,,,,,0,,
17825001,,Das Strategiebuch,9783593393506,,,,ES,,,,false,1,17825001,4,0,0,0,,,book,0,0,0,0,0,0.00,,,,0,0,Rainer Zimmermann,,,,,,3,0,1,
17825501,,The Marriage Alliance,9781618856395,,,,ES,2013/4/16,Secret Craving Publishing ,en-US,true,3,17825501,128,166,39,3,2013/4/16,The Marriage Alliance,book,18,15,4,2,0,4.26,222,Kindle Edition,,18,3,Mageela Troche,,,,,,34,1,22,medieval
17826001,8071854867,Titanic,,,,,ES,1998/1/1,Mladá Fronta,cze,false,2,17826001,53,142,31,0,1998/1/1,,book,21,7,3,0,0,4.58,434,Hardcover,,27,0,Milos Hubacek,,,,,,13,2,3,non-fiction
17826501,,Kulturwissenschaft und Naturwissenschaft,,,,,ES,1926/1/1,,ger,false,1,17826501,7,5,2,0,1899/1/1,Kulturwissenschaft und Naturwissenschaft,book,0,0,1,1,0,2.50,161,Hardcover,,2,0,Heinrich Rickert,,,,,,5,0,,philosophy
17827001,,"AIDP Integral, volumen 1: Las tierras huecas - El alma de Venecia y otras historias - Una plaga de ranas",9788467909937,,,,ES,2012/9/1,Norma Editorial,spa,false,5,9048639,2119,5981,1422,97,2011/1/19,B.P.R.D.: Plague of Frogs 1 ,book,578,599,213,24,8,4.21,408,Hardcover,Integral,40,7,"Guy Davis,Mike Mignola,Ryan Sook",,,,,,406,12,33,"american,comics,contemporary,fantasy,fiction,graphic-novels,graphic-novels-comics,horror,mystery,paranormal,science-fiction,superheroes,supernatural,thriller"
17827501,,Asleep Without Dreaming,,,,,ES,,,,true,6,15838602,781,479,149,34,2012/9/1,,book,22,38,53,22,14,3.21,,Kindle Edition,,0,0,Barbara Forte Abate,,,,,,557,16,29,"adult,amazon,contemporary,crime,fantasy,fiction,mystery,realistic-fiction,romance,young-adult"
17828001,,"13 on Halloween (Shadow, #1)",,,,,ES,,,eng,true,4,12851537,881,544,175,35,2011/9/15,,book,34,31,55,30,25,3.11,429,ebook,,0,0,Laura A.H. Elliott,,,,,,582,19,43,"amazon,fantasy,fiction,horror,middle-grade,mystery,paranormal,romance,young-adult"
17828501,,A Sideways Glance: A Short Romance Story,,,,,ES,,,eng,true,5,9643312,257,331,154,24,2010/10/17,,book,13,15,17,46,63,2.15,127,ebook,,1,0,Amanda Lawrence Auverigne,,,,,,71,14,6,"contemporary,fiction,romance,teen,young-adult"
17829001,,Quando Atravessares o Rio,,,,,ES,,,,false,1,17829001,17,42,11,0,,,book,1,7,3,0,0,3.82,,,,11,0,Ana Teresa Pereira,,,,,,5,0,,
17830001,,"Rebel (The Enclosure Chronicles, #2)",,,,,ES,,,eng,true,1,17830001,324,19,5,1,,,book,3,0,1,0,1,3.80,,ebook,,5,1,Tara Elizabeth,,,,,,306,10,1,"dystopia,fantasy,romance,science-fiction,young-adult"
17830501,,Tue lapsesi lahjakkuutta,9789510395530,,,,ES,2013/4/5,WSOY,fin,false,1,17830501,13,10,4,0,2013/4/5,,book,0,0,2,2,0,2.50,277,Paperback,,4,0,Janne Viljamaa,,,,,,7,0,,"non-fiction,psychology,self-help"
17831001,8467433965,Cuenta atrás a Crisis Infinita: El día de la venganza,9788467433968,,,,ES,2006/12/1,Planeta DeAgostini Comics (DC Comics),spa,false,3,132786,1987,5069,1419,36,2005/11/9,Day of Vengeance,book,329,401,486,159,44,3.57,144,Paperback,Cuenta atrás,2,1,Bill Willingham,,,,,,472,15,,"action,adventure,comics,drama,fantasy,fiction,graphic-novels,graphic-novels-comics,magic,philosophy,superheroes,supernatural,urban-fantasy"
17831501,,"Committed, Episode 4: All Dressed Up",,B00CAWWAS6,,,ES,2013/4/1,NPC Books,en-GB,true,3,17831512,11,3,1,1,2013/4/1,,book,0,0,1,0,0,3.00,,Kindle Edition,,1,0,"Anne Wentworth,Elizabeth Darcy,Nicole Ciacchella",,,,,,9,0,,
17832001,,الجوار عند العرب: في الشعر حتى العصر الأموي,,,,,ES,1992/1/1,مؤسسة المعارف للطباعة والنشر,ara,false,1,17832001,3,0,0,0,1992/1/1,,book,0,0,0,0,0,0.00,144,,,0,0,مرزوق بن تنباك,,,,,,3,0,,
17832501,,บันทึกลับสถาปนิกโรบินฮูด,9786169019787,,,,ES,2010/10/1,ผจญภัยสำนักพิมพ์,tha,false,1,17832501,11,16,4,1,2010/10/1,,book,1,2,1,0,0,4.00,216,Paperback,,4,1,ยรรยง บุญ-หลง,,,,,,6,0,1,
17833001,9953416621,العلمانية الشاملة,,,,,ES,2005/1/1,مختارات,ara,false,1,17833001,28,19,5,1,2005/1/1,العلمانية الشاملة,book,2,2,0,0,1,3.80,,,,5,1,المطران غريغوار حداد,,,,,,22,0,,
17833501,9026314760,ISBN van de wereldliteratuur,9789026314766,,,,ES,1997/1/1,Ambo,nl,false,1,17833501,18,32,9,0,1997/1/1,ISBN van de wereldliteratuur,book,1,3,5,0,0,3.56,188,Paperback,,9,0,Willem Kuipers,,,,,,5,1,,non-fiction
17834001,,Grading on Curves,9781937325701,,,,ES,2013/6/17,"Beachwalk Press, Inc.",eng,true,5,43239985,191,187,48,20,,,book,17,18,6,5,2,3.90,,ebook,,43,18,Tara Mills,,,,,,126,7,,"chick-lit,contemporary,romance"
17834501,144116779X,"The Image in Mind: Theism, Naturalism, and the Imagination",9781441167798,,,,ES,2013/6/6,Bloomsbury Academic,,false,5,17834501,10,0,0,0,2010/11/11,,,0,0,0,0,0,0.00,224,Paperback,,0,0,"Charles Taliaferro,Jil Evans",,,,,,8,0,1,
17835001,,River,,,,,ES,,,,false,2,17835001,2,0,0,0,1988/1/1,,book,0,0,0,0,0,0.00,,,,0,0,,Colin  Maclean,,,,,,0,,
17835501,8392523229,Misjonarze z Dywanowa czyli szeregowy Leńczyk w Iraku. Część III Honkey,9788392523222,,,,ES,2012/1/1,Księgarnia Zdanowicz,pol,false,1,17835501,15,25,6,0,2012/1/1,,book,3,1,2,0,0,4.17,416,Paperback,,6,0,Władysław Zdanowicz,,,,,,6,2,1,
17836001,1624167187,"Solo Dios: Cambia tu historia, cambia el mundo",9781624167188,,,,ES,2014/1/1,Casa Promesa,,false,1,17836001,2,0,0,0,2014/1/1,,,0,0,0,0,0,0.00,256,Paperback,,0,0,Dwight Mason,,,,,,2,0,,
17836501,156858749X,All the Presidents' Bankers: The Hidden Alliances that Drive American Power,9781568587493,,,,ES,2014/4/8,Nation Books,eng,false,8,17836501,2090,1429,351,39,2014/2/25,,book,130,141,58,19,3,4.07,544,Hardcover,,265,35,Nomi Prins,,,,,,1567,8,84,"american-history,business,economics,history,non-fiction,politics,reference,true-crime,war"
17837001,1299091709,Nine Horses: Poems,9781299091702,,,,ES,2014/5/10,Random House,,true,12,24403,6968,17435,4182,260,2002/1/1,Nine Horses: Poems,book,1750,1625,628,122,57,4.17,,ebook,,0,0,Billy Collins,,,,,,2193,30,49,"adult,american,contemporary,fiction,non-fiction,poetry,school"
17837501,8609002098,Filozofija u budoaru,,,,,ES,1989/1/1,Rad,srp,false,186,152113,9357,16354,4697,367,1795/1/1,La Philosophie dans le boudoir,book,936,1495,1407,614,245,3.48,206,Hardcover,Izabrana dela Markiza de Sada,2,0,Marquis de Sade,,,,,,2930,11,340,"adult,bdsm,classic-literature,classics,drama,erotica,fiction,france,historical,literature,non-fiction,novels,philosophy,plays,politics,psychology,queer,religion,romance,school,theatre"
17838001,,Deni Manusia Ikan #3,,,,,ES,,PT Gramedia Jakarta,ind,false,1,17838001,7,7,2,0,,,book,0,1,1,0,0,3.50,50,,,2,0,"John Stokes,Scott Goodall",,,,,,3,0,,
17838501,,The Ghosts of Grantmeer,,,,,ES,1972/9/1,Avon,eng,false,3,3594045,11,9,3,1,1972/9/1,The Ghosts of Grantmeer,book,1,0,0,2,0,3.00,173,Mass Market Paperback,,2,1,Clarissa Ross,,,,,,6,1,,gothic
17839001,9756323833,Faust Cilt: 2,,,,,ES,2005/1/1,Bordo Siyah,tur,false,157,14707,9205,16060,4295,145,1832/1/1,Faust: Der Tragödie Zweiter Teil,book,1364,1227,1090,448,166,3.74,315,Paperback,,1,0,Johann Wolfgang von Goethe,,,,Genç Osman Yavaş,,3602,15,141,"classic-literature,classics,college,drama,fantasy,fiction,horror,literary-fiction,literature,mythology,novels,philosophy,plays,poetry,religion,school,theatre,tragedy,unfinished"
17839501,,The Price of Genius: A Life of Pauline Viardot,,,,,ES,1965/1/1,Appleton-Century,eng,false,3,6719416,8,8,2,0,1964/1/1,,book,0,2,0,0,0,4.00,520,Hardcover,,0,0,April Fitzlyon,,,,,,4,1,,biography
17840001,,Chanel. Elu nagu muinasjutt,9789949252459,,,,ES,2012/9/24,Ersen,est,false,7,7845166,319,636,181,8,2009/5/5,,book,31,60,69,13,8,3.51,222,Hardcover,,5,0,Alfonso Signorini,,,,Kaidi Vahar,,62,1,4,"historical,non-fiction"
17840501,,It's All About YOU!,9781291375879,,,,ES,2013/4/11,Graham Denny,eng,false,3,17840501,1,5,1,1,2013/4/11,,book,1,0,0,0,0,5.00,82,Paperback,First,1,1,Graham Denny,,,,,,,0,,"christian,christianity,faith,inspirational,religion"
17841001,,The Deep Whatsis,,B00BABSW1W,,,ES,2013/7/23,Other Press,,true,13,17316555,583,658,205,35,2013/1/1,,book,19,62,81,29,14,3.21,256,Kindle Edition,,6,0,Peter Mattei,,,,,,340,18,4,"adult,adult-fiction,american,contemporary,fiction,non-fiction,novels"
17841501,,The Introvert's Guide To Dating,,B00C46ZMKG,,,ES,2013/3/30,,en-GB,true,1,17841501,73,126,39,2,2013/3/30,,book,9,9,10,4,7,3.23,,Kindle Edition,,39,2,Jordan    Gray,,,,,,21,1,6,self-help
17842001,0323227198,"Endoscopy in the Diagnosis and Management of Acute and Chronic Pancreatitis, an Issue of Gastrointestinal Endoscopy Clinics, E-Book",9780323227193,,,,ES,2013/10/11,Elsevier,,true,3,17842001,0,0,0,0,2013/12/9,,,0,0,0,0,0,0.00,216,ebook,,0,0,Martin L. Freeman,,,,,,,0,,
17842501,0545232732,Helena the Horse-Riding Fairy,9780545232739,,,,ES,2013/4/1,Scholastic Inc.,,false,9,3326542,1630,2519,650,18,2008/1/1,"Helena the Horseriding Fairy (Sporty Fairies, #1) (Rainbow Magic)",book,287,135,127,62,39,3.88,65,Paperback,,14,1,Daisy Meadows,,,,,,454,24,19,"adventure,chapter-books,childrens,fantasy,fiction,magic"
17843001,,"Kamu Mesti Bilang WOW series - Kok, bisa begitu? (Kamu Mesti Bilang WOW series)",9786020210612,,,,ES,2013/5/8,Elex Media Komputindo,ind,false,1,17843001,0,0,0,0,2013/5/8,,book,0,0,0,0,0,0.00,176,Paperback,,0,0,Kim Jang Ryul,,,,,,,0,,
17843501,0989235807,A Mother's Heart,9780989235808,,,,ES,2013/4/13,Clf Publishing,,false,1,17843501,0,0,0,0,2013/4/13,,,0,0,0,0,0,0.00,224,Paperback,,0,0,,,,Cassundra White-Elliott,,,,0,,
17844001,1134592582,Fifty Modern Thinkers on Education: From Piaget to the Present Day,9781134592586,,,,ES,2002/9/11,Routledge,,true,9,1191426,135,127,36,3,2001/9/27,,book,6,13,11,6,0,3.53,320,ebook,,0,0,,,,"David Cooper,Joy A. Palmer,Liora Bresler",,,73,5,3,"education,non-fiction,philosophy,reference,unfinished"
17844501,9781846328,The Heritage,,,,,ES,2013/4/30,Austin Macauley,eng,false,1,17844501,3,6,2,1,2013/4/30,,book,1,0,0,0,1,3.00,247,Paperback,,2,1,Jean Duffy,,,,,,1,0,,survival
17845001,,The Family: Three Journeys into the Heart of the Twentieth Century,,B00C1N978K,,,ES,2013/10/15,Viking Adult,,true,5,17674970,3147,3977,950,192,2013/1/1,The Family: Three Journeys into the Heart of the Twentieth Century,book,399,374,141,27,9,4.19,400,Kindle Edition,,139,2,David Laskin,,,,,,1975,33,66,"american-history,autobiography,biography,biography-memoir,family,historical,history,memoir,non-fiction,religion,survival,war"
17845501,1136058184,Dance Masters: Interviews with Legends of Dance,9781136058189,,,,ES,2013/4/15,Routledge,,true,6,18976836,0,0,0,0,2001/3/1,,,0,0,0,0,0,0.00,144,ebook,,0,0,Janet Lynn Roseman,,,,,,,0,,
17846001,,Birthright,,,,,ES,2002/8/1,Mills & Boon SuperRomance,eng,false,9,1143758,74,78,21,5,2000/7/1,Birthrigh,book,6,6,7,1,1,3.71,,Mass Market Paperback,Mills &amp; Boon SuperRomance #39,0,0,Judith Arnold,,,,,,30,6,,"adult,contemporary,fiction,modern,romance"
17846501,1433995727,Body Snatching (Why'd They Do That? Strange Customs of the Past),9781433995729,,,,ES,2013/8/1,Gareth Stevens Publishing,,false,4,17846501,5,7,2,1,2013/8/1,,book,0,1,1,0,0,3.50,32,Hardcover,,2,1,Alix Wood,,,,,,3,0,,"history,non-fiction"
17847001,0571280676,Red or Dead,9780571280674,,,,ES,2013/7/30,Faber & Faber,,true,4,17846988,2282,3547,950,159,2013/7/30,Red or Dead,book,268,332,223,83,44,3.73,,ebook,,5,3,David Peace,,,,,,571,20,101,"biography,contemporary,fiction,historical-fiction,history,literary-fiction,literature,non-fiction,novels,sports"
17847501,019968443X,Causation: A Very Short Introduction,9780199684434,,,,ES,2014/1/1,"Oxford University Press, USA",eng,false,3,17847501,622,586,144,14,2013/10/18,Causation: A Very Short Introduction,book,47,63,31,3,0,4.07,128,Paperback,,112,14,"Rani Lill Anjum,Stephen Mumford",,,,,,392,8,37,"academic,collections,nature,non-fiction,philosophy,psychology,reference,science,textbooks"
17848001,0786472448,"Abe Saperstein and the American Basketball League, 1960-1963: The Upstarts Who Shot for Three and Lost to the NBA",9780786472444,,,,ES,2013/3/20,McFarland & Company,,false,5,17848001,15,18,5,0,2013/1/1,,,0,4,0,1,0,3.60,210,Paperback,,2,0,Murry R. Nelson,,,,,,5,0,2,
17848501,1118615328,Alkynes in Cycloadditions,9781118615324,,,,ES,2013/12/31,Wiley,,false,6,19655238,1,0,0,0,2013/10/8,,,0,0,0,0,0,0.00,294,Hardcover,,0,0,Irina A. Maretina,,,John C. Tebby,,,1,0,,
17849001,1240161379,"Catastrophe Galliae, Hiberniae Restitutio an Impartial Judgement, Denoting the Reduction of Ireland. This Revolution, 90. Ending March the 10th 1691. (1690)",9781240161379,,,,ES,2010/12/14,"Eebo Editions, Proquest",,false,1,17849001,0,0,0,0,2010/12/14,,,0,0,0,0,0,0.00,52,Paperback,,0,0,Richard Kirby,,,,,,,0,,
17849501,1479791768,For the Love of Service Book 2: That Is Just Pfm!,9781479791767,,,,ES,2013/4/18,Xlibris Corporation,,false,2,17849500,0,0,0,0,2013/4/18,,,0,0,0,0,0,0.00,380,Hardcover,,0,0,Juttee Armiss,,,,,,,0,,
17850001,1483624889,Yowie Country,9781483624884,,,,ES,2013/4/18,Xlibris Corporation,,false,2,17850001,232,13,4,4,2013/4/8,,,0,3,0,0,1,3.25,300,Paperback,,4,4,Robin Freeman,,,,,,228,0,,"historical-fiction,mystery"
17850501,1604165871,Bedtime Stories,9781604165876,,,,ES,2012/1/19,Reformation Publishing,,false,2,17850496,0,0,0,0,2012/1/19,,,0,0,0,0,0,0.00,98,Hardcover,,0,0,Isabel C. Byrum,,,,,,,0,,
17851001,352765917X,"Waldb?den: Ein Bildatlas Der Wichtigsten Bodentypen Aus ?sterreich, Deutschland Und Der Schweiz",9783527659173,,,,ES,2013/4/9,Wiley-Vch,,true,3,17850999,0,0,0,0,2013/4/9,,,0,0,0,0,0,0.00,412,ebook,,0,0,,,,"Ernst Leitgeb,Karl-Heinz Feger,Michael Englisch,Peter L?scher,Rainer Reiter",,,,0,,
17851501,5458328779,"Gidrodinamika, Ili Zapiski O Silah I Dvizheniyah Zhidkostej Klassiki Nauki",9785458328777,,,,ES,2013/2/11,Book on Demand Ltd.,,false,1,17851501,0,0,0,0,2013/2/11,,,0,0,0,0,0,0.00,556,Paperback,,0,0,D Bernulli,,,,,,,0,,
17852001,1481994778,"Win Competitions Online (A Competitors Guide, #1)",9781481994774,,,,ES,2013/1/17,CreateSpace,eng,false,5,17852001,212,66,16,1,2012/12/30,,book,6,8,1,0,1,4.12,60,Paperback,,15,1,David Fuentes,,,,,,186,0,-1,
17852501,,Damesverband : Zijn allerbeste vrouwenverhalen,,,,,ES,1992/9/1,Novella,nl,false,2,11544932,6,3,1,1,1992/2/1,Damesverband : Zijn allerbeste vrouwenerhalen,book,0,0,1,0,0,3.00,140,Paperback,,1,1,Heere Heeresma,,,,,,3,0,,"literature,short-stories"
17853001,,Katies Babysitting Job,,,,,ES,,,,false,4,1889471,52,71,24,4,1985/1/1,Katie's Baby-Sitting Job,book,0,6,13,3,2,2.96,,,,2,0,Martha Tolles,,,,,,10,0,,"childrens,crime,realistic-fiction"
17853501,,Rohy,9788055123790,,,,ES,2011/3/29,Ikar,slo,false,1,6587879,167248,347138,88622,7966,2009/3/1,Horns,book,27002,35576,19565,4650,1829,3.92,381,Hardcover,,13,1,Joe Hill,,,,Alojz Keníž,,67677,642,2012,"adult,adult-fiction,american,contemporary,crime,dark,demons,fantasy,fiction,horror,humor,magical-realism,movies,mystery,mystery-thriller,novels,paranormal,religion,romance,speculative-fiction,supernatural,suspense,thriller,unfinished,urban-fantasy"
17854001,,La paz por medio del Derecho,,,,,ES,1944/6/1,Editorial Losada,spa,false,4,886038,40,38,9,1,1944/6/1,Peace Through Law,,5,1,3,0,0,4.22,238,Paperback,Primera edición,4,0,Hans Kelsen,,,,,,25,1,1,
17854501,588787046X,"Одержимость дьяволом. Паранойя (Собрание сочинений в26 томах, #3)",9785887870465,,,,ES,2006/1/1,Восточно-Европейский Институт Психоанализа,rus,false,1,17854501,3,3,1,0,2006/1/1,Eine Teufelsneurose: Eine Paranoia,book,0,0,1,0,0,3.00,256,Hardcover,,1,0,Sigmund Freud,,,,,,1,0,1,philosophy
17855001,8845973344,Il bene sia con voi!,9788845973345,,,,ES,2013/1/1,Adelphi,ita,true,16,15796750,2125,2262,557,88,1965/1/1,Il bene sia con voi!,book,202,215,116,20,4,4.06,253,ebook,,1,1,Vasily Grossman,,,,Claudia Zonghetti,,1415,13,22,"adventure,autobiography,biography,biography-memoir,classics,fiction,history,literature,memoir,non-fiction,travel"
17855501,3499108046,"Tiefer Süden (Louisiana Trilogie, #1)",,,,,ES,1966/1/1,Rowohlt,ger,false,26,732275,2962,4561,1175,106,1937/1/1,Deep Summer,book,355,446,279,70,25,3.88,314,Paperback,,3,1,Gwen Bristow,,,,,,1154,24,325,"amazon,american,classics,historical,historical-fiction,history,novels,romance,young-adult"
17856001,,R.E.M. - 13 racconti di paura,,,,,ES,,,,false,2,17856003,4,17,4,1,2013/2/27,,book,3,0,0,1,0,4.25,,,,0,0,,,,Alexia Bianchini,,,,0,,
17856501,,Life Triumphant,,,,,ES,,,eng,false,1,17856501,1,3,1,0,,,book,0,0,1,0,0,3.00,,,,1,0,W.W. Martin,,,,,,,0,,religion
17857001,1137302739,Business and Climate Change Governance: South Africa in Comparative Perspective,9781137302731,,,,ES,2013/9/12,Palgrave Macmillan,,false,4,17857001,1,0,0,0,2013/6/4,,,0,0,0,0,0,0.00,240,Hardcover,,0,0,,,,"Ralph Hamann,Tanja A. Börzel",,,,0,,
17857501,,Hittin' the Trail: Day Hiking Wisconsin and Minnesota Interstate State Parks,B00CJY1SQU,,,,ES,2013/4/26,Atiswinic Press,eng,true,2,17857501,26,55,11,2,2013/4/26,,book,11,0,0,0,0,5.00,,ebook,,10,2,Rob  Bignell,,,,,,15,0,1,
17858001,,النمو الاقتصادي والتنمية المستدامة في الدول العربية: سياسات التنمية وفرص العمل - دراسات قُطرية,9781781924808,,,,ES,2013/1/1,المركز العربي للأبحاث ودراسة السياسات,ara,true,2,18743772,69,36,9,0,2013/1/1,النمو الإقتصادي والتنمية المستدامة في الدول العربية: سياسات التنمية وفرص العمل - دراسات قُطرية,book,4,2,2,1,0,4.00,736,ebook,الأولى,2,0,Various,,,,,,52,1,2,economics
17858501,,الصينيون المعاصرون: التقدم نحو المستقبل انطلاقا من الماضي - الجزء الثاني,,,,,ES,1996/6/1,المجلس الوطني للثقافة والفنون والآداب - الكويت ,ara,false,1,17858501,23,8,2,0,1996/6/1,,book,1,0,1,0,0,4.00,334,Paperback,عالم المعرفة، #211,2,0,وو بن,,,,,,17,0,,
17859501,1480418927,Cold Poison,9781480418929,,,,ES,2013/5/14,MysteriousPress.com/Open Road,,true,11,13486817,165,197,52,6,1954/1/1,,book,17,14,15,5,1,3.79,143,ebook,,0,0,Stuart Palmer,,,,,,59,3,25,"cozy-mystery,fiction,historical,mystery"
17860001,,Vai Esi Pazīšanas Vērts?,9789984407135,,,,ES,2008/1/1,Apgāds Zvaigzne ABC,lav,false,1,17860001,9,19,6,1,2005/1/1,Everyone Worth Knowing,book,0,1,5,0,0,3.17,373,Hardcover,,6,1,Lorēna Veisbergere,,,,,,1,2,,
17860501,,"Ill Met by Moonlight (Shakespearean Fantasies, #1)",,B00C4ZBB48,,,ES,2013/3/31,Goldport Press,eng,true,10,546132,667,874,264,42,2001/1/1,"Ill Met by Moonlight (Shakespearean Fantasies, Book 1)",book,33,89,86,39,17,3.31,270,Kindle Edition,,28,2,Sarah A. Hoyt,,,,,,307,6,18,"adult,adult-fiction,adventure,fantasy,fiction,historical,historical-fiction,mythology,queer,romance,speculative-fiction,supernatural,teen"
17861001,,Recollections (Empyreal Prequel Series Episode #1),,,,,ES,2013/6/1,,eng,false,5,17860997,19,25,5,1,2013/1/1,,book,5,0,0,0,0,5.00,,,,1,0,C. Mosley,,,,,,,0,,
17861501,0691149771,The Princeton Guide to Evolution,9780691149776,,,,ES,2013/12/1,Princeton University Press,,false,5,17861501,92,41,9,0,2013/1/1,,,6,2,1,0,0,4.56,872,Hardcover,,6,0,,,Jonathan B. Losos,"Allen J. Moore,Catherine L. Peichel,David A. Baum,Dolph Schluter,Douglas J. Futuyma,Hopi E. Hoekstra,Michael C. Whitlock,Richard E. Lenski",,,63,3,14,"non-fiction,science"
17862001,1448894034,Kentucky Basketball,9781448894031,,,,ES,2013/7/15,Rosen Classroom,,false,2,17862001,2,0,0,0,2013/7/15,,,0,0,0,0,0,0.00,48,Hardcover,,0,0,Darcy Pattinson,,,,,,2,0,,
17862501,1475957467,Ill Will,9781475957464,,,,ES,2012/11/6,iUniverse,,false,4,17862500,4,14,3,0,2012/11/1,,,2,1,0,0,0,4.67,124,Hardcover,,1,0,Anne Hutcheson,,,,,,,0,,
17863001,1477726136,The Science of Dams,9781477726136,,,,ES,2013/8/1,Rosen Classroom,,false,3,17863001,0,0,0,0,2013/1/1,,,0,0,0,0,0,0.00,24,Paperback,,0,0,Jayson Frost,,,,,,,0,,
17863501,1482014025,Flash McKinley and the Mystery of Rosewood Cottage,9781482014020,,,,ES,2013/4/22,Createspace Independent Publishing Platform,,false,2,17863501,3,0,0,0,2013/4/22,,,0,0,0,0,0,0.00,116,Paperback,,0,0,Rosemary Showell,,,,,,2,0,1,
17864001,1484126084,Animal Rights,9781484126080,,,,ES,2013/4/19,Createspace Independent Publishing Platform,,false,1,17864001,1,3,1,1,2013/4/19,,book,0,0,1,0,0,3.00,202,Paperback,,1,1,Roger      Williams,,,,,,,0,,
17864501,1611738105,Please Don't Tell,9781611738100,,,,ES,2013/8/1,Center Point,,false,14,16045079,6193,7446,2333,390,2013/7/9,,book,282,655,806,408,182,3.19,383,Hardcover,,5,3,Elizabeth Adler,,,,,,321,51,57,"adult,adult-fiction,chick-lit,contemporary,crime,detective,drama,fiction,murder-mystery,mystery,mystery-thriller,romance,suspense,thriller"
17865001,1782791086,The Pagan Writers' Guide: Writing for the Pagan and MB&S Publications (Compass Points),9781782791089,,,,ES,2013/7/16,Compass Books,eng,false,3,17865001,161,13,3,2,2013/7/26,,book,1,2,0,0,0,4.33,86,Paperback,,3,2,Suzanne Ruthven,,,,,,157,0,,
17865501,3732238989,Der Raumenergie-Antrieb: Der Weg zum echten UFO,9783732238989,,,,ES,2013/4/16,Books on Demand,,false,2,17865501,0,0,0,0,2013/4/16,,,0,0,0,0,0,0.00,160,Paperback,,0,0,Hans Joachim Graefen,,,,,,,0,,
17866001,545841439X,Opisanie Arhangel'skoj Gubernii,9785458414395,,,,ES,2013/2/15,Book on Demand Ltd.,,false,1,17866001,0,0,0,0,2013/2/15,,,0,0,0,0,0,0.00,338,Paperback,,0,0,K S Molchanov,,,,,,,0,,
17866501,0132763133,Black and White: From Snapshots to Great Shots,9780132763134,,,,ES,2011/7/19,Peachpit Press,,true,4,12315171,145,268,71,8,2011/7/1,,,17,30,18,3,3,3.77,217,ebook,,0,0,John Batdorff,,,,,,44,3,10,non-fiction
17867001,0511033664,"Press, Politics and the Public Sphere in Europe and North America, 1760-1820",9780511033667,,,,ES,2005/1/28,Cambridge University Press,,true,5,4111857,14,12,3,0,1998/6/26,"Press, Politics and the Public Sphere in Europe and North America, 1760-1820",book,1,1,1,0,0,4.00,,ebook,,0,0,,,,"Hannah Barker,Simon Burrows",,,7,1,2,history
17867501,0745675689,Au Pair,9780745675688,,,,ES,2013/4/16,Polity Press,,true,8,9206061,21,32,9,1,2010/8/9,,book,1,4,3,1,0,3.56,224,ebook,,0,0,"Daniel Miller,Zuzana Burikova",,,,,,,0,1,travel
17868001,0870717162,The Columbia River Gorge: Bridging a Great Divide,9780870717161,,,,ES,2013/7/1,Oregon State University Press,,false,1,17868001,30,37,9,5,2013/7/1,,,3,4,2,0,0,4.11,,Hardcover,,9,5,Kathie Durbin,,,,,,20,1,1,"history,non-fiction"
17868501,1118755073,Autodesk 3ds Max 2014 Bible,9781118755075,,,,ES,2013/11/4,John Wiley & Sons,,false,18,17868501,92,128,30,0,2012/8/6,,,17,6,5,2,0,4.27,1270,Paperback,,9,0,Kelly L. Murdock,,,,,,48,0,5,
17869001,1423388828,Winners,9781423388821,,,,ES,2013/10/29,Brilliance Audio,,false,40,17393646,11523,24568,6153,584,2013/1/1,Winners,book,2347,2024,1299,357,126,3.99,,Audio CD,,1,0,Danielle Steel,,,,,,2993,59,499,"adult,adult-fiction,chick-lit,contemporary,drama,fiction,novels,romance,sports"
17869501,1456615831,The Mango Man and Other Stories,9781456615833,,,,ES,2013/7/15,Ebookit.com,,true,1,17869501,0,0,0,0,2013/4/21,,,0,0,0,0,0,0.00,35,ebook,,0,0,Georgina Prasad,,,,,,,0,,
17870001,1473391369,The Iron Age Horseshoe and Its Derivatives,9781473391369,,,,ES,2013/4/26,Husain Press,,true,2,11777382,0,0,0,0,2011/5/19,,,0,0,0,0,0,0.00,22,ebook,,0,0,Gordon Ward,,,,,,,0,,
17870501,1483607798,An Absolutely Absurd Animal Alphabet,9781483607795,,,,ES,2013/4/22,Xlibris,,false,2,17870501,0,0,0,0,2013/4/22,,,0,0,0,0,0,0.00,32,Paperback,,0,0,Linda D. Sorensen,,,,,,,0,,
17871001,1595809430,The Complete History of American Film Criticism,9781595809438,,,,ES,2010/2/19,Santa Monica Press,,true,6,7931916,45,50,15,3,2010/1/1,,,2,5,5,2,1,3.33,,ebook,,0,0,Jerry Roberts,,,,,,21,1,1,movies
17871501,1614485968,"Save Your Stuff in the Workplace: How to Protect & Save Employee Possessions, Collectables, Memorabilia, Artwork and Other Corporate Assets",9781614485964,,,,ES,2013/4/1,Morgan James Publishing,,true,1,17871501,1,0,0,0,2013/4/1,,,0,0,0,0,0,0.00,182,ebook,,0,0,Scott M Haskins,,,,,,1,0,,
17872001,,The Teacher and the Soldier (Ellery Mountain #2),,B00CH143BM,,,ES,,,eng,true,5,34723124,1438,3152,838,101,2013/4/22,,book,180,329,282,43,4,3.76,101,Kindle Edition,,81,3,R.J. Scott,,,,,,182,29,18,"abuse,contemporary,drama,erotica,gay,novella,romance,short-stories"
17872501,1937693287,After Words,9781937693282,,,,ES,2013/4/26,Red Dragonfly Press,eng,false,2,17872501,23,27,8,1,2013/4/26,After Words,book,0,3,5,0,0,3.38,100,Paperback,,8,1,Joyce Sutphen,,,,,,9,0,,poetry
17873001,3642384781,Young-Type Interferences with Electrons: Basics and Theoretical Challenges in Molecular Collision Systems,9783642384783,,,,ES,2013/10/28,Springer,,false,4,17873001,1,0,0,0,2013/7/25,,,0,0,0,0,0,0.00,227,Hardcover,,0,0,Francois Fremont,,,,,,,0,,
17873501,,Sa muling pagkikita 2,,,,,ES,,wattpad,,false,1,17873501,2,5,2,0,,,not a book,0,1,0,0,1,2.50,,,,2,0,lee_miyaki,,,,,,,0,,
17874001,,Stories of Today (The Children's Hour Vol. 6),,,,,ES,,,,false,1,17874001,8,0,0,0,,,book,0,0,0,0,0,0.00,,,,0,0,Marjorie Barrows,,,,,,5,0,,
17874501,,مع الخالدين,,,,,ES,,مؤسسة عز الدين للطباعة والنشر,ara,false,1,17874501,38,57,14,1,,,book,7,2,4,1,0,4.07,656,,طبعة جديدة منقحة ومزيدة ,14,1,سمير شيخاني,,,,,,23,0,,
17875001,,El Mousntro de Arriba de la Cama,,,,,ES,,,,false,2,17875001,17,28,6,0,,,book,4,2,0,0,0,4.67,,,,5,0,Israel Miranda Salas,,,,,,14,0,,
17875501,,Nationalismus Im Spät- Und Postkommunistischen Europa (Vol.3),,,,,ES,2010/1/1,Российская политическая энциклопедия (РОССПЭН),rus,false,2,17875501,1,0,0,0,2008/1/1,,book,0,0,0,0,0,0.00,416,Hardcover,Russian Edition,0,0,,,,,,,1,0,,
17876001,9727082637,Cathay,,,,,ES,1995/1/1,Relógio d'Água,por,false,30,10216066,484,869,218,27,1915/1/1,Cathay,book,87,61,53,14,3,3.99,77,Paperback,,13,1,Ezra Pound,,,,Gualter Cunha,,163,7,12,"american,collections,fiction,literature,medieval,poetry"
17876501,,El Hobito,,,,,ES,1964/1/1,Fabril Editora,spa,false,406,5907,3055796,10650020,2498319,42530,1937/9/21,"The Hobbit, or There and Back Again",book,1295584,749301,318721,84020,50693,4.26,,Paperback,,3,1,J.R.R. Tolkien,,,,,,562748,3478,46965,"adult,adult-fiction,adventure,british-literature,childrens,classic-literature,classics,epic,epic-fantasy,fantasy,fiction,high-fantasy,literature,magic,middle-grade,novels,school,science-fiction,science-fiction-fantasy,young-adult"
17877001,,Bangkok Rules,,,,,ES,2013/4/1,Amazon Digital Services,eng,true,5,17372732,685,1094,291,37,2013/2/4,,book,75,111,75,20,10,3.76,,Kindle Edition,,6,0,Harlan Wolff,,,,,,320,18,19,"crime,detective,fiction,historical-fiction,murder-mystery,mystery,mystery-thriller,suspense,thriller"
17877501,,Perfect Twin Volume 2,,,,,ES,,,,false,1,17877501,1,4,1,0,,,book,0,1,0,0,0,4.00,,Paperback,,1,0,Shou Kitagawa,,,,,,,0,,manga
17878001,,"La Oculta (Hijos del Dragón, #5)",,,,,ES,2011/1/1,Bubok,spa,false,1,17878001,12,10,2,1,2011/1/1,,book,2,0,0,0,0,5.00,353,Paperback,,2,1,Lucía González Lavado,,,,,,10,0,,
17878501,,Overlook,,B00CLU6ABK,,,ES,2013/5/1,Winterfield Press,en-GB,true,4,17931380,504,195,50,24,2013/5/1,,book,12,24,11,3,0,3.90,189,Kindle Edition,,19,8,Elizabeth Hein,,,,,,445,3,5,"adult,chick-lit,contemporary,fiction,humor,marriage,romance"
17879501,,"Москва, Маросєйка. МИ і ми",9789668152269,,,,ES,2012/1/1,ПрАТ «Українська прес-група»,,false,1,17879501,21,54,11,0,2012/1/1,,book,10,1,0,0,0,4.91,32,Paperback,,11,0,George Y. Shevelov,,,,,,6,1,,"history,non-fiction"
17880001,,Trading Parties (Trading Party #1),9781771113403,,,,ES,2012/10/15,Extasy Books,eng,true,2,17880001,3,0,0,0,2012/10/15,,book,0,0,0,0,0,0.00,60,ebook,,0,0,M. Garnet,,,,,,3,0,,romance
17880501,,Paní Živagová z Queen´s Parku,9788073811907,,,,ES,2008/1/1,BB/art s.r.o.,cze,false,23,1275724,423,779,263,38,2007/10/3,Mrs Zhivago of Queens Park,book,24,59,89,65,26,2.96,287,Hardcover,,1,0,Olivia Lichtenstein,,,,,,8,17,2,"adult,american,chick-lit,family,humor,love,marriage,romance"
17881001,,Skeptikerskolan,9789143506358,,,,ES,2011/11/1,Bokförlaget Forum ,swe,true,3,12154041,30,60,16,2,2011/6/17,,book,0,12,4,0,0,3.75,149,ebook,,1,1,"Andreas Anundi,C.J. Åkerberg",,,,,,14,0,,"non-fiction,psychology"
17881501,9789522890,Skoudena Stadissa,,,,,ES,2012/1/1,CrimeTime,fin,true,1,17881501,7,11,4,1,2012/1/1,,book,0,0,3,1,0,2.75,252,ebook,,4,1,Seppo Sillanpää,,,,,,,0,,"biography,non-fiction"
17882001,954321008X,Софийските потайности,,,,,ES,2004/2/25,,bul,false,1,17882001,19,29,8,2,2004/2/25,Софийските потайности,book,2,3,2,0,1,3.62,540,Hardcover,,8,2,Петър Величков,,,,,,10,0,,"history,society"
17882501,,"Grow it, Build it, Save it!",,,,,ES,,,,true,1,17882501,3,2,1,0,,,book,0,0,0,1,0,2.00,,Kindle Edition,,1,0,Britni Ross,,,,,,2,1,,self-help
17883001,,Alien Murders,,,,,ES,,Parsina Press,eng,true,8,11068954,9,22,6,0,2009/8/16,,book,0,4,2,0,0,3.67,,ebook,,0,0,Stephen Goldin,,,,,,2,0,,"mystery,novella"
17883501,9023215079,Dialectiek: Een historische en systematische inleiding,9789023215073,,,,ES,1977/1/1,Van Gorcum,nl,false,1,17883501,4,3,1,0,1977/1/1,,book,0,0,1,0,0,3.00,142,Paperback,,1,0,Wim van Dooren,,,,,,2,0,,"philosophy,politics,society"
17884001,0736431551,Snuggle Buddies (Disney Princess: Palace Pets),9780736431552,,,,ES,2014/1/7,RH/Disney,,false,7,20556181,320,458,121,11,2014/1/7,,book,47,28,28,9,9,3.79,32,Paperback,,22,3,Courtney Carbone,,,,,,59,35,25,"animals,fantasy"
17884501,1612131859,"Beneath the Surface‏ (Reluctance, #1)",9781612131856,,,,ES,2013/8/29,The Writer's Coffee Shop,en-US,false,4,17856148,3594,3497,936,190,2013/8/28,Beneath the Surface,book,230,357,259,52,38,3.74,182,Paperback,,26,7,M.A. Stacie,,,,,,1995,7,26,"adult,contemporary,erotica,new-adult,romance,sports"
17885001,,1821 - Η γέννηση ενός έθνους-κράτους | Β' τόμος: Η συγκρότηση εξουσίας στην επαναστατημένη Ελλάδα,9789604820443,,,,ES,2010/11/12,ΣΚΑΪ,gre,false,1,17885001,14,26,7,1,2010/11/12,,book,2,2,2,1,0,3.71,192,Paperback,,7,1,"Γιάννης Κολιόπουλος,Θάνος Βερέμης",,,,,,6,0,,
17885501,0804776806,His Hiding Place Is Darkness: A Hindu-Catholic Theopoetics of Divine Absence,9780804776806,,,,ES,2013/12/4,Stanford University Press,,false,4,19793302,45,34,8,1,2013/11/20,,book,4,2,2,0,0,4.25,208,Hardcover,,0,0,Francis X. Clooney,,,,,,35,0,2,"non-fiction,poetry,religion,spirituality,theology"
17886001,1490512357,Wingless and Damned (The Damned Series #1),9781490512358,,,,ES,2013/5/5,Nevermore Press,eng,false,10,17886001,2573,555,141,56,2012/9/28,Wingless and Cursed,book,73,27,16,9,16,3.94,138,Paperback,,31,12,Dawn White,,,,,,597,20,2,"adult,demons,fantasy,fiction,mythology,paranormal,romance,shapeshifters,vampires,werewolves,young-adult"
17886501,,Go Wild: Lions,,B001QCM7IO,,,ES,2008/1/1,Flowerpot Press,,false,1,17886501,7,12,3,1,2008/1/1,,book,1,1,1,0,0,4.00,,Unknown Binding,,3,1,Flowerpot Press,,,,,,,0,,"animals,picture-books"
17887501,0762450428,The Velveteen Rabbit Mini Kit: Plush Toy and Illustrated Book,9780762450428,,,,ES,2014/1/28,Running Press Miniature Editions,,false,462,144974,279887,864452,201531,3102,1922/1/1,The Velveteen Rabbit,book,107612,56491,28495,6010,2923,4.29,48,Paperback,,3,0,Margery Williams Bianco,,,,,,53307,372,607,"animals,childrens,christmas,classic-literature,classics,fairy-tales,fantasy,fiction,juvenile,literature,middle-grade,picture-books,short-stories,young-adult"
17888001,1449791131,Eat the Watermelon ... Spit Out the Seeds!: A Biography of Pastor Charles J. Petit,9781449791131,,,,ES,2013/4/26,WestBow Press,,false,2,17888001,1,0,0,0,2013/4/26,,,0,0,0,0,0,0.00,108,Paperback,,0,0,Theresa Gray-Petit,,,,,,1,0,,
17888501,,الإبداع والمشروع الحضاري,,,,,ES,2013/1/1,الهيئة العامه للكتاب,ara,false,2,17888501,66,40,14,1,2012/1/1,,book,1,1,7,5,0,2.86,269,,,14,1,أنور عبد الملك,,,,,,50,0,,psychology
17889001,0133100553,Microsoft Lync Server 2013 Unleashed,9780133100556,,,,ES,2013/4/9,Sams Publishing,,true,5,16284090,40,70,17,2,2013/3/15,,,6,7,4,0,0,4.12,958,ebook,,0,0,"Alex Lewis,David Ross,Tom Pacyk",,,,,,15,0,5,
17889501,0511904401,Romantic Relationships in Emerging Adulthood,9780511904400,,,,ES,2010/10/4,Cambridge University Press,,true,6,11359447,8,4,1,0,2006/10/30,,,0,1,0,0,0,4.00,350,ebook,,0,0,,,,"Frank D. Fincham,Ming Cui",,,7,0,,
17890001,075512720X,Red in the Morning,9780755127207,,,,ES,2011/9/23,House of Stratus,,true,8,135265,48,112,27,5,1946/1/1,Red in the Morning,book,8,15,4,0,0,4.15,248,ebook,,0,0,Dornford Yates,,,,,,17,0,,"fiction,france,literature,mystery"
17890501,0762793821,"Kid's Guide to Washington, DC",9780762793822,,,,ES,2013/4/12,Globe Pequot Press,,true,2,16056221,31,83,21,6,2013/4/12,,,5,12,2,2,0,3.95,160,ebook,,0,0,Eileen Ogintz,,,,,,5,1,,"non-fiction,travel"
17891001,0985176326,Midnight in Hope,9780985176327,,,,ES,2013/4/10,Marsden Publishing,,false,2,17891001,0,0,0,0,2013/4/10,,book,0,0,0,0,0,0.00,320,Paperback,,0,0,Michael Andrew Marsden,,,,,,,0,,
17891501,1118615921,Frontier Markets for Dummies,9781118615928,,,,ES,2014/1/21,For Dummies,,true,6,17891500,9,5,1,0,2014/1/1,,book,1,0,0,0,0,5.00,384,ebook,,0,0,Gavin Graham,,,,,,8,0,,business
17892001,1136089179,Expressive Photography: The Shutter Sisters Guide to Shooting from the Heart,9781136089176,,,,ES,2013/2/11,Focal Press,,true,6,8271474,1405,2251,569,51,2010/8/2,,book,210,182,130,36,11,3.96,176,ebook,,1,0,"Andrea Scher,Tracey  Clark",,,,,,762,13,14,"adult,amazon,art,non-fiction,picture-books,reference"
17892501,1408178729,The Complete Guide to Indoor Rowing,9781408178720,,,,ES,2012/5/10,A&C Black,,true,5,13169410,55,97,25,1,2012/5/10,,,6,11,7,1,0,3.88,188,ebook,,0,0,"Charles  Simpson,Jim Flood",,,,,,15,-1,7,"health,non-fiction,sports"
17893001,1448201802,The Lighthearted Quest (Julia Probyn #1),9781448201808,,,,ES,2011/9/28,Bloomsbury Reader,eng,true,6,1610463,232,398,113,29,1956/10/1,The Lighthearted Quest,book,15,45,41,8,4,3.52,322,ebook,,3,1,Ann Bridge,,,,,,76,13,8,"adventure,british-literature,class,cultural,fiction,historical,mystery,mystery-thriller,politics,social-issues,thriller,travel"
17893501,1456879367,"Into the Light, to the Other Side of Tomorrow",9781456879365,,,,ES,2013/4/26,Xlibris Corporation,,false,2,17893501,0,0,0,0,2013/4/26,,,0,0,0,0,0,0.00,186,Hardcover,,0,0,Kenneth Arner,,,,,,,0,,
17894001,1469297264,Damage,9781469297262,,,,ES,2013/11/5,Brilliance Audio,,false,28,8549518,9168,24128,6009,313,2011/1/4,Damage,book,1999,2467,1266,190,87,4.02,,Audio CD,,0,0,John Lescroart,,,,,,1872,16,203,"adult,contemporary,crime,detective,fiction,mystery,mystery-thriller,suspense,thriller"
17894501,1480538884,Sinister,9781480538887,,,,ES,2013/11/26,Brilliance Audio,,false,16,15985416,4808,6741,1725,163,2013/11/26,,book,579,602,387,120,37,3.91,,Audio CD,,0,0,"Lisa Jackson,Nancy Bush,Rosalind Noonan",,,,,,1888,29,452,"fiction,murder-mystery,mystery,mystery-thriller,romance,suspense,thriller"
17895001,1482546884,The Chronicles of Lord Vector,9781482546880,,,,ES,2013/2/18,Createspace Independent Publishing Platform,,false,1,17895001,1,0,0,0,2013/2/18,,,0,0,0,0,0,0.00,134,Paperback,,0,0,Kimberly K. Brown,,,,,,1,0,,
17895501,1484192311,Fatal Contract,9781484192313,,,,ES,2001/1/13,Createspace,,false,2,30633743,0,0,0,0,2001/1/13,,,0,0,0,0,0,0.00,202,Paperback,,0,0,Chris O'Grady,,,,,,,0,,
17896001,1608382397,"Mother Goose Story: The Tailor and the Crow, English to Chinese Etranslation 03: Ett",9781608382392,,,,ES,2013/3/1,Mother Goose Picture Books,,true,10,17895991,0,0,0,0,2013/3/1,,,0,0,0,0,0,0.00,26,ebook,,0,0,,,,,,,,0,,
17896501,1619743485,Willie Mouse,9781619743489,,,,ES,2013/3/1,Tabor Picture Books,mul,true,32,19424147,9,21,7,2,2006/7/3,,book,0,1,5,1,0,3.00,30,ebook,,0,0,Alta Tabor,Florence White Williams,,,H.Y. Xiao,,1,0,,childrens
17897001,1627052208,Moving Bibliographic Metadata to the Web,9781627052207,,,,ES,2014/2/1,Morgan & Claypool,,true,1,17897001,1,0,0,0,2014/2/1,,,0,0,0,0,0,0.00,,ebook,,0,0,"Jean Godby,Shenghui Wang",,,,,,1,0,,
17897501,1909365521,The Bluffer's Guide to Beer,9781909365520,,,,ES,2013/6/1,Bluffer's Guides,,false,3,17897501,49,81,21,4,2013/6/1,,,6,8,6,0,1,3.86,128,Paperback,,13,3,Jonathan Goodall,,,,,,23,0,1,reference
17898001,3643903650,Suturing New Medical Histories of Africa,9783643903655,,,,ES,2013/6/20,LIT Verlag,,false,1,17898001,5,3,1,0,2013/6/5,,,0,0,1,0,0,3.00,48,Paperback,,1,0,Nancy Rose Hunt,,,,,,4,0,,
17898501,9187199009,"Teaching History, Learning Piety: An Alevi Foundation in Contemporary Turkey",9789187199004,,,,ES,2012/12/1,Sekel,,false,1,17898501,0,0,0,0,2012/12/1,,,0,0,0,0,0,0.00,196,Paperback,,0,0,Hege Irene Markussen,,,,,,,0,,
17899501,0714866210,Wallpaper* City Guide Chicago 2014,9780714866215,,,,ES,2013/9/2,Phaidon Press,,false,1,17899501,1,2,1,0,2013/9/2,,,0,0,0,1,0,2.00,103,Paperback,,1,0,,,,Wallpaper*,,,,0,,
17900001,1455572322,Young Money: Inside the Hidden World of Wall Street's Post-Crash Recruits,9781455572328,,,,ES,2014/2/18,Grand Central Publishing,,true,14,17899438,9297,13873,3801,255,2014/1/1,Young Money: Inside the Hidden World of Wall Street's Post-Crash Recruits,book,775,1406,1232,290,98,3.65,336,ebook,,2,2,Kevin Roose,,,,,,5078,31,107,"biography,business,economics,fiction,history,non-fiction,politics,sociology"
17900501,,Année bissextile,9782743603618,,,,ES,1998/5/6,Payot & Rivages,fre,false,10,270247,422,739,213,21,1990/1/1,Leap Year,book,26,85,69,29,4,3.47,262,Paperback,,4,1,Peter Cameron,,,,,,168,6,5,"fiction,gay,humor,literature,novels"
17901001,,a menina que sonhava com rosas,,,,,ES,,,,false,1,17901001,1,3,1,0,,,book,0,0,1,0,0,3.00,,,,1,0,vitor alves morais,,,,,,,0,,
17902001,,An Unlikely Savior,,,,,ES,,,eng,true,7,35965316,61,111,29,5,2013/2/27,,book,7,12,8,2,0,3.83,,Kindle Edition,,15,2,Camille Oster,,,,,,14,0,6,"historical-fiction,romance"
17902501,0399163891,"The 5th Wave (The 5th Wave, #1)",9780399163890,,,,ES,2013/5/1,Penguin Group Inc.,eng,false,117,16101128,693457,1396496,342957,28635,2013/5/7,The 5th Wave,book,141093,117720,59556,16895,7693,4.07,456,Paperback,International Edition,217,44,Rick Yancey,,,,,,298293,3148,13217,"action,adventure,aliens,dystopia,fantasy,fiction,horror,mystery,paranormal,post-apocalyptic,romance,science-fiction,survival,suspense,teen,thriller,war,young-adult"
17904501,1611296994,"The Templar Salvation (Templar, #2)",9781611296990,,,,ES,2010/1/1,Dutton Adult,en-US,false,50,7831076,16728,39852,10314,344,2010/10/19,The Templar Salvation,book,2931,3918,2752,556,157,3.86,405,Paperback,,1,0,Raymond Khoury,,,,,,5050,33,145,"action,adult-fiction,adventure,amazon,contemporary,crime,fantasy,fiction,historical,historical-fiction,history,medieval,mystery,mystery-thriller,novels,religion,suspense,thriller,unfinished"
17905001,,Angelique Rising,,B00AZ7EXVK,,,ES,,,,true,2,17905001,14,14,4,1,2013/6/13,,book,0,2,2,0,0,3.50,288,Kindle Edition,,4,1,Lorain O'Neil,,,,,,7,0,2,
17905501,,Doctor Who: 1963: The Space Race,9781781780794,,,,ES,2013/10/31,Big Finish Productions,eng,false,1,17905501,137,267,72,7,2013/10/31,,book,8,40,20,3,1,3.71,,Audio CD,,72,7,Jonathan    Morris,,,,,,46,6,,"plays,science-fiction,time-travel"
17906001,,"The Forest of Hands and Teeth (The Forest of Hands and Teeth, #1)",,,,,ES,,Dekacorte Press,eng,false,58,3432478,174156,278849,77699,8616,2009/3/10,The Forest of Hands and Teeth,article,21399,22399,19444,9469,4988,3.59,310,Paperback,First Trade,10,2,Carrie Ryan,,,,,,86797,473,933,"adventure,dark,death,dystopia,fantasy,fiction,horror,mystery,paranormal,post-apocalyptic,romance,science-fiction,speculative-fiction,supernatural,survival,suspense,teen,thriller,unfinished,urban-fantasy,young-adult,zombies"
17906501,,The Flame in the Mist,,B009QJMWL6,,,ES,2013/4/9,Delacorte Press Books for Young Readers,en-US,true,8,13641561,2879,1351,364,87,2013/4/9,,book,125,97,78,40,24,3.71,466,Kindle Edition,,4,0,Kit Grindstaff,,,,,,2328,16,14,"adventure,animals,childrens,fantasy,fiction,ghosts,high-fantasy,juvenile,magic,middle-grade,paranormal,teen,young-adult"
17907001,,Lucha y Contemplación,9788425409714,,,,ES,1975/1/1,Herder,spa,false,1,17907001,1,3,1,0,1975/1/1,Lutte et contemplation,book,0,0,1,0,0,3.00,,Paperback,,1,0,Roger of Taizé,,,,,,,0,,
17907501,,Hever Castle & Gardens,9781907750304,,,,ES,2012/1/1,JIgsaw Design & Publishing,eng,false,1,17907501,11,24,6,2,2012/1/1,,book,1,4,1,0,0,4.00,84,Paperback,,6,2,jigsaw designs,,,,,,4,1,,travel
17908001,,"Властелинът на пръстените, том I (Властелинът на пръстените, #1)",,,,,ES,1990/1/1,Народна култура,bul,false,530,34,2635769,9032183,2075823,18344,1954/7/29, The Fellowship of the Ring,book,1199020,551726,222024,61054,41999,4.35,392,Hardcover,1-во издание,87,4,J.R.R. Tolkien,,,,,,9993,1683,30401,"adult,adult-fiction,adventure,british-literature,classic-literature,classics,epic,epic-fantasy,fantasy,fiction,high-fantasy,literature,magic,modern-classics,movies,novels,science-fiction,science-fiction-fantasy,speculative-fiction,unfinished,young-adult"
17908501,,Czym nie jest coaching. Prawdy i mity o coachingu,9788374892889,,,,ES,2010/1/1,GWP,pol,false,2,17908501,6,22,5,1,2010/1/1,,book,2,3,0,0,0,4.40,148,Paperback,wydanie pierwsze,3,1,"Monika Zubrzycka-Nowak, Katarzyna Rybczyńska, Sylwia Monostori",,,,,,1,0,,
17909001,,"Nghệ thuật và Vật lý - Những cái nhìn tương đồng về không gian, thời gian và ánh sáng",9786049084539,,,,ES,2012/12/1,,vie,false,5,260291,3735,5588,1349,108,1993/1/28,"Art and Physics: Parallel Visions in Space, Time, and Light",book,606,429,238,52,24,4.14,562,Paperback,,9,1,Leonard Shlain,,,,"Phạm Văn Thiều,Trần Mạnh Hà",,2020,14,156,"academic,art,classics,history,non-fiction,philosophy,psychology,reference,science"
17909501,,Liszts Schaffen : mit 5 Faksimiles von Notenhandschriften,,,,,ES,1931/1/1,Cotta,ger,false,1,17909501,0,0,0,0,1931/1/1,,book,0,0,0,0,0,0.00,379,Hardcover,,0,0,Peter Raabe,,,,,,,0,,
17910001,,Verdadeiro Método de Estudar,,,,,ES,,Editorial Domingos Barreira,por,false,2,17910001,8,7,2,0,,,book,0,1,1,0,0,3.50,247,Paperback,,1,0,Luís António Verney,,,,,,5,0,,
17910501,8370030076,Most Królowej Jadwigi,,,,,ES,1984/1/1,Pomorze,pol,false,2,17910501,5,12,3,0,1984/1/1,,book,0,3,0,0,0,4.00,,,Wydanie II poprawione,2,0,Jerzy Sulima-Kamiński,,,,,,1,0,,
17911001,,Lustiges Taschenbuch,9783841325013,,,,ES,2012/1/1,,eng,false,2,12119835,44,60,15,1,2009/1/1,,book,4,7,4,0,0,4.00,272,Paperback,,0,0,Walt Disney Company,,,,,,18,0,2,comics
17911501,,Mnoho životov mnoho majstrov,8071180327,,,,ES,1993/1/1,"Ikar, Bratislava",slo,false,96,34452,54649,130699,31408,2492,1988/1/1,"Many Lives, Many Masters",book,14692,9772,4935,1337,672,4.16,169,Hardcover,first,5,0,Brian L. Weiss,,,,Ľubica Slobodníková,,16026,27,1755,"adult,biography,death,fiction,health,inspirational,memoir,mental-health,non-fiction,paranormal,personal-development,philosophy,psychology,religion,science,self-help,spirituality"
17912001,,"Полет змея. Магия Телемы XXI века. Мировоззрение, теория, практика",9785957315605,,,,ES,2008/1/1,ИГ «Весь»,rus,false,1,17912001,2,0,0,0,2008/1/1,,book,0,0,0,0,0,0.00,288,Paperback,,0,0,Олег Телемский,,,,,,2,0,,
17912501,,The Cruise of the Kate (illustrated kindle edition),,B00CJKUMZW,,,ES,2013/4/20,Not So Noble Books,eng,true,11,6461606,11,27,7,1,1869/1/1,The Cruise of the Kate,,2,2,3,0,0,3.86,,Kindle Edition,1,4,1,Empson Edward Middleton,,,,,,3,0,,"history,non-fiction"
17913001,1619699745,ZOM-B: City,9781619699748,,,,ES,2013/7/16,AudioGO,,false,29,15801764,5164,9712,2492,244,2013/1/1,,book,803,826,696,138,29,3.90,,Audio CD,,7,1,Darren Shan,,,,,,907,34,63,"dark,dystopia,fantasy,fiction,horror,novels,paranormal,post-apocalyptic,science-fiction,supernatural,survival,teen,thriller,young-adult,zombies"
17913501,9757915009,Kimlik Sorunu...  Sosyal Bilimlerin Kavşağında,,,,,ES,1994/1/1,Ege Yayıncılık,,false,1,17913501,5,14,3,0,1994/1/1,,book,2,1,0,0,0,4.67,275,,,3,0,Nuri Bilgin,,,,,,1,0,,
17914001,,دیالکتیک نقد,9786006128092,,,,ES,2011/1/1,ساقی,per,false,1,17914001,96,89,28,6,2011/1/1,,book,4,6,12,3,3,3.18,379,Paperback,,28,6,,,,مسعود فراستی,,,56,0,6,art
17914501,1449792499,The Revelation of Jesus Christ: Volume 2,9781449792497,,,,ES,2013/5/3,WestBow Press,,false,2,17914501,0,0,0,0,2013/5/3,,,0,0,0,0,0,0.00,516,Paperback,,0,0,Alfred J. Chompff,,,,,,,0,,
17915001,1481793888,The Caretakers,9781481793889,,,,ES,2013/5/3,Authorhouse UK,,false,2,17915001,0,0,0,0,2013/5/3,,,0,0,0,0,0,0.00,562,Paperback,,0,0,William C. O'Brien,,,,,,,0,,
17915501,1484893344,Amish Faith: An Amish Christian Romance,9781484893340,,,,ES,2013/5/1,Createspace,en-US,false,2,17843899,586,987,223,17,2013/4/23,Amish Faith,book,138,53,22,9,1,4.43,286,Paperback,,5,1,Sarah Price,,,,,,299,11,16,"adult,christian,christian-fiction,drama"
17916001,1630048720,Caught in the Cleft,9781630048723,,,,ES,2013/5/6,America Star Books,,false,2,17916001,0,0,0,0,2013/5/6,,,0,0,0,0,0,0.00,184,Paperback,,0,0,Sani Sulayman,,,,,,,0,,
17916501,9382652019,Nepal as a Federal State: Lessons from Indian Experience,9789382652014,,,,ES,2013/5/1,Vij Books India,,false,5,28405792,0,0,0,0,2013/1/1,,,0,0,0,0,0,0.00,188,Hardcover,,0,0,,,,V.R. Raghavan,,,,0,,
17917001,0547347219,Entertaining for a Veggie Planet: 250 Down-To-Earth Recipes,9780547347219,,,,ES,2003/6/27,Rux Martin/Houghton Mifflin Harcourt,,true,2,820773,109,265,63,13,2003/6/27,Entertaining for a Veggie Planet: 250 Down-to-Earth Recipes,,30,19,12,1,1,4.21,480,ebook,,0,0,Didi Emmons,,,,,,31,1,,"cookbooks,cooking,food"
17917501,0606319948,Alexa the Fashion Reporter Fairy,9780606319942,,,,ES,2013/6/25,Turtleback Books,,false,7,16650124,545,703,167,10,2012/10/4,,book,94,33,23,15,2,4.21,65,Hardcover,,7,2,Daisy Meadows,,,,,,240,26,6,"childrens,fantasy,magic"
17918001,0778700828,Anxiety and Phobias,9780778700821,,,,ES,2014/1/15,Crabtree Publishing Company,,false,2,17918001,20,20,6,0,2013/8/31,,,1,1,3,1,0,3.33,48,Hardcover,,6,0,Carrie Iorizzo,,,,,,6,1,1,"mental-health,non-fiction"
17918501,1101439599,Masques,9781101439593,,,,ES,2010/9/28,Ace Books,,true,19,285224,16779,38257,9862,617,1993/12/1,Masques,book,2834,3751,2641,524,112,3.88,320,ebook,,0,0,Patricia Briggs,,,,,,4401,45,231,"action,adult,adult-fiction,adventure,epic-fantasy,fantasy,fiction,high-fantasy,magic,medieval,paranormal,romance,science-fiction,science-fiction-fantasy,shapeshifters,supernatural,urban-fantasy,witches,zombies"
17919001,1430260408,Pro Puppet,9781430260400,,,,ES,2013/12/19,Apress,en-GB,false,4,17919001,99,163,44,6,2013/9/4,,book,7,21,13,2,1,3.70,332,Paperback,,30,5,"Ben Kero,James Turnbull,Jeffrey McCune,Spencer Krum,William Van Hevelingen",,,,,,20,1,8,"non-fiction,technology,textbooks"
17919501,1441240144,40 Days to Healthy Living,9781441240149,,,,ES,2012/3/1,Fleming H. Revell Company,,true,2,18891761,81,81,18,0,2012/3/1,,,11,5,2,0,0,4.50,288,ebook,,0,0,Danna Demetre,,,,,,44,1,9,"health,non-fiction,self-help"
17920001,1461480175,"National Intellectual Capital and the Financial Crisis in Bulgaria, Czech Republic, Hungary, Romania, and Poland",9781461480174,,,,ES,2013/9/14,Springer,,false,1,17920001,0,0,0,0,2013/7/1,,,0,0,0,0,0,0.00,119,Paperback,,0,0,"Carol Yeh Lin,Jeffrey Chen,Leif Edvinsson,Tord Beding",,,,,,,0,,
17920501,1482707020,Pursued,9781482707021,,,,ES,2013/5/10,Createspace,eng,false,2,16179961,365,615,152,13,2012/11/26,,book,56,58,29,7,2,4.05,236,Paperback,,1,0,Karen Fenech,,,,,,56,3,92,"romance,suspense,thriller"
17921001,1585584770,"My Only Child, There's No One Like You",9781585584772,,,,ES,2005/9/1,Fleming H. Revell Company,,true,4,515831,36,36,9,0,2005/9/1,"My Only Child, Theres No One Like You (Birth Order Books)",,6,1,0,0,2,4.00,,ebook,,0,0,Kevin Leman,,,,,,23,1,,"christian,parenting"
17921501,1613745761,Hollywood on Lake Michigan: 100+ Years of Chicago and the Movies,9781613745762,,,,ES,2014/5/14,Chicago Review Press,,true,5,16144054,30,31,8,0,2009/9/4,Hollywood on Lake Michigan,book,2,3,3,0,0,3.88,354,ebook,2nd edition,0,0,"Arnie Bernstein,Michael Corcoran",,,,,,14,0,,"history,movies,non-fiction"
17922001,1845404130,Who Was Mrs Willett?: Landscapes and Dynamics of Mind,9781845404130,,,,ES,2013/5/1,Imprint Academic,,true,4,9079748,1,0,0,0,2011/1/1,,,0,0,0,0,0,0.00,246,ebook,,0,0,Chris Nunn,,,,,,1,0,,
17922501,3110325063,"Actions, Products, and Things: Brentano and Polish Philosophy",9783110325065,,,,ES,2006/3/15,Walter de Gruyter,,false,4,654629,1,0,0,0,2006/1/1,"Actions, Products, and Things: Phenomenology & Mind, Vol. 8 (Phenomenology & Mind)",,0,0,0,0,0,0.00,237,Hardcover,,0,0,,,,"Arkadiusz Chrudzimski,Dariusz Lukasiewicz",,,1,0,,
17923001,3653026458,Autismus: Struktur Und Verlauf Tiefgreifender Entwicklungsstoerungen- Eine Systemtheoretische Betrachtung,9783653026450,,,,ES,2013/5/2,"Peter Lang Gmbh, Internationaler Verlag Der Wissenschaften",,true,2,17923001,0,0,0,0,2013/1/31,,,0,0,0,0,0,0.00,339,ebook,,0,0,Stefan Bach,,,,,,,0,,
17924001,1455553441,Knowing God Intimately: Being as Close to Him as You Want to Be,9781455553440,,,,ES,2013/11/5,FaithWords,,false,21,115308,1712,2439,557,42,2003/4/1,Knowing God Intimately: Being as Close to Him As You Want to Be,book,321,155,61,11,9,4.38,,Paperback,,0,0,Joyce Meyer,,,,,,888,16,107,"christian,christianity,inspirational,non-fiction,spirituality"
17924501,0743568699,Lita: A less Travelled R.O.A.D.--The Reality of Amy Dumas,9780743568692,,,,ES,2003/9/1,Simon  Schuster Audio,,false,9,191618,1459,2769,725,38,2003/1/1,Lita: A Less Traveled R.O.A.D.--The Reality of Amy Dumas,book,260,193,172,81,19,3.82,,Audiobook,,0,0,"Amy Dumas,Michael Krugman",,,,,,590,11,13,"action,adult,autobiography,biography,biography-memoir,memoir,non-fiction,sports"
17925001,,Merry by Name,,,,,ES,1964/1/1,Heinemann,eng,false,1,17925001,1,3,1,0,1964/1/1,,book,0,0,1,0,0,3.00,185,Hardcover,,1,0,Jenifer Wayne,,,,,,,0,,
17925501,9782204088,La symbolique du repas dans les communautés,,,,,ES,2009/1/1,Cerf,fre,false,1,17925501,1,2,1,0,2009/1/1,,book,0,0,0,1,0,2.00,309,,,1,0,Jean-Claude Sagne,,,,,,,0,,
17926001,,Chithratheruvukal,9788122606539,,,,ES,2010/10/1,"Current Books, Thrissur",mal,false,2,17926001,36,47,12,1,2010/10/1,Chithratheruvukal,book,1,9,2,0,0,3.92,219,Hardcover,First Impression,11,0,M.T. Vasudevan Nair,,,,,,18,1,1,essays
17926501,2841860264,"Hannah Arendt, l'obligée du monde",9782841860265,,,,ES,1996/1/23,Michalon,fre,false,1,17926501,3,8,2,0,1996/1/23,"Hannah Arendt, l'obligée du monde",book,1,0,1,0,0,4.00,123,,,2,0,Jean-Claude Eslin,,,,,,1,0,,
17927001,9789871447,Transparencias en un vidrio oscuro,,,,,ES,2007/10/1,Parábola,spa,false,1,17927001,0,0,0,0,2007/10/1,,book,0,0,0,0,0,0.00,129,Paperback,,0,0,Stella Dick,,,,,,,0,,
17927501,,Tarub. Bagdads berühmte Köchin. Arabischer Kulturroman.,,,,,ES,1897/1/1,,,false,11,17927501,2,0,0,0,1897/1/1,,book,0,0,0,0,0,0.00,,,,0,0,Paul Scheerbart,,,,,,,0,1,
17928001,,شاخه آوازخوان، پرنده رازگو و آب جوانی بخش,,,,,ES,,,per,false,1,17928001,3,3,1,0,,,book,0,0,1,0,0,3.00,,,,1,0,هانری پوررا,,,,,,2,0,,
17928501,,Angles of Love (Depths of Love),,B00CB8KXKG,,,ES,,,en-GB,true,1,17928501,7,13,4,1,2013/4/10,,book,0,1,3,0,0,3.25,110,Kindle Edition,,4,1,K. Marc,,,,,,2,0,,
17929001,,Czarna Bogini (Murena #5),9788360298862,,,,ES,2013/2/1,Taurus Media,pol,false,8,1977861,244,630,157,8,2006/6/2,La déesse noire,book,39,86,28,3,1,4.01,48,,,2,0,Jean Dufaux,Philippe Delaby,,,,,35,6,1,"art,comics,fiction,graphic-novels,graphic-novels-comics,historical-fiction,history,mythology"
17929501,9525174050,Ratkaisukeskeinen itsensä kehittäminen,,,,,ES,1999/1/1,Lyhytterapia-instituutti,fin,false,1,17929501,4,4,1,0,1999/1/1,,book,0,1,0,0,0,4.00,79,Paperback,,1,0,"Ben Furman,Tapani Ahola",,,,,,3,2,,"adult,non-fiction,psychology,self-help"
17930001,,Stealing Hope (Midnighter Seductions #2),,,,,ES,,,,false,3,17930001,25,35,9,2,2013/4/29,,book,3,4,1,0,1,3.89,,,,6,2,Corinne Davies,,,,,,12,0,-1,menage
17930501,9750805739,Meşuga,9789750805738,,,,ES,2003/4/1,Yapı Kredi Yayınları,tur,false,21,845142,508,951,260,23,1994/1/1,Meshugah,book,55,92,85,25,3,3.66,204,Paperback,,5,0,Isaac Bashevis Singer,,,,Aslı Biçen,,166,8,5,"classics,fiction,literary-fiction,literature,novels,unfinished"
17931001,,National Geographic Field Guide to the Birds of North America,,,,,ES,1987/1/1,,,false,13,15831,3130,8905,2040,94,1983/1/1,National Geographic Field Guide to the Birds of North America,book,1125,612,247,35,21,4.37,464,Paperback,second,2,1,National Geographic Society,,,,,,654,5,29,"animals,art,education,nature,non-fiction,reference,school,science"
17931501,,Black Coffee,,,,,ES,,,eng,true,4,13405391,60,81,25,2,2011/1/1,,book,3,5,12,5,0,3.24,,ebook,,3,0,Steve Wands,,,,,,22,8,,"fiction,horror,science-fiction,short-stories"
17932001,,Heroines on Horseback: The Pony Book in Children's Fiction,9781847451545,,,,ES,2013/1/1,Girls Gone By,eng,false,1,17932001,38,66,15,9,2013/1/1,,book,6,9,0,0,0,4.40,,,,15,9,Jane Badger,,,,,,17,2,4,"childrens,non-fiction"
17932501,0749928778,A Life at Work: The Joy of Discovering What You Were Born to Do,9780749928773,,,,ES,2008/1/1,Piatkus Books,en-GB,false,24,2296940,1290,1983,535,90,2007/2/26,A Life at Work: The Joy of Discovering What You Were Born to Do,book,144,177,143,55,16,3.71,188,Paperback,,2,0,Thomas  Moore,,,,,,125,10,13,"amazon,art,business,grad-school,health,non-fiction,personal-development,philosophy,psychology,religion,science,self-help,spirituality,unfinished"
17933001,0373008163,The Youngest Bridesmaid,9780373008162,,,,ES,1964/4/1,Harlequin Books,eng,false,4,11469284,57,84,28,6,1964/4/1,The Youngest Bridesmaid,book,3,5,12,5,3,3.00,,Paperback,Harlequin Romance #816,1,1,Sara Seale,,,,,,23,1,,"fiction,romance"
17933501,1484173120,The Lazarus Assassins,9781484173121,,,,ES,2013/4/26,Createspace,eng,false,2,19072756,1,0,0,0,2013/4/26,,,0,0,0,0,0,0.00,420,Paperback,,0,0,Jonathan Gentry,,,,,,,1,,
17934001,,"Le cercle secret (celui qu'on ne voit pas, #3)",,,,,ES,2012/1/1,Le livre de poche,fre,false,46,4436344,3259,7288,2009,133,2005/1/1,Den inre kretsen,book,370,739,713,156,31,3.63,337,,,2,1,Mari Jungstedt,,,,,,394,22,29,"crime,detective,fiction,mystery,mystery-thriller,novels,suspense,thriller"
17934501,1250036712,Hidden Agendas,9781250036711,,,,ES,2014/3/4,St. Martin's Griffin,,false,10,343518,11366,30824,7249,206,2007/6/26,"Hidden Agendas (Tempting SEALs, #4)",book,3397,2595,1012,178,67,4.25,352,Paperback,,28,2,Lora Leigh,,,,,,2530,22,67,"action,adult,bdsm,contemporary,crime,erotica,fiction,mystery,paranormal,romance,suspense"
17935001,,Sunset Temptations,,,,,ES,2013/1/1,,,false,3,17935001,77,57,18,5,2013/1/1,Sunset Temptations ,book,0,9,4,4,1,3.17,,,,18,5,C.R. Moss,,,,,,48,1,2,"contemporary,erotica,menage,romance"
17935501,,Heat,,,,,ES,2012/9/27,AO3,eng,true,1,17935501,44,64,20,4,2012/9/28,,book,2,6,7,4,1,3.20,119,ebook,,20,4,Little_Whittles,,,,,,12,5,,"contemporary,high-school,humor,paranormal,romance,shapeshifters,werewolves"
17936001,,La guerra del Peloponneso -Libro V,,,,,ES,2012/1/1,Bur,ita,false,11,22383819,15,24,6,0,-400/1/1,,book,3,1,1,1,0,4.00,166,,,2,0,Thucydides,,,,,,3,0,1,history
17936501,3850031012,Norddeutsche Sagen,9783850031011,,,,ES,2007/3/1,Tosa,ger,false,1,17936501,2,4,1,0,2007/3/1,,book,0,1,0,0,0,4.00,160,Hardcover,,1,0,,,,Anna Gaubitzer,,,1,2,,"fantasy,short-stories"
17937001,8086661024,Oskar Ed - 1. díl,,,,,ES,2003/1/1,Mot,cze,false,1,17937001,36,109,24,1,2003/1/1,,book,15,7,2,0,0,4.54,80,Paperback,,24,1,Branko Jelinek,,,,Ivan Dorčiak,,10,2,,"comics,drama,fantasy,graphic-novels,thriller"
17937501,1482393573,"Love, but Never (Never #1)",9781482393576,,,,ES,2013/5/22,Josie Leigh,eng,true,2,17937501,239,161,48,7,2012/10/29,,book,13,9,13,8,5,3.35,342,Kindle Edition,,17,3,Josie Leigh,,,,,,181,10,2,"college,contemporary,new-adult,romance"
17938001,1480423963,Key Witness,9781480423961,,,,ES,2013/5/28,Open Road Media Mystery  Thriller,,true,9,687221,606,1024,266,30,1997/8/1,Key Witness,book,64,117,70,11,4,3.85,640,ebook,,0,0,J.F. Freedman,,,,,,169,18,11,"adventure,crime,fiction,mystery,mystery-thriller,suspense,thriller"
17938501,0062306804,Spellbound,9780062306807,,,,ES,2013/12/3,HarperAudio,,false,43,17887350,8969,10975,3523,381,2013/1/1,Spellbound,book,602,707,1111,701,402,3.12,,Audiobook,,13,4,Sylvia Day,,,,,,4131,40,235,"adult,adult-fiction,bdsm,contemporary,erotica,fantasy,fiction,magic,new-adult,paranormal,romance,shapeshifters,urban-fantasy,witches"
17939001,0323170145,"Mosby's Pocket Dictionary of Medicine, Nursing & Health Professions - Elsevier eBook on Intel Education Study (Retail Access Card)",9780323170147,,,,ES,2009/2/11,Mosby,,false,8,7969761,48,96,24,0,2006/1/4,,,12,6,3,0,3,4.00,,Hardcover,,0,0,C.V. Mosby Publishing Company,,,,,,12,0,1,non-fiction
17939501,,The Brothel (Confidante Trilogy #1),,,,,ES,2013/5/22,"Amazon Digital Services, Inc. ",eng,true,14,17939501,1453,1718,486,53,2012/8/12,,book,131,135,118,67,35,3.53,244,Kindle Edition,,173,27,Lilliana Anderson,,,,,,172,16,54,"autobiography,biography,erotica,memoir,non-fiction,romance,unfinished"
17940001,0745661475,What's Wrong with the United Nations and How to Fix It,9780745661476,,,,ES,2013/4/26,Polity Press,,true,12,5248505,124,174,49,6,2008/9/1,What's Wrong with the United Nations and How to Fix it,,8,16,20,5,0,3.55,288,ebook,,0,0,Thomas G. Weiss,,,,,,41,0,8,"academic,college,economics,international,non-fiction,school"
17940501,080653558X,Ooh La La!: French Women's Secrets to Feeling Beautiful Every Day,9780806535586,,,,ES,2013/5/28,Citadel,,true,6,17873911,1229,1814,534,66,2013/1/1,Ooh La La!  French Women's Secrets to Feeling Beautiful Every Day,book,107,139,176,83,29,3.40,224,ebook,,0,0,Jamie Cat Callan,,,,,,79,13,47,"chick-lit,cultural,france,memoir,non-fiction,self-help"
17941001,1118301943,A Companion to Terence,9781118301944,,,,ES,2013/5/3,Wiley-Blackwell,,true,7,19579232,2,5,1,0,2013/1/1,,,1,0,0,0,0,5.00,560,ebook,,0,0,,,,"Antony Augoustakis,Ariana Traill",,,1,0,,
17941501,1118739930,Enzyme Technologies: Pluripotent Players in Discovering Therapeutic Agent,9781118739938,,,,ES,2013/12/27,Wiley-Interscience,,true,4,21907773,1,0,0,0,2013/1/1,,book,0,0,0,0,0,0.00,356,ebook,,0,0,"Hsiu-Chiung Yang,James R. McCarthy,Wu-Kuang Yeh",,,,,,1,0,,
17942001,1139229982,Defining Jewish Difference: From Antiquity to the Present,9781139229982,,,,ES,2012/2/21,Cambridge University Press,,true,7,13831484,6,4,1,0,2012/2/21,,,0,1,0,0,0,4.00,,ebook,,0,0,Beth A. Berkowitz,,,,,,3,0,1,
17942501,1438570384,The Miracle Man (eBook),9781438570389,,,,ES,2010/11/1,Book Jungle,,true,43,8436530,17,24,5,2,,,book,4,1,0,0,0,4.80,192,ebook,,0,0,Frank L. Packard,,,,,,10,1,,classics
17943001,1438577052,The Two Admirals,9781438577050,,,,ES,2010/11/1,Book Jungle,eng,true,84,8310602,131,101,28,4,1842/1/1,The Two Admirals,book,5,12,7,3,1,3.61,456,ebook,,0,0,James Fenimore Cooper,,,,,,84,4,4,"adventure,american,classics,fiction,historical-fiction,novels,reference"
17943501,1438582277,Fanny Herself,9781438582276,,,,ES,2010/11/1,Book Jungle,,true,76,967432,611,1202,304,40,1917/1/1,,book,103,110,71,14,6,3.95,260,ebook,,1,0,Edna Ferber,,,,,,223,11,23,"adult-fiction,biography,classic-literature,classics,family,feminism,fiction,historical-fiction,politics,religion,romance"
17944001,1459405234,Skinner's Banks,9781459405233,,,,ES,2013/9/18,Lorimer,,true,3,17943999,7,9,3,1,2013/8/1,,,0,0,3,0,0,3.00,160,ebook,,0,0,Brad V. Cowan,,,,,,3,1,,
17944501,147339077X,A Guide to Perfume Production - A Selection of Vintage Articles on the Methods and Ingredients of Perfumery,9781473390775,,,,ES,2013/4/16,Sims Press,,true,3,14486119,7,11,3,1,2011/10/4,,,1,1,0,1,0,3.67,108,ebook,,0,0,Various,,,,,,4,0,,
17945001,1480709026,Read & Succed Gr 2,9781480709027,,,,ES,2013/7/22,Teacher Created Materials,,false,1,17945001,0,0,0,0,2013/7/22,,,0,0,0,0,0,0.00,,Paperback,,0,0,Teacher Created Materials,,,,,,,0,,
17945501,1482938952,Quadrille,9781482938951,,,,ES,2013/10/1,Blackstone Audiobooks,eng,false,15,3567209,552,1072,316,17,1981/4/12,Quadrille,book,58,91,104,43,20,3.39,6,Audio CD,,1,0,"M.C. Beaton,Marion Chesney",,,,,Lindy Nettleton,116,7,22,"adult,drama,fiction,funny,historical,historical-fiction,regency,romance"
17946001,1608386031,"Distant Love, Mother Goose Classics, a Complete Collection, Volume 3, English to Chinese eTranslation 07: Eitz",9781608386031,,,,ES,2011/6/1,Mother Goose Press,,true,10,17946110,0,0,0,0,2011/6/1,,,0,0,0,0,0,0.00,194,ebook,,0,0,,,,H.Y. Xiao,,,,0,,
17946501,1627531173,The Twelve Days of Christmas,9781627531177,,,,ES,2013/6/1,Sleeping Bear Press,,true,5,15010758,44,87,25,6,2012/9/1,,,4,7,11,3,0,3.48,32,ebook,,0,0,,,,,,,8,5,2,"adventure,childrens,funny,holiday,picture-books,school"
17947001,311105991X,"Die Moralischen Wissenschaften. Ein Lehrbuch Der Moral, Rechtslehre Und Religion Nach Den Grunden Der Vernunft. Band 1",9783111059914,,,,ES,2012/5/10,Walter de Gruyter,,false,1,17947001,0,0,0,0,1797/1/1,,,0,0,0,0,0,0.00,388,Hardcover,,0,0,Friedrich Heinrich Christian Schwarz,,,,,,,0,,
17947501,1938702050,Sorrows of Adoration,9781938702051,,,,ES,2013/5/20,Smashwords,eng,true,2,355012,42,45,10,3,2003/10/1,Sorrows of Adoration,book,6,3,1,0,0,4.50,422,ebook,Second Edition,0,0,Kimberly Chapman,,,,,,27,2,,"fantasy,romance"
17948001,1400128765,Quarrel with the King: The Story of an English Family on the High Road to Civil War: The Story of an English Family on the High Road to Civil War,9781400128761,,,,ES,2008/11/4,Tantor Audio,eng,false,16,3688038,339,364,115,27,2008/1/7,Earls of Paradise,book,17,24,43,23,8,3.17,,Audio,,0,0,Adam Nicolson,,,,,,184,7,4,"biography,biography-memoir,historical,history,literature,medieval,non-fiction,novels,reference"
17948501,8440059019,"Leyendas y Tradiciones: Toledo, Cordoba, Granada",9788440059017,,,,ES,1973/1/1,Graf. Canete,,false,1,17948501,0,0,0,0,1973/1/1,,,0,0,0,0,0,0.00,250,Hardcover,,0,0,Francisco Valverde y Perales,,,,,,,0,,
17949001,0980715539,How to Make Love Last.: Keep the Sex Dirty and the Fights Clean,9780980715538,,,,ES,2012/9/5,Page Addie Press,,false,1,17949001,3,0,0,0,2012/9/5,,,0,0,0,0,0,0.00,134,Paperback,,0,0,Susan Blanshard,,,,,,2,0,1,
17949501,1457518880,In the Beginning...,9781457518881,,,,ES,2013/5/3,Dog Ear Publishing,,false,2,19428498,1,4,1,0,2013/2/14,,,0,1,0,0,0,4.00,212,Paperback,,0,0,Chris Fillmore,,,,,,,0,-1,
17950001,1482583852,Who Speaks for Earth?: A Memoir,9781482583854,,,,ES,2013/5/15,Createspace Independent Publishing Platform,,false,2,17950001,2,0,0,0,2013/5/15,,,0,0,0,0,0,0.00,196,Paperback,,0,0,Carlos Ledson Miller,,,,,,2,0,,
17950501,158925614X,I Don't Want to Go to Bed! Book & Puzzle Set,9781589256149,,,,ES,2013/9/1,Tiger Tales,,false,1,17950501,1,5,1,0,2013/9/1,,,1,0,0,0,0,5.00,,Unknown Binding,,1,0,,,,Tiger Tales,,,,0,,
17951001,1781321078,Music: A Journey of Discovery,9781781321072,,,,ES,2013/4/24,Silverwood Books,,false,1,17951001,0,0,0,0,2013/4/24,,,0,0,0,0,0,0.00,120,Paperback,,0,0,Peter Knight,,,,,,,0,,
17951501,,Text,,,,,ES,,,,false,1,17951501,663,1240,291,0,,,book,190,34,37,13,17,4.26,,,,291,0,Alyloony,,,,,,424,0,6,non-fiction
17957501,545899728X,Bull's Eye!: The Most Apt Reviews Poor Economics: A Radical Rethinking of the Way to Fight Global Poverty,9785458997287,,,,ES,2013/3/15,Lennex,,false,1,17957501,2,0,0,0,2013/3/15,,,0,0,0,0,0,0.00,44,Paperback,,0,0,Lucas Burring,,,,,,1,0,,
17961001,5517142931,Women Love Girth... the Fattest 100 Facts on Developing the Leader Within You,9785517142931,,,,ES,2013/1/18,Lennex,,false,1,17961001,1,5,1,0,2013/1/18,,,1,0,0,0,0,5.00,42,Paperback,,1,0,Joseph Brenting,,,,,,,0,,
17962001,551719303X,"100 Opinions You Can Trust on Gaia's Garden, Second Edition: A Guide to Home-Scale Permaculture",9785517193032,,,,ES,2013/3/29,Lennex,,false,1,17962001,4,0,0,0,2013/3/29,,,0,0,0,0,0,0.00,42,Paperback,,0,0,Anthony Manning,,,,,,4,0,,
17969001,,Running with Dogs: Dog-Friendly Races in the USA,,,,,ES,2013/4/18,SpryFeet.com,eng,true,5,25599320,2,0,0,0,2013/4/18,,book,0,0,0,0,0,0.00,68,Kindle Edition,4,0,0,Kirk Mahoney,,,,,,1,0,,
17969501,,Destinos Cruzados (Kissed by an Angel #4),9788563219558,,,,ES,2011/1/1,Novo Conceito,por,false,28,8724084,20147,35429,8758,529,2011/1/1,Evercrossed,book,3838,2427,1747,544,202,4.05,288,Paperback,,33,1,Elizabeth Chandler,,,,,,9175,44,197,"angels,contemporary,drama,fantasy,fiction,ghosts,mystery,paranormal,romance,supernatural,teen,urban-fantasy,young-adult"
17970001,1409132554,"A Place of Blood and Bone (DS Minter, #2)",9781409132554,,,,ES,2013/4/25,Orion,en-GB,false,7,17970001,98,217,56,7,2013/4/25,,book,14,25,13,4,0,3.88,320,Hardcover,,35,7,Mark Peterson,,,,,,26,3,2,
17970501,,A Marker to Measure Drift,,B00BABT9Z0,,,ES,2013/7/30,Random House Digital,en-US,true,21,16156289,4367,5166,1377,252,2013/7/30,,book,324,558,361,97,37,3.75,240,Kindle Edition,,41,5,Alexander Maksik,,,,,,2767,29,47,"adult,adult-fiction,amazon,american,contemporary,fiction,historical,historical-fiction,literary-fiction,literature,novels,relationships,war"
17971001,,The Gray Dawn,,,,,ES,1915/1/1,Grosset & Dunlap,eng,false,31,22676640,129,171,51,3,1915/1/1,The Gray Dawn,book,11,12,17,6,5,3.35,395,Hardcover,,1,0,Stewart Edward White,,,,,,21,0,42,"classics,fiction"
17972001,,Pale di San Martino,,,,,ES,2004/1/1,CDA & Vivalda Editori,ita,false,3,17972001,3,8,2,0,2004/1/1,,book,0,2,0,0,0,4.00,144,Paperback,,1,0,Various,,,,,,1,0,,
17972501,,Sex và những thứ khác,,,,,ES,2013/2/6,NXB Thời Đại,vie,false,3,17730293,126,210,66,13,1013/2/6,,book,9,15,24,15,3,3.18,144,Paperback,,1,1,Tâm Phan,,,,,,45,0,1,non-fiction
17973001,,Convention Book: N.W.O.,2370004618685,,,,ES,2012/1/1,Onyx Path Publishing,eng,false,1,17973001,25,42,11,1,2012/1/1,Convention Book: N.W.O.,book,2,5,4,0,0,3.82,100,Paperback,,11,1,"David A. Hill Jr.,Leonard Balsera,Lillian Cohen-Moore",,,,,,10,0,,
17973501,886717066X,Le uguaglianze diverse,9788867170661,,,,ES,2013/5/20,Adda,ita,false,1,17973501,4,9,2,0,2013/5/20,Le uguaglianze diverse,book,1,1,0,0,0,4.50,216,Paperback,,2,0,Nunzio Smacchia,,,,,,,0,1,
17974001,,Théâtre de l'opprimé,9782707152374,,,,ES,,,fre,false,27,941958,2912,4493,1067,33,1977/1/1,Teatro do Oprimido,book,469,396,166,30,6,4.21,207,,Editions La Découverte,2,0,Augusto Boal,,,,,,1526,6,83,"academic,anthropology,art,drama,education,essays,fiction,film,history,non-fiction,philosophy,plays,politics,reference,research,school,teaching,theatre,writing"
17974501,,Map Projections,,,,,ES,1994/1/1,ESRI Press,eng,false,1,17974501,1,0,0,0,1994/1/1,,book,0,0,0,0,0,0.00,148,Paperback,,0,0,ESRI,,,,,,1,0,,
17975001,3845301368,"Perry Rhodan 137: Sturm auf die Galaxis (Perry Rhodan - Heftromane, #137)",9783845301365,,,,ES,2011/7/20,Perry Rhodan digital,ger,true,4,17975001,10,33,8,1,1974/1/1,Sturm auf die Galaxis,book,2,5,1,0,0,4.12,64,ebook,,4,1,Kurt Brand,,,,,,,0,,science-fiction
17975501,9026941374,Doodgaan went,9789026941375,,,,ES,1992/1/1,Het Wereldvenster,nl,false,6,2458029,79,101,30,5,1989/1/1,Getting Used to Dying,book,3,11,11,4,1,3.37,303,Paperback,,3,0,"X.L. Zhang,Zhang Xianliang",,,,Rint Sybesma,,36,3,,"fiction,historical-fiction,literature"
17976001,9949253411,Kuidas häbistada daami,9789949253418,,,,ES,2013/3/11,ERSEN,est,false,20,13548199,666,1099,305,44,2012/1/1,How to Disgrace a Lady,book,58,116,94,26,11,3.60,264,Paperback,,5,1,Bronwyn Scott,,,,Leena Suits,,262,9,13,"funny,harlequin,historical,historical-fiction,novels,regency,romance"
17976501,,The Intimidators,,,,,ES,,Image Comics,eng,false,1,17976501,5,5,3,0,,,book,0,0,1,0,2,1.67,,,,3,0,"Miguel Montenegro,Neil Kleid",,,,,,1,1,,
17977001,,El tunel,,,,,ES,,,spa,false,182,53447,56429,144033,35602,2247,1948/1/1,El túnel,book,13304,13350,6715,1735,498,4.05,141,Paperback,Large print,5,0,Ernesto Sabato,,,,,,14499,124,609,"adult,classics,contemporary,crime,drama,fiction,literary-fiction,literature,modern-classics,mystery,novella,novels,philosophy,romance,school,thriller"
17977501,8125925927,O Jerusalem!,9788125925927,,,,ES,2007/1/1,Vikas Publishing House Pvt. Ltd.,eng,false,49,108925,6570,12182,2835,259,1972/1/1,O Jerusalem!,book,1363,1047,348,58,19,4.30,784,Paperback,2007 Revised Edition,18,1,"Dominique Lapierre,Larry Collins",,,,,,2720,8,414,"fiction,historical,historical-fiction,history,non-fiction,politics,reference,religion,thriller,unfinished,war"
17978001,,جوانی از آتلانتا,,,,,ES,,نشر افراز,per,false,9,450444,432,548,166,14,1995/12/1,The Young Man From Atlanta.,book,21,49,64,23,9,3.30,96,,,3,0,Horton Foote,,,,سکینه عرب‌نژاد,,221,14,2,"adult,american,drama,fiction,gay,plays,theatre"
17978501,0552170399,A Down to Earth Guide to the Cosmos,9780552170390,,,,ES,2015/1/15,Corgi,,false,6,17168292,87,79,19,3,2013/1/1,,book,7,8,4,0,0,4.16,352,Paperback,,3,1,Mark    Thompson,,,,,,51,5,2,"christmas,nature,non-fiction,reference,science"
17979501,3639398734,"Repowering von Windparks zur regenerativen Wasserstofferzeugung: ""Windgas"" als Energiespeicher",9783639398731,,,,ES,2012/4/13,AV Akademikerverlag,ger,false,1,17979501,0,0,0,0,2012/4/13,,book,0,0,0,0,0,0.00,132,Paperback,,0,0,Andreas Stampfl,,,,,,,0,,
17980001,1405336684,Human Body,9781405336680,,,,ES,2010/1/1,Dorling Kindersley,eng,false,12,5818484,108,115,28,4,2001/1/1,Human Body (Eyewitness Books),book,14,5,7,2,0,4.11,61,Hardcover,,3,0,Richard Walker,,,,,,41,1,1,"non-fiction,reference,science"
17980501,,Biology: A Guide to the Natural World,,,,,ES,2009/12/1,Benjamin-Cummings Publishing Company,eng,false,49,4046042,117,183,59,3,1999/9/1,Biology: A Guide to the Natural World,book,6,20,17,6,10,3.10,856,Paperback,,0,0,David Krogh,,,,,,24,0,2,"nature,textbooks"
17981001,0749470933,"British Qualifications 2014: A Complete Guide to Professional, Vocational and Academic Qualifications in the United Kingdom",9780749470937,,,,ES,2013/12/28,Kogan Page,,false,2,17981001,0,0,0,0,2013/12/3,,,0,0,0,0,0,0.00,560,Paperback,,0,0,Kogan Page Ltd.,,,,,,,0,,
17982501,,Белия зъб / Дивото зове,,,,,ES,1980/5/30,"Издателство ""Народна младеж""",bul,false,65,37677,85361,282311,68893,568,1906/1/1,The Call of the Wild / White Fang,book,28721,23223,12980,2905,1064,4.10,270,Hardcover,,25,0,"Jack London,Джек Лондон",,,,"Асен Георгиев Христофоров,Сидер Флорин",,12191,31,567,"action,adult-fiction,adventure,american,animals,childrens,classic-literature,classics,fantasy,fiction,high-school,historical,historical-fiction,juvenile,literary-fiction,literature,nature,novels,realistic-fiction,school,survival,travel,young-adult"
17983001,,Hittin the Trail: Day Hiking Grand Canyon National Park,9780985873981,,,,ES,2013/5/20,Atiswinic Press,eng,true,2,17983001,8,35,7,0,2013/5/19,,book,7,0,0,0,0,5.00,,ebook,,4,0,Rob  Bignell,,,,,,1,0,,
17983501,,Røde Orm: Søfarer i Vesterled (Røde Orm #1),,,,,ES,,Lademann,dan,false,20,9921775,1052,2384,577,23,1941/1/1,Röde Orm: Sjöfarare i västerled,book,244,196,111,21,5,4.13,254,Hardcover,,17,1,Frans G. Bengtsson,Gunnar Grusewitz,,,Kjeld Elfelt,,202,19,17,"adventure,classics,fiction,historical,historical-fiction,history"
17984001,,"How to Make, Market and Sell Ebooks All for Free",,,,,ES,,,eng,false,1,8814244,257,399,101,25,2010/3/15,,book,38,27,31,3,2,3.95,,,,1,1,Jason Matthews,,,,,,116,1,12,"business,non-fiction,writing"
17984501,,"Hot Mess (Stories of Serendipity, #4)",,B00DZPRMM6,,,ES,2013/7/16,,eng,true,3,17984501,382,348,81,41,2013/7/16,,book,41,27,11,0,2,4.30,243,Kindle Edition,,81,41,Anne Conley,,,,,,283,9,2,"drama,family,fiction,inspirational,love,romance"
17985001,,The Lobotomist A maverick medical genius and his tragic quest to rid the world of mental illness,,,,,ES,2005/1/1,"John Wiley & Sons, Inc.",eng,false,5,545983,2965,2380,633,70,2005/1/1,The Lobotomist: A Maverick Medical Genius and His Tragic Quest to Rid the World of Mental Illness,book,147,257,175,38,16,3.76,362,,,1,0,Jack El-Hai,,,,,,2166,7,48,"american-history,biography,biography-memoir,health,history,medical,mental-health,mental-illness,non-fiction,psychology,research,science,sociology"
17985501,,What you need to lead an Early Childhood Program: Emotional Intelligence in Practice,9781928896807,,,,ES,2012/1/1,National Association for the Education of Young Children,eng,false,1,17985501,62,19,6,0,2012/1/1,,book,1,3,0,0,2,3.17,306,Paperback,,6,0,Holly Elissa Bruno,,,,,,44,1,3,
17986001,,diary of a heretic,,,,,ES,,,,false,1,17986001,0,0,0,0,,,book,0,0,0,0,0,0.00,,,,0,0,kathleen mahjer,,,,,,,0,,
17986501,0415716020,Functional Future for Bibliographic Control: Transitioning Into New Communities of Practice and Awareness,9780415716024,,,,ES,2013/11/4,Routledge,,false,3,17986501,2,0,0,0,2013/11/18,,,0,0,0,0,0,0.00,280,Hardcover,,0,0,,,,Shawne D Miksa,,,1,0,,
17987001,0606322566,"Otherkin (Otherkin, #1)",9780606322560,,,,ES,2012/7/31,Turtleback Books,eng,false,8,12879875,5195,5099,1325,212,2012/1/1,,book,417,465,306,99,38,3.85,320,Hardcover,,1,1,Nina Berry,,,,,,3469,32,57,"action,adventure,demons,fantasy,fiction,inspirational,magic,mystery,paranormal,romance,school,shapeshifters,supernatural,teen,urban-fantasy,werewolves,young-adult"
17987501,0803739753,"The Forbidden Library (The Forbidden Library, #1)",9780803739758,,,,ES,2014/4/15,Kathy Dawson Books,eng,false,16,17987501,14147,12563,3313,551,2014/4/1,The Forbidden Library,book,823,1292,937,208,53,3.79,376,Hardcover,US edition,2867,471,Django Wexler,,,,,,9732,70,165,"action,adventure,animals,childrens,fantasy,fiction,high-fantasy,historical,juvenile,magic,middle-grade,mystery,novels,urban-fantasy,young-adult"
17988001,1107624002,Philo's Bible: The Aberrant Text of Bible Quotations in Some Philonic Writings,9781107624009,,,,ES,2013/8/6,Cambridge University Press,,false,2,17988001,0,0,0,0,2013/9/26,,,0,0,0,0,0,0.00,174,Paperback,,0,0,Peter Katz,,,,,,,0,,
17988501,1134875983,The Psychology of Today's Woman: New Psychoanalytic Visions,9781134875986,,,,ES,2013/5/13,Routledge,,true,7,229931,4,0,0,0,1986/1/1,The Psychology of Today's Woman,,0,0,0,0,0,0.00,377,ebook,,0,0,,,,"Dorothy Cantor,Toni Bernay",,,1,0,1,
17989001,113542943X,The Biopsychosocial Formulation Manual: A Guide for Mental Health Professionals,9781135429430,,,,ES,2013/8/21,Routledge,,true,6,900858,36,58,15,3,2006/1/1,The Biopsychosocial Formulation Manual: A Guide for Mental Health Professionals,book,4,7,3,0,1,3.87,176,ebook,,0,0,"Robert M. Rohrbaugh,William H. Campbell",,,,,,15,2,2,
17989501,1444317164,Veterinary Epidemiology: An Introduction,9781444317169,,,,ES,2013/5/13,Wiley-Blackwell,,true,5,13055392,15,14,4,0,2009/12/31,,,2,0,1,0,1,3.50,152,ebook,,0,0,Dirk Pfeiffer,,,,,,8,0,1,college
17990001,1473386942,"The Practical Bee-Keeper; Or, Concise and Plain Instructions for the Management of Bees and Hives",9781473386945,,,,ES,2013/5/31,Butler Press,,true,8,9720848,5,0,0,0,,,,0,0,0,0,0,0.00,158,ebook,,0,0,John Milton,,,,,,5,0,,
17990501,1488507082,The Radha Mitchell Handbook - Everything You Need to Know about Radha Mitchell,9781488507083,,,,ES,2013/5/18,Emereo Publishing,,true,3,17990501,1,0,0,0,2013/1/1,,,0,0,0,0,0,0.00,132,ebook,,0,0,Emily   Smith,,,,,,1,0,,
17991001,1622472365,Assunzione di controllo: Storia di una introduzione al bondage,9781622472369,,,,ES,2013/3/22,Black Serpent Books,ita,true,9,17991002,4,1,1,0,2013/2/13,,book,0,0,0,0,1,1.00,,ebook,,0,0,Caralyn Knight,,,Seth Daniels,,,2,0,,romance
17991501,1907837558,Farm Visit Scrap Book,9781907837555,,,,ES,2013/5/1,Longshot Ventures Ltd,,false,1,17991501,0,0,0,0,2013/5/1,,,0,0,0,0,0,0.00,34,Paperback,,0,0,Tagore Ramoutar,,,,,,,0,,
17992001,3732231151,Uniting the States: A Commentary on the American Constitution: Third Edition,9783732231157,,,,ES,2015/10/15,Books on Demand,,false,2,17992001,0,0,0,0,2013/5/22,,,0,0,0,0,0,0.00,184,Paperback,,0,0,Lucas Kent Ogden,,,,,,,0,,
17992501,9789583017,¿Cómo somos? Los colombianos - Reflexiones sobre nuestra idiosincracia y cultura,,,,,ES,2005/4/1,Panamericana Editorial Ltda,spa,false,1,17992501,116,51,17,1,2005/4/1,,book,2,4,6,2,3,3.00,400,Hardcover,3era Edición,17,1,Germán Puyana García,,,,,,76,0,11,
17993001,0794533647,Motorcyles,9780794533649,,,,ES,2013/6/1,Usborne Books,,false,1,17993001,3,5,1,0,2013/6/1,,book,1,0,0,0,0,5.00,80,Hardcover,,1,0,L. Gilespie,,,,,,2,0,,non-fiction
17993501,1429604816,Exploring the Earth Collection,9781429604819,,,,ES,2007/1/1,Capstone Press,,false,1,17993501,0,0,0,0,2007/1/1,,,0,0,0,0,0,0.00,96,Paperback,,0,0,,,,,,,,0,,
17994001,,"Неравный бой (Американец, #2)",9785992214697,,,,ES,2013/4/1,Альфа-книга,rus,false,1,17994001,1,4,1,0,2013/4/1,Неравный бой,book,0,1,0,0,0,4.00,312,Hardcover,,1,0,Григорий Рожков,,,,,,,0,,
17994501,1483640817,Blood Brothers: The Forgotten Children of the Mound Builders,9781483640815,,,,ES,2013/5/23,Xlibris,,false,2,17994501,2,0,0,0,2013/5/23,,,0,0,0,0,0,0.00,306,Paperback,,0,0,Sherry Cottle Graham,,,,,,1,0,1,
17995001,148950950X,Just Point at Him,9781489509505,,,,ES,2013/5/21,Createspace Independent Publishing Platform,,false,1,17995001,82,5,1,0,2013/5/21,,,1,0,0,0,0,5.00,188,Paperback,,1,0,Snjezana Marinkovic,,,,,,81,1,,
17995501,184951870X,Cinder Creative Coding Cookbook,9781849518703,,,,ES,2013/5/16,Packt Publishing,,false,2,17995501,19,46,11,6,2013/5/16,,,4,5,2,0,0,4.18,352,Paperback,,9,6,Dawid Gorny,,,,,,3,2,,
17996001,3639520378,La Fe Humana Asegura Exito,9783639520378,,,,ES,2013/3/22,Credo Ediciones,,false,1,17996001,0,0,0,0,2013/3/22,,,0,0,0,0,0,0.00,112,Paperback,,0,0,Saracho Zamora Sergio Ernesto,,,,,,,0,,
17996501,3941263552,Luciano Fabro: 100 Disegni,9783941263550,,,,ES,2013/10/31,Richter Verlag,,false,1,17996501,0,0,0,0,2013/8/30,,,0,0,0,0,0,0.00,152,Hardcover,,0,0,,,Luciano Fabro,,,,,0,,
17997001,9021013398,Vis / Mosselen / Garnalen (Wina's culinaria),,,,,ES,1978/1/1,Zomer & Keuning,nl,false,1,17997001,1,3,1,0,1978/1/1,Vis / Mosselen / Garnalen ,book,0,0,1,0,0,3.00,104,Paperback,Wina's culinaria / Lekker boeken,1,0,Lily van Pareren,,,,,,,0,,cookbooks
17997501,,kadhayude mukhangal,,,,,ES,,,mal,false,1,17997501,1,3,1,0,,,book,0,0,1,0,0,3.00,96,Paperback,,1,0,satheesh chelattu,,,,,,,0,,
17998001,,"De man die de wereld wilde redden, het leven van Sergio Vieira de Mello",9789025426064,,,,ES,2008/1/1,Contact,nl,false,23,2017247,3033,4572,1068,122,2008/2/1,Chasing The Flame: Sergio Vieira de Mello and the Fight to Save the World,book,513,384,140,20,11,4.28,687,Hardcover,,1,0,Samantha Power,,,,"Annoesjka Oostindiër,Ronald Kuil",,465,13,12,"autobiography,biography,biography-memoir,history,international,non-fiction,politics,social,war"
17998501,,The Invited,9781458083302,,,,ES,2011/2/12,Smashwords Edition,,true,3,17998501,11,33,8,0,2011/2/12,,,6,0,0,1,1,4.12,,ebook,,7,0,Richard Paolinelli,,,,,,2,1,,
17999001,,The Goddess Workshop,,,,,ES,2013/5/1,Create Space,eng,false,6,40239692,155,79,21,7,2013/3/2,,book,5,10,4,0,2,3.76,361,Paperback,1,9,4,Margaret K.  Johnson,,,,,,127,0,1,"chick-lit,comedy"
17999501,1490309268,The Girl from Reading Center,9781490309262,,,,ES,2013/5/30,CreateSpace,eng,false,1,17999501,693,109,27,14,2013/5/30,,book,12,7,6,1,1,4.04,30,Paperback,,27,14,Aaron B. Powell,,,,,,667,5,1,"fiction,realistic-fiction,romance"
18000001,,New Solutions - A Model of Aggressive Evangilism,,,,,ES,,,,false,2,18000001,4,0,0,0,,,book,0,0,0,0,0,0.00,,,,0,0,"Louie E. Bustle, Bruno Radi",,,,,,1,0,,
18000501,,"Pennies On a Dead Woman's Eyes (Sharon McCone, #13)",,,,,ES,,,,true,10,669605,1975,5028,1286,48,1992/1/1,Pennies on a Dead Womans Eyes,book,342,546,345,46,7,3.91,,ebook,,0,0,Marcia Muller,,,,,,253,12,7,"american,crime,detective,fiction,mystery,mystery-thriller,thriller"
18001001,9188879623,Flickan utan minne,9789188879622,,,,ES,2004/1/1,Tiden,swe,false,1,18001001,31,85,23,0,2004/1/1,,book,6,7,8,1,1,3.70,112,,,23,0,Petter Lidbeck,,,,,,2,0,,
18001501,,Qasas-ul-Auliya,,,,,ES,2005/1/1,Idara Peegham-ul-Quran,urd,false,1,18001501,255,113,30,2,2005/1/1,,book,13,6,6,1,4,3.77,352,Hardcover,First,30,2,Alam Faqri,,,,,,201,0,13,religion
18002001,,എൻറെ സത്യാന്വേഷണ പരീക്ഷണങ്ങൾ -   ആത്മകഥ,,,,,ES,,,,false,1,18002001,99,46,11,1,,,book,6,2,2,1,0,4.18,,,,11,1,എം.കെ.ഗാന്ധി,,,,,,82,0,4,
18002501,1481168762,Nameless Mountain,9781481168762,,,,ES,2012/12/12,Createspace Independent Publishing Platform,,false,3,18002501,7,12,4,1,2012/6/23,,book,0,1,2,1,0,3.00,170,Paperback,,0,0,Ed Teja,,,,,,1,0,1,
18003001,,ഗണ ദേവത,,,,,ES,,,,false,1,18003001,3,8,2,0,,,book,1,0,1,0,0,4.00,,,,2,0,താരാശങ്കർ ബാനർജീ,,,,,,1,0,,
18003501,1903474302,Understanding Blood Pressure (Family Doctor),9781903474303,,,,ES,2006/7/27,Family Doctor Publications,eng,false,4,18003501,9,9,3,1,2000/1/1,Understanding Blood Presssure,book,0,1,1,1,0,3.00,176,Paperback,,2,1,D. Gareth Beevers,,,,,,4,0,,non-fiction
18004001,1484186427,The Theory of My Wonders,9781484186428,,,,ES,2013/5/30,createspace,eng,false,2,18004001,266,51,14,8,2013/5/30,,book,6,3,0,4,1,3.64,260,Paperback,,14,8,T.S.W. Sharman,,,,,,252,6,,
18004501,0263708160,Gates of Dawn,9780263708165,,,,ES,1967/11/1,Mills & Boon,eng,false,3,8717613,8,11,4,2,1954/1/1,The Gates of Dawn,book,1,0,1,1,1,2.75,192,Paperback,,1,0,Susan Barrie,,,,,,3,1,,
18005001,0719086078,"Housewives and Citizens: Domesticity and the Women's Movement in England, 1928–64",9780719086076,,,,ES,2013/10/29,Manchester University Press,,false,1,18005001,3,5,2,0,2013/10/29,,,0,0,1,1,0,2.50,272,Hardcover,,2,0,Caitriona Beaumont,,,,,,1,0,,academic
18005501,1623652642,Philosophy: A Beginner's Guide to the Ideas of 100 Great Thinkers,9781623652647,,,,ES,2013/11/5,Quercus,,true,9,8745968,290,240,65,9,2010/12/31,,,12,27,22,2,2,3.69,192,ebook,,0,0,Jeremy Harwood,,,,,,38,3,12,"anthologies,biography,history,non-fiction,philosophy,reference,spirituality,theology"
18006001,9788849137,La parabola. Ascesa e declino della contrattazione collettiva in Italia.,,,,,ES,2013/5/3,CLUEB,ita,false,1,18006001,3,3,1,0,2013/5/3,,book,0,0,1,0,0,3.00,200,Paperback,edizione aggiornata al 2013,1,0,Mario Ricciardi,,,,,,2,0,,
18006501,,Beautiful Downfall,,B00DD704VC,,,ES,2013/6/11,,en-US,true,3,18006501,1217,1159,317,75,2013/6/10,Beautiful Downfall,book,96,88,81,32,20,3.66,251,Kindle Edition,,317,75,Scarlett Jade,,,,,,794,28,11,"amazon,angels,fantasy,love,new-adult,paranormal,romance"
18007001,1452612447,"A Funny Thing Happened on the Way to Heaven: Or, How I Made Peace with the Paranormal and Stigmatized Zealots and Cynics in the Process",9781452612447,,,,ES,2013/7/16,Tantor Media,eng,false,15,16043525,3525,5995,1504,172,2013/6/20,,book,598,462,307,99,38,3.99,8,Audio CD,,0,0,Corey Taylor,,,,,,1598,20,146,"adult-fiction,autobiography,biography,biography-memoir,comedy,ghosts,horror,humor,memoir,music,non-fiction,novels,paranormal"
18007501,,Qué sabe Peter Holder de amor,9789568940195,,,,ES,2012/1/1,Chancacazo,spa,false,2,18007501,27,63,21,5,2012/1/1,Qué sabe Peter Holder de amor,book,4,2,7,6,2,3.00,112,Paperback,,21,5,Vladimir Rivera Órdenes,,,,,,4,0,,
18008001,0691160791,An Uncertain Glory: India and Its Contradictions,9780691160795,,,,ES,2013/8/11,Princeton University Press,eng,false,18,18008001,4298,4662,1134,104,2013/1/1,,book,395,521,175,35,8,4.11,433,Hardcover,,957,91,"Amartya Sen,Jean Drèze",,,,,,659,16,249,"academic,anthropology,economics,education,history,non-fiction,philosophy,politics,sociology,unfinished"
18008501,1285762894,Understanding Social Problems,9781285762890,,,,ES,2015/3/6,Wadsworth Publishing,,false,39,406482,203,320,91,4,1996/8/1,Understanding Social Problems,book,25,24,25,7,10,3.52,608,Loose-Leaf,,0,0,"Caroline Schacht,David Knox,Linda A. Mooney",,,,,,57,4,9,"adult,economics,fiction,psychology,reference,school,sociology,textbooks"
18009001,,"Three Essays: Cannibalism, The Kumbh Mela, The Legacy of Arab Science",,B00D3RGUTC,,,ES,2013/5/29,Secretum Mundi,en-GB,true,2,18009001,67,108,26,3,2013/5/29,,book,14,5,5,1,1,4.15,,ebook,,26,3,Tahir Shah,,,,,,32,2,,"cultural,essays,non-fiction,society,travel"
18009501,1483642062,Life Will Take You There,9781483642062,,,,ES,2013/5/29,Xlibris Corporation,,false,5,18009500,0,0,0,0,2013/5/29,,,0,0,0,0,0,0.00,74,Hardcover,,0,0,Latoya Marshall,,,,,,,0,,
18010001,1612042007,The Economics of Education,9781612042008,,,,ES,2013/5/14,"Strategic Book Publishing & Rights Agency, LLC",,false,1,18010001,8,5,2,1,2013/5/14,,book,0,1,0,0,1,2.50,146,Paperback,,2,1,Samuel Akinyemi,,,,,,5,1,1,
18010501,3658016299,Gender- Und Diversity-Management: Frauen ALS Fach- Und Fuhrungskrafte Fur Unternehmen Gewinnen,9783658016296,,,,ES,2013/6/6,Springer vs,,false,1,18010501,0,0,0,0,2013/6/30,,,0,0,0,0,0,0.00,296,Paperback,,0,0,Sandra Struthmann,,,,,,,0,,
18011001,3838178505,L'Influence de Certains Aliments Sur Des Fonctions Immunitaires,9783838178509,,,,ES,2013/2/12,Acada(c)Miques,,false,1,18011001,0,0,0,0,2013/2/12,,,0,0,0,0,0,0.00,260,Paperback,,0,0,Fan Cuibai,,,,,,,0,,
18011501,3847394762,Nogaytsy Glazami Puteshestvennikov,9783847394761,,,,ES,2012/6/7,Palmarium Academic Publishing,,false,1,18011501,0,0,0,0,2012/6/7,,,0,0,0,0,0,0.00,508,Paperback,,0,0,Kidirniyazov Daniyal,,,,,,,0,,
18012001,3854388942,Lunatic Castle with a Lakeside View,9783854388944,,,,ES,2013/5/24,United P.C. Verlag,,false,1,18012001,0,0,0,0,2013/5/24,,,0,0,0,0,0,0.00,192,Paperback,,0,0,Barbel Kiy,,,,,,,0,,
18012501,0415716446,Routledge Library Editions: Linguistics Mini-Set a General Linguistics,9780415716444,,,,ES,2013/12/2,Routledge,,false,4,18012501,1,0,0,0,2013/11/15,,,0,0,0,0,0,0.00,3864,Hardcover,,0,0,,,,Various,,,1,0,,
18013001,0813134110,The Family Legacy of Henry Clay,9780813134116,,,,ES,2011/8/16,University Press of Kentucky,,true,5,12132548,12,16,4,1,2011/8/1,,,2,0,2,0,0,4.00,364,ebook,,0,0,Lindsey Apple,,,,,,6,0,,
18013501,0824838963,The Watersmart Garden: 100 Great Plants for the Tropical Xeriscape,9780824838966,,,,ES,2013/11/30,Latitude 20,,false,1,18013501,3,3,1,0,2013/11/30,,,0,0,1,0,0,3.00,236,Paperback,,1,0,Fred D. Rauch,,,,,,1,0,,
18014001,1134832656,"International Perspectives on Psychological Science, II: The State of the Art",9781134832651,,,,ES,2013/5/24,Psychology Press,,true,6,19899231,0,0,0,0,1994/5/1,,,0,0,0,0,0,0.00,416,ebook,,0,0,"Géry d'Ydewalle,Paul Bertelson,Paul Eelen",,,,,,,0,,
18014501,1422228304,Obsessive-Compulsive Disorder,9781422228302,,,,ES,2013/11/27,"Mason Crest, an Imprint of National Highlights Inc",,false,2,18014501,6,4,1,1,2013/9/1,,book,0,1,0,0,0,4.00,128,Hardcover,,1,1,Shirley Brinkerhoff,,,,,,3,0,1,
18015001,1447492927,Ballroom Dancing Made Easy - Dance Your Way to Better Health and Social Recognition,9781447492924,,,,ES,2013/4/1,McMaster Press,,true,1,18015001,0,0,0,0,2013/4/16,,,0,0,0,0,0,0.00,138,ebook,,0,0,Angela Rosanova,,,,,,,0,,
18015501,1466988169,Sons of Indentured,9781466988163,,,,ES,2013/5/30,Trafford Publishing,,false,2,18015501,1,0,0,0,2013/5/30,,,0,0,0,0,0,0.00,50,Paperback,,0,0,Selwyn C Lutchman,,,,,,1,0,,
18016001,1478714271,When You Have to Be the Man: Single Mothers Who Lead with God as the Head,9781478714279,,,,ES,2013/5/30,Outskirts Press,,false,1,18016001,1,5,1,1,2013/5/30,,,1,0,0,0,0,5.00,110,Paperback,,1,1,Sabrina Blount Watson,,,,,,,0,,
18016501,1486447449,Alamo Ranch - A Story of New Mexico - The Original Classic Edition,9781486447442,,,,ES,2013/3/18,Emereo Publishing,,true,4,19463191,46,29,10,1,2010/1/21,,,1,3,3,0,3,2.90,50,ebook,,0,0,Sarah Warner Brooks,,,,,,10,0,23,fiction
18017001,1486499317,International Law. a Treatise. Volume II (of 2) - War and Neutrality. Second Edition - The Original Classic Edition,9781486499311,,,,ES,2013/3/18,Emereo Publishing,,true,7,19376850,28,29,8,1,2010/12/28,,,4,0,2,1,1,3.62,350,ebook,,0,0,Lassa Francis L. Oppenheim,,,,,,12,0,8,
18017501,1621272958,Iguana (I Love my Pet),9781621272953,,,,ES,2013/8/15,Av2 by Weigl,,false,3,18017501,2,8,2,0,,,,1,0,1,0,0,4.00,,Hardcover,,2,0,Aaron Carr,,,,,,,1,,
18018001,1909484121,We Came to a River,9781909484122,,,,ES,2013/6/22,Canaan-Star Publishing,,true,2,18018001,0,0,0,0,2013/6/22,,,0,0,0,0,0,0.00,,ebook,,0,0,Barbara Maitra,,,,,,,0,,
18018501,3659982377,Kul'tura Polyni Estragonnoy V Aridnoy Zone Yuga Rossii,9783659982378,,,,ES,2013/1/22,Palmarium Academic Publishing,,false,1,18018501,0,0,0,0,2013/1/22,,,0,0,0,0,0,0.00,228,Paperback,,0,0,"Dridiger Viktor,Yanov Vladimir",,,,,,,0,,
18019001,7770530237,Becoming a Vessel of God's Power,,,,,ES,2009/2/18,Waterbrook Press,,true,5,1500157,49,54,13,1,2007/7/17,Becoming a Vessel of God's Power: Give God Thirty Days and See What He Will Do,,7,3,1,2,0,4.15,288,ebook,,0,0,Donna Partow,,,,,,26,1,4,christianity
18019501,7770552362,The Billionaire's Convenient Wife Bundle,,,,,ES,2009/3/1,Harlequin Presents Extra,,true,5,6477080,43,66,19,1,2009/1/1,The Billionaire-s Convenient Wife Bundle,book,4,2,12,1,0,3.47,,ebook,,0,0,"Daphne Clair,Kim Lawrence,Margaret Mayo",,,,,,11,0,5,contemporary
18020001,7770577624,Brother Word,,,,,ES,2009/2/28,Grand Central Publishing,,true,8,1647150,61,128,33,5,2006/1/1,Brother Word,,13,9,7,2,2,3.88,,ebook,,0,0,Derek Jackson,,,,,,16,1,,"christian-fiction,fiction,inspirational"
18020501,7770608309,The Facts of Life,,,,,ES,2009/3/12,Random House,,true,12,830220,880,1586,433,42,2002/1/1,The Facts of Life: and Other Dirty Jokes,book,98,156,125,43,11,3.66,248,ebook,,1,0,Willie Nelson,,,,,,271,8,67,"adult,autobiography,biography,biography-memoir,humor,memoir,music,non-fiction,social-issues"
18021001,7770622417,Acres of Diamonds,,,,,ES,2009/3/2,Waking Lion Press,,true,342,49232,14840,30356,7180,207,1892/1/1,Acres of Diamonds,book,3700,1998,1042,298,142,4.23,,ebook,,0,0,Russell H. Conwell,,,,,,6900,23,308,"business,christian,classics,economics,education,fiction,history,inspirational,leadership,non-fiction,personal-development,philosophy,psychology,self-help,spirituality"
18021501,7770631009,Rescuing the Virgin,,,,,ES,2009/4/1,Harlequin Intrigue,,true,12,41151732,111,134,37,11,2009/1/1,Rescuing The Virgin (The McKenna Legacy) (Harlequin Intrigue #1128),book,9,9,15,4,0,3.62,224,ebook,,0,0,Patricia Rosemoor,,,,,,47,6,,"harlequin,romance"
18022001,7770639638,"Denise's Daily Dozen: The Easy, Every Day Program to Lose 12 Pounds in 2 Weeks",,,,,ES,2010/1/5,Center Street,,true,6,7167301,408,586,153,28,2009/12/29,,,53,44,39,11,6,3.83,,ebook,,0,0,Denise Austin,,,,,,149,7,19,"classics,cooking,health,non-fiction,self-help"
18022501,7770647959,Optical Communications Rules of Thumb,,,,,ES,2002/11/20,McGraw-Hill Professional Publishing,,true,7,2922912,6,6,2,0,2002/1/1,Optical Communications Rules of Thumb,,0,1,0,1,0,3.00,428,ebook,,0,0,"Ed Friedman,John Lester Miller",,,,,,3,0,,
18023001,7770656990,Going Down Hard,,,,,ES,2009/5/1,Harlequin Blaze,,true,10,6310576,365,468,123,11,2009/1/1,Going Down Hard,book,37,40,35,7,4,3.80,224,ebook,,0,0,Tawny Weber,,,,,,196,12,2,"adult,chick-lit,contemporary,erotica,fiction,harlequin,romance"
18023501,7770663059,Me Talk Pretty One Day,,,,,ES,2009/5/4,Back Bay Books,,true,65,4137,903757,2246953,564829,16244,2000/5/2,Me Talk Pretty One Day,book,216361,193957,101658,31493,21360,3.98,,ebook,,0,0,David Sedaris,,,,,,56178,498,1777,"adult,american,autobiography,biography,biography-memoir,comedy,contemporary,essays,family,fiction,france,funny,gay,humor,lgbt,literature,memoir,non-fiction,queer,short-stories,unfinished"
18024001,7770675847,"Coulda Been a Cowboy (Dundee, Idaho, #8)",,,,,ES,2007/6/1,Harlequin Special Releases,,true,20,21518909,4326,7941,2019,150,2007/6/1,Coulda Been a Cowboy ,book,656,731,499,107,26,3.93,288,ebook,,0,0,Brenda Novak,,,,,,60,41,100,"adult,amazon,chick-lit,contemporary,fiction,harlequin,romance,sports"
18025001,7770711959,England's Mistress,,,,,ES,2005/6/2,Ballantine Books,,true,19,29123,2142,2995,773,92,2005/6/2,England's Mistress: The Infamous Life of Emma Hamilton,book,219,297,207,41,9,3.87,432,ebook,,0,0,Kate Williams,,,,,,1175,11,58,"art,biography,biography-memoir,fiction,historical,historical-fiction,history,non-fiction"
18025501,7770721776,The Sweet Life of Stella Madison,,,,,ES,2009/7/14,Random House Children's Books,,true,7,5835027,822,971,282,63,2009/1/1,The Sweet Life of Stella Madison,book,52,76,108,37,9,3.44,224,ebook,,0,0,Lara Deloza,,,,,,471,11,3,"adult,chick-lit,contemporary,family,fiction,food,humor,juvenile,realistic-fiction,relationships,romance,school,teen,young-adult"
18026001,7770729106,Pathology: The Big Picture,,,,,ES,2009/6/1,McGraw-Hill Medical Publishing,,true,4,11577218,35,68,17,1,2007/11/6,,,7,3,7,0,0,4.00,512,ebook,,0,0,William Kemp,,,,,,12,0,2,"health,science"
18026501,7770737834,Dead of Winter,,,,,ES,2009/6/1,Samhain Publishing,,true,5,657922,12,12,3,0,2006/3/28,Dead of Winter,,1,1,1,0,0,4.00,,ebook,,0,0,Patricia Parkinson,,,,,,7,0,,
18027001,7770749093,Latina Lite Cooking: 200 Delicious Lowfat Recipes from All Over the Americas - With Special Selections on Nutrition and Weight Loss,,,,,ES,2009/9/26,Grand Central Publishing,,true,7,1836955,8,8,2,0,1998/2/1,Latina Lite Cooking: 200 Delicious Lowfat Recipes from All Over the Americas - With Special Selections on Nutrition and Weight Loss,,1,0,1,0,0,4.00,,ebook,,0,0,Maria Dolores Beatriz,,,,,,2,0,1,cookbooks
18027501,777076453X,Juno & Juliet,9787770764530,,,,ES,2009/8/26,Knopf Doubleday Publishing Group,eng,true,10,73283,1132,2085,607,68,2001/1/1,Juno & Juliet,book,103,192,198,94,20,3.43,,ebook,,0,0,Julian Gough,,,,,,372,17,16,"adult,adult-fiction,chick-lit,college,contemporary,family,fiction,romance,unfinished,young-adult"
18028001,7770771757,Animals in Translation: Using the Mysteries of Autism to Decode Animal Behavior,,,,,ES,2009/8/11,Scribner Book Company,,true,39,7366,18624,33341,8066,1069,2001/1/1,Animals in Translation: Using the Mysteries of Autism to Decode Animal Behavior,book,3203,3156,1362,271,74,4.13,368,ebook,,0,0,"Catherine  Johnson,Temple Grandin",,,,,,8603,40,563,"animals,anthropology,autobiography,biography,education,memoir,nature,non-fiction,philosophy,psychology,science,sociology,unfinished"
18028501,7770785995,The Breach: Inside the Impeachment and Trial of William Jefferson Clinton,,,,,ES,2009/7/24,Scribner Book Company,,true,9,438306,401,397,103,15,2000/9/1,The Breach: Inside Impeachment and Trial of William Jefferson Clinton,book,27,41,28,7,0,3.85,,ebook,,0,0,Peter Baker,,,,,,256,12,8,"american-history,history,non-fiction,politics,unfinished"
18029001,7770794099,101 Most Important Things You Need to Know Before You Graduate: Life Lessons You're Going to Learn Sooner or Later...,,,,,ES,2008/2/12,Howard eBooks,,true,2,9309121,4,17,4,1,2008/2/12,,,2,1,1,0,0,4.25,112,ebook,,0,0,Renae Willis,,,,,,1,0,,non-fiction
18029501,7770800749,Captain's Blood,,,,,ES,2003/12/9,Pocket Books/Star Trek,,true,1,296485,1171,2253,597,29,2003/1/1,Captain's Blood (Star Trek),book,174,186,177,48,12,3.77,352,ebook,,0,0,William Shatner,,,,,,328,9,9,"fiction,science-fiction"
18030001,7770811716,The Coming Economic Collapse: How You Can Thrive When Oil Costs $200 a Barrel,,,,,ES,2006/4/1,Business Plus,eng,true,21,476,439,841,249,30,2006/2/1,The Coming Economic Collapse: How You Can Thrive When Oil Costs $200 a Barrel,book,38,69,102,29,11,3.38,,ebook,,0,0,"Glen C. Strathy,Stephen Leeb",,,,,,137,7,5,"business,economics,leadership,non-fiction,politics,psychology"
18030501,7770818702,One Good Man,,,,,ES,2009/9/1,Harlequin Blaze,,true,10,6649460,515,649,180,18,2009/1/1,One Good Man,book,45,45,68,18,4,3.61,224,ebook,,0,0,Alison Kent,,,,,,73,13,101,"american,contemporary,fiction,harlequin,romance,suspense"
18031001,7770829658,Denmark Travel Adventures,,,,,ES,2009/7/15,Hunter Publishing (NJ),,true,3,11257315,3,9,2,0,2009/7/15,,,1,1,0,0,0,4.50,72,ebook,,0,0,Elizabet Olesen,,,,,,1,0,,
18031501,7770841887,Callaghan's Bride,,,,,ES,1999/2/1,Silhouette Romance,,true,20,1137810,3687,8941,2230,96,1999/1/1,Callaghan's Bride,book,859,711,513,116,31,4.01,192,ebook,,0,0,Diana Palmer,,,,,,737,7,48,"adult,chick-lit,contemporary,family,fiction,harlequin,historical,love-story,modern,romance"
18032001,7770856574,A Weaver Baby,,,,,ES,2009/10/1,Silhouette Desire,,true,14,6773683,298,501,131,12,2009/1/1,,book,40,38,44,8,1,3.82,224,ebook,,0,0,Allison Leigh,,,,,,93,7,18,"adult,contemporary,fiction,harlequin,romance"
18032501,7770865344,Ringing in Murder (Pennyfoot Hotel #16),,,,,ES,2008/11/1,Berkley,,true,10,2985722,735,1206,326,43,2008/10/16,Ringing In Murder,book,80,106,106,30,4,3.70,,ebook,,5,0,Kate Kingsbury,,,,,,174,9,5,"adult,adventure,christmas,cozy-mystery,fiction,historical,historical-fiction,holiday,mystery,travel"
18033001,7770877229,Life or Debt,,,,,ES,2009/12/14,Pocket Books,,true,4,18033001,1,0,0,0,2005/1/25,,,0,0,0,0,0,0.00,208,ebook,,0,0,Stacy Johnson,,,,,,1,0,,
18033501,7770893283,"Powerless (Daniel Corrigan, #1)",,,,,ES,2009/10/27,Random House Children's Books,,true,13,6371720,6067,14684,3662,471,2009/1/1,Powerless,book,1339,1336,748,162,77,4.01,288,ebook,,0,0,Matthew  Cody,,,,,,890,14,85,"action,adventure,chapter-books,childrens,contemporary,fantasy,fiction,humor,juvenile,middle-grade,mystery,school,science-fiction,superheroes,young-adult"
18034001,7770907217,Love Bite,,,,,ES,2009/11/29,Grand Central Publishing,,true,2,39706,19,26,7,1,1994/1/1,LOVE BITE,book,3,0,3,1,0,3.71,,ebook,,0,0,Sherry Gottlieb,,,,,,5,1,,"fiction,horror,vampires"
18034501,144721207X,Tigers in Red Weather,9781447212072,,,,ES,2013/1/1,Picador,eng,false,54,13528417,29619,47033,13741,1839,2012/7/17,Tigers in Red Weather,book,1758,4835,5006,1743,399,3.42,389,Paperback,,555,77,Liza Klaussmann,,,,,,13774,149,256,"adult,adult-fiction,american,chick-lit,contemporary,crime,drama,family,fiction,historical,historical-fiction,history,literary-fiction,marriage,mystery,mystery-thriller,novels,relationships,romance,suspense,war"
18035001,7770932548,Her Secret Rival,,,,,ES,2009/11/1,Harlequin Special Releases,,true,11,7105412,140,220,59,5,2009/1/1,,book,12,19,28,0,0,3.73,256,ebook,,0,0,Abby Gaines,,,,,,61,4,,"christmas,harlequin,romance"
18035501,7770939925,The Lacuna,,,,,ES,2009/11/1,HarperCollins eBooks,,true,1,6433752,92655,205011,54231,7460,2009/11/3,The Lacuna,book,15944,19591,11816,4599,2281,3.78,528,ebook,,0,0,Barbara Kingsolver,,,,,,28796,190,2782,"adult,adult-fiction,american,art,contemporary,drama,fiction,historical,historical-fiction,history,lgbt,literary-fiction,literature,novels,politics,queer,travel,unfinished"
18036001,7770947863,Bar None,,,,,ES,2009/11/4,Ellora's Cave,,true,4,7431026,65,78,25,1,2009/1/1,,book,2,5,13,4,1,3.12,,ebook,,0,0,Brigit Zahara,,,,,,29,3,,"adult,erotica,fantasy,fiction,menage,paranormal,romance,vampires"
18036501,7770965764,Turf War,,,,,ES,2009/12/7,"Lyrical Press, Inc",,true,2,18036501,0,0,0,0,2009/12/7,,,0,0,0,0,0,0.00,,ebook,,0,0,Cindy Hutchins,,,,,,,0,,
18037001,7770972132,Self-Publishing and Marketing from the Trenches,,,,,ES,2009/11/12,Innovo Publishing LLC,,true,2,7893471,6,19,5,1,2009/11/12,,,2,1,1,1,0,3.80,,ebook,,0,0,Peter H. Zindler,,,,,,1,0,,
18037501,7772508883,Ted Bundy: Conversations with a Killer,,,,,ES,2000/4/1,Authorlink,,true,10,205661,4825,5632,1427,87,1989/1/1,Ted Bundy : Conversations with a Killer,book,491,506,324,75,31,3.95,,ebook,,0,0,"Hugh Aynesworth,Stephen G. Michaud",,,,,,2944,17,135,"biography,contemporary,crime,history,horror,non-fiction,psychology,true-crime"
18038001,8776941248,Beyond the Singapore Girl: Discourses of Gender and Nation in Singapore,9788776941246,,,,ES,2013/9/30,Nordic Institute of Asian Studies,,false,1,18038001,0,0,0,0,2013/9/30,,,0,0,0,0,0,0.00,214,Hardcover,,0,0,Chris Hudson,,,,,,,0,,
18038501,6021940725,Cinta dalam Secangkir Cappuccino,9786021940723,,,,ES,2012/1/1,Eazy Book,ind,false,1,18038501,32,29,11,1,2012/1/1,,book,2,1,1,5,2,2.64,244,Paperback,,11,1,E.L. Hadiansyah,,,,,,16,0,1,"fiction,romance"
18039001,1861602138,Candlecraft,9781861602138,,,,ES,1998/1/1,Oceana Books,eng,false,2,3692191,6,11,3,1,1998/1/1,Candlecraft,book,0,2,1,0,0,3.67,128,Hardcover,,1,0,"Debbie Davis,Paul Marko",,,,,,2,0,,reference
18039501,,البلاغة والأسلوب,,,,,ES,1984/1/1,"الشركة المصرية العالمية للنشر ""لونجمان""",ara,false,1,18039501,11,0,0,0,1984/1/1,البلاغة والأسلوب,book,0,0,0,0,0,0.00,,,سلسلة أدبيات,0,0,محمد عبد المطلب,,,,,,7,0,,
18040001,,Spiritual Warfare: The Word-Filled Life of Victory,,,,,ES,2009/2/1,BFM Books ,eng,true,2,20507277,18,17,4,0,2009/2/1,,book,2,1,1,0,0,4.25,166,Kindle Edition,,0,0,John S. Barnett,,,,,,9,0,5,
18041001,0985984139,"In Harmony's Way (The Keys, #4)",9780985984137,,,,ES,2013/6/1,Din Publishing,eng,false,1,18041001,0,0,0,0,2013/6/1,,book,0,0,0,0,0,0.00,419,Paperback,,0,0,Seth Hammons,,,,,,,0,,
18041501,,La práctica del Zen,9788493971403,,,,ES,2012/1/1,Editorial Dipankara,spa,false,1,18041501,3,2,1,0,2012/1/1,La práctica del Zen,book,0,0,0,1,0,2.00,272,Paperback,1ª,1,0,Garma C.C. Chang,,,,,,2,0,,
18042001,0552570850,Top Secret Journal,9780552570855,,,,ES,2013/9/5,Corgi Childrens,,false,1,18042001,14,10,2,0,2013/9/5,,,2,0,0,0,0,5.00,208,Paperback,,2,0,Jacqueline Wilson,,,,,,10,0,,
18042501,,সোনালি ডুমুর,,,,,ES,2012/1/1,আনন্দ পাবলিশার্স,ben,false,1,18042501,17,5,2,0,2012/1/1,,book,0,0,1,1,0,2.50,295,Hardcover,,2,0,Selina Hossain,,,,,,15,0,,
18043001,,A Wild Sheep Chase,,,,,ES,,,eng,false,160,11298,120027,298737,75713,3857,1982/1/1,,book,21884,32543,17246,3367,673,3.95,,,,1,1,Haruki Murakami,,,,,,28894,156,2573,"adult,adult-fiction,adventure,contemporary,fantasy,fiction,literary-fiction,literature,magical-realism,modern,mystery,novels,science-fiction,speculative-fiction,unfinished"
18043501,,Las torres del cielo,9788466652773,,,,ES,2013/3/1,Ediciones B,spa,false,3,18043501,74,104,31,1,2013/3/1,,book,4,6,19,1,1,3.35,457,Hardcover,,17,1,Coia Valls,,,,,,37,0,2,historical-fiction
18044001,,The Principal Antiquities Of The Land's End District,,,,,ES,1969/1/1,Cornwall Archaeological Society,,false,7,5760250,7,28,7,0,1954/1/1,The principal antiquities of the Land's End district (Field guide / Cornwall Archaeological Society),book,0,7,0,0,0,4.00,32,Paperback,,1,0,"Charles Thomas,P.A.S. Pool",,,,,,,0,,
18044501,,Radiotron Designer's Handbook,,,,,ES,1940/1/1,The Wireless Press,eng,false,2,22444429,28,37,8,4,1940/1/1,Radiotron Designer's Handbook 4,book,6,1,1,0,0,4.62,352,Hardcover,Third Edition,3,1,,,,F. Langford Smith,,,18,1,1,
18045001,1448174902,"The Slime Squad Vs the Killer Socks (Slime Squad, Book 5)",9781448174904,,,,ES,2014/2/27,RHCP Digital,eng,true,3,14934601,9,26,6,0,2011/1/6,,book,4,1,0,1,0,4.33,144,ebook,,0,0,Steve Cole,,,,,,2,0,,
18045501,9185785334,Den blå stranden,9789185785339,,,,ES,2009/5/1,Ordupplaget,swe,false,2,18045501,10,21,6,0,2009/5/1,,book,0,3,3,0,0,3.50,,Audio CD,,6,0,Erik Eriksson,,,,,,2,0,,
18046001,,الملابس المملوكية,,,,,ES,1972/1/1,الهيئة المصرية العامة للكتاب,ara,false,1,18046001,6,5,1,0,,,book,1,0,0,0,0,5.00,269,Paperback,,1,0,L.A.  Meyer,,,,,,5,0,,
18046501,8386646152,"Nowela, Teksty po nic",,,,,ES,1995/1/1,świat literacki,pol,false,1,18046501,1,0,0,0,1958/1/1,Nouvelles et textes pour rien,book,0,0,0,0,0,0.00,126,Paperback,Kolekcja Kieszonkowa,0,0,Samuel Beckett,,,,,,,0,,
18047001,,Scottish Art Review Vol. VI No.2,,,,,ES,1957/1/1,Glasgow Art Gallery and Museums Association,eng,false,1,18047001,1,0,0,0,1957/1/1,,periodical,0,0,0,0,0,0.00,,,,0,0,Various,,,,,,,0,,
18048001,1483984427,Interlands,9781483984421,,,,ES,2013/5/31,FNG Press,eng,false,3,18048001,423,271,76,13,2013/5/28,,book,22,16,24,11,3,3.57,226,Paperback,,56,13,"Henry V. O'Neil,Vincent H. O'Neil",,,,,,319,7,8,"horror,mystery,suspense"
18048501,,"The Wizard & The Wanton (Sexy Witches, #5)",,B00DL0SWWO,,,ES,2013/6/23,Punk & Sissy Publications,,true,4,22086678,136,197,45,10,2013/6/23,,book,29,6,8,2,0,4.38,64,Kindle Edition,,18,5,Charity Parkerson,,,,,,76,9,2,"contemporary,paranormal,romance,witches"
18049001,1442497483,Lulu's Mysterious Mission,9781442497481,,,,ES,2014/4/8,Atheneum Books for Young Readers,,true,5,18014736,1349,3078,779,155,2014/4/1,,book,228,332,177,37,5,3.95,192,ebook,,0,0,Judith Viorst,,,,,,372,42,15,"adventure,chapter-books,childrens,fantasy,fiction,funny,humor,juvenile,middle-grade,mystery,picture-books,realistic-fiction"
18049501,,"The Bar, A Lesbian Encouter",,B008MNQV6O,,,ES,2012/7/17,,en-GB,true,1,18049501,1,0,0,0,2012/7/17,,book,0,0,0,0,0,0.00,43,Kindle Edition,,0,0,Marion L. Welch,,,,,,,0,,
18050001,1623360404,"The Kind Mama: A Simple Guide to Supercharged Fertility, a Radiant Pregnancy, a Sweeter Birth, and a Healthier, More Beautiful Beginning",9781623360405,,,,ES,2014/4/15,Rodale Books,,false,2,15827229,938,1657,435,51,2014/1/1,,book,144,143,87,43,18,3.81,368,Paperback,,74,5,Alicia Silverstone,,,,,,327,12,68,"adult,food,health,non-fiction,parenting,reference"
18050501,1616953101,Inside Madeleine,9781616953102,,,,ES,2014/5/13,Soho Press,,true,8,17568818,1600,1562,445,69,2013/12/3,,book,96,134,135,61,19,3.51,240,ebook,,0,0,Paula Bomer,,,,,,1017,19,35,"american,contemporary,erotica,essays,feminism,fiction,literary-fiction,poetry,short-stories"
18051001,,The Dark Lodge,,B00D9WK768,,,ES,2013/6/7,"Amazon Digital Services, Inc",eng,true,2,18051001,0,0,0,0,2013/6/7,,book,0,0,0,0,0,0.00,228,Kindle Edition,,0,0,Michael    Anthony,,,,,,,0,,
18051501,1401943292,"Happy Hormones, Slim Belly",9781401943295,,,,ES,2013/12/23,"Hay House, Inc.",en-GB,false,2,18051501,460,600,176,26,2013/12/23,,book,32,52,58,24,10,3.41,288,Hardcover,,120,26,Jorge Cruise,,,,,,196,2,44,"cookbooks,food,health,non-fiction,self-help"
18052001,1563638274,PDR for Nonprescription Drugs 2014,9781563638275,,,,ES,2014/1/28,PDR Network,,false,13,15811112,31,34,8,1,1983/5/1,,,5,1,1,1,0,4.25,464,Hardcover,,0,0,,,,,,,12,1,2,reference
18052501,,Elskede Rosa,,,,,ES,2003/1/1,Vanessa,dan,false,1,18052501,2,9,2,0,2003/1/1,Elskede Rosa,book,1,1,0,0,0,4.50,328,Unknown Binding,,2,0,Irma Lauridsen,,,,,,,0,,
18053001,0062249770,"And Then She Fell (Cynster, #19; The Cynster Sisters Duo, #1)",9780062249777,,,,ES,2013/3/26,HarperAudio,,false,30,15819198,7450,13086,3432,290,2013/3/26,And Then She Fell,book,978,1199,953,239,63,3.81,,Audiobook,,0,0,Stephanie Laurens,,,,,,2928,48,131,"adult,adult-fiction,chick-lit,fiction,historical,historical-fiction,history,mystery,regency,romance,victorian"
18053501,,Minha Vida Como Gueixa,,,,,ES,2005/1/1,JBC,por,false,62,522534,40419,67711,17250,1151,2002/10/1,Geisha: A Life,book,5271,6709,4181,888,201,3.93,284,Paperback,,10,0,Mineko Iwasaki,,,,,,20002,45,425,"adult,autobiography,biography,biography-memoir,contemporary,cultural,fiction,historical,historical-fiction,history,memoir,non-fiction,novels,romance,travel"
18054001,,St. Francis of Assisi A Play in Five Acts,B008V1QPZE,,,,ES,2012/7/13,Forgotten Books ,eng,false,6,18054001,6,0,0,0,1913/1/1,,book,0,0,0,0,0,0.00,122,Paperback,,0,0,Joséphin Péladan,,,,,,6,0,,
18054501,0547643276,"Go Math!: Student Edition & Practice Book Bundle, 2 Year Grade 3 2012",9780547643274,,,,ES,2011/7/13,Houghton Mifflin,,false,1,18054501,0,0,0,0,2011/7/13,,,0,0,0,0,0,0.00,,Hardcover,,0,0,,,,,,,,0,,
18055001,0988426803,Hands Upon the Rock,9780988426801,,,,ES,2013/7/1,Little Cottonwood River Books,,false,1,18055001,4,0,0,1,2013/7/1,,,0,0,0,0,0,0.00,48,Hardcover,,0,1,Paula Paplow,,,,,,2,0,,history
18055501,1479365599,Ghosts of 1968,9781479365593,,,,ES,2013/6/3,CreateSpace,eng,false,2,18055501,6,18,4,0,2013/6/3,,book,2,2,0,0,0,4.50,184,Paperback,,3,0,Raul A. Delgado,,,,,,2,0,,
18056001,1488504253,The Sherilyn Fenn Handbook - Everything You Need to Know about Sherilyn Fenn,9781488504259,,,,ES,2013/5/31,Tebbo,,false,2,18056001,1,0,0,0,2013/5/31,,,0,0,0,0,0,0.00,238,Paperback,,0,0,Emily   Smith,,,,,,1,0,,
18056501,1626974853,Divine Inner Vision,9781626974852,,,,ES,2013/5/14,Xulon Press,,false,3,18056500,0,0,0,0,2013/5/14,,,0,0,0,0,0,0.00,108,Hardcover,,0,0,"Sherri R. Smith,Tracie A. Handley",,,,,,,0,,
18057001,3841620922,Relaxation En Rmn Des Ions Sodium,9783841620927,,,,ES,2013/5/28,Acada(c)Miques,,false,1,18057001,0,0,0,0,2013/5/28,,,0,0,0,0,0,0.00,124,Paperback,,0,0,"Joël Mispelter,Mihaela Lupu",,,,,,,0,,
18057501,3955078760,Queen Victoria,9783955078768,,,,ES,2012/12/22,Dogma,,false,187,437518,4090,5387,1414,127,1921/1/1,Queen Victoria,book,385,521,392,86,30,3.81,240,Paperback,,0,0,Lytton Strachey,,,,,,2158,6,185,"autobiography,biography,biography-memoir,classics,historical,history,memoir,non-fiction,politics,school,victorian"
18058001,0133390098,Systems Performance: Enterprise and the Cloud,9780133390094,,,,ES,2013/10/26,Prentice Hall,,false,3,18058001,1198,1127,252,24,2013/9/27,,,155,67,26,2,2,4.47,735,Paperback,,201,23,Brendan Gregg,,,,,,758,13,142,"music,non-fiction,reference,technology"
18058501,0544107136,Discovering French Today: Activit�s Pour Tous with Review Bookmarks Level 1,9780544107137,,,,ES,2012/10/9,Holt McDougal,,false,1,18058501,0,0,0,0,2012/10/9,,,0,0,0,0,0,0.00,,Hardcover,,0,0,,,,,,,,0,,
18059001,0547650701,Houghton Mifflin Harcourt Spanish Go Math: Student Edition Grade 1 2012,9780547650708,,,,ES,2011/9/30,Houghton Mifflin Harcourt (HMH),,false,1,18059001,0,0,0,0,2011/9/30,,,0,0,0,0,0,0.00,552,Hardcover,,0,0,,,,,,,,0,,
18059501,054794926X,Sciencefusion Spanish: Student Edition Print/Online Bundle (3-Year Sub) Grades 6-8 Module G: Space Science 2012,9780547949260,,,,ES,2012/4/24,Holt McDougal,,false,1,18059501,0,0,0,0,2012/4/24,,,0,0,0,0,0,0.00,,Hardcover,,0,0,,,,,,,,0,,
18060001,0800795687,Seeing the Voice of God: What God Is Telling You Through Dreams and Visions,9780800795689,,,,ES,2014/1/7,Chosen Books,,false,5,18060001,744,607,139,21,2013/12/24,,,82,33,19,3,2,4.37,254,Paperback,,98,19,Laura Harris Smith,,,,,,525,6,41,"faith,non-fiction,self-help"
18060501,1107649323,Group Identity in the Renaissance World,9781107649323,,,,ES,2013/7/25,Cambridge University Press,,false,2,18060501,8,8,2,0,2011/8/22,,,0,2,0,0,0,4.00,404,Paperback,,1,0,Hannah Chapelle Wojciehowski,,,,,,5,0,,
18061001,1410461297,Scorned Justice,9781410461292,,,,ES,2013/10/9,Thorndike Press,,false,8,17365174,808,907,211,36,2013/4/1,Scorned Justice,book,102,73,33,3,0,4.30,477,Hardcover,,3,4,Margaret Daley,,,,,,536,16,8,"christian,christian-fiction,contemporary,fiction,historical,inspirational,mystery,mystery-thriller,romance,suspense"
18061501,1466610387,"Journal of Global Information Management, Vol. 20, No. 2",9781466610385,,,,ES,2012/3/5,IGI Publishing,,false,1,18061501,0,0,0,0,2012/3/5,,book,0,0,0,0,0,0.00,102,Paperback,,0,0,Choon Ling Sia,,,,,,,0,,
18062001,1480543225,The Stories of Vladimir Nabokov,9781480543225,,,,ES,2013/12/1,Brilliance Audio,eng,false,44,8146,16799,27332,6365,243,1938/9/1,The Stories of Vladimir Nabokov,book,3196,2115,846,146,62,4.29,,MP3 CD,Unabridged,0,0,Vladimir Nabokov,,,,,,8913,48,552,"american,anthologies,classic-literature,classics,collections,fiction,literary-fiction,literature,modern,philosophy,short-stories,unfinished"
18062501,1484149483,"The Getaway Girls: A New Orleans Tale of Monsters, Mayhem and Moms",9781484149485,,,,ES,2013/6/6,Createspace Independent Publishing Platform,,false,3,18062501,61,31,8,4,2012/12/5,"The Getaway Girls: A New Orleans Tale of Monsters, Mayhem and Moms",book,3,3,0,2,0,3.88,210,Paperback,,4,3,Deirdre H. Gage,,,,,,50,1,1,"adult-fiction,humor,paranormal"
18063001,1613502699,"International Journal of Applied Logistics, Vol. 1, No. 4",9781613502693,,,,ES,2011/3/14,IGI Publishing,,false,1,18063001,0,0,0,0,,,,0,0,0,0,0,0.00,88,Paperback,,0,0,ZongWei Luo,,,,,,,0,,
18063501,1617039349,The Civil Rights Movement in Mississippi,9781617039348,,,,ES,2013/10/24,University Press of Mississippi,,true,8,18729566,3,0,0,0,2013/1/1,,,0,0,0,0,0,0.00,320,ebook,,0,0,,,,Ted Ownby,,,3,0,,
18064001,1849196850,Radar Automatic Target Recognition (Atr) and Non-Cooperative Target Recognition (Nctr),9781849196857,,,,ES,2013/11/30,Institution of Engineering & Technology,,false,1,18064001,2,1,1,0,2013/11/1,,,0,0,0,0,1,1.00,304,Hardcover,,1,0,"David Blacknell,Hugh Griffiths",,,,,,1,0,,
18064501,3110325608,"Wahrnehmung, Indexikalit�t Und Reflexion: Hector-Neri Casta�edas Ontologie Und Wahrnehmungstheorie Und Die M�glichkeit Einer Ph�nomenologischen Reflexion",9783110325607,,,,ES,2013/5/2,de Gruyter,,true,3,18064501,0,0,0,0,2005/1/1,,,0,0,0,0,0,0.00,447,ebook,,0,0,Ralf Busse,,,,,,,0,,
18065001,3653033551,Der Einfluss Von Rechts- Und Finanzsystemen Auf Die Ausgestaltung Der Rechnungslegung,9783653033557,,,,ES,2013/5/6,"Peter Lang Gmbh, Internationaler Verlag Der Wissenschaften",,true,2,18065001,0,0,0,0,2012/10/18,,,0,0,0,0,0,0.00,186,ebook,,0,0,Jan-Hendrik Hammermeister,,,,,,,0,,
18065501,9004191070,The Formation of the Sudanese Mahdist State: Ceremony and Symbols of Authority: 1882-1898,9789004191075,,,,ES,2010/12/17,Brill,,true,2,10714490,2,0,0,0,2010/12/17,,,0,0,0,0,0,0.00,174,ebook,,0,0,Kim Searcy,,,,,,2,0,,history
18066001,9004214852,"From Judaism to Christianity: Tradition and Transition: A Festschrift for Thomas H. Tobin, S.J., on the Occasion of His Sixty-Fifth Birthday",9789004214859,,,,ES,2010/9/24,Brill,,true,2,12032809,1,1,1,1,2010/8/28,,,0,0,0,0,1,1.00,372,ebook,,0,0,,,,Patricia Walters,,,,0,,
18066501,904740579X,"The Law and Practice of the International Court, 1920-2005 (4 Vols)",9789047405795,,,,ES,2006/3/14,Brill - Nijhoff,,true,2,3412252,1,0,0,0,2006/3/14,"The Law and Practice of the International Court, 1920-2005",,0,0,0,0,0,0.00,2048,ebook,,0,0,Shabtai Rosenne,,,,,,1,0,,
18067001,9047423240,"Konfession, Migration Und Elitenbildung: Studien Zur Theologenausbildung Des 16. Jahrhunderts",9789047423249,,,,ES,2007/11/27,Brill,,true,3,3421953,0,0,0,0,2007/1/1,"Konfession, Migration Und Elitenbildung: Studien Zur Theologenausbildung Des 16. Jahrhunderts (Brill's Series in Church History) (Brill's Series in Church History)",,0,0,0,0,0,0.00,384,ebook,,0,0,,,,"Herman J. Selderhuis,Markus Wriedt",,,,0,,
18067501,9047440633,"Holy Nations and Global Identities: Civil Religion, Nationalism, and Globalisation",9789047440635,,,,ES,2009/9/28,Brill,,true,2,8339984,6,9,2,0,2009/9/28,,book,1,1,0,0,0,4.50,316,ebook,,0,0,,,,"Annika Hvithamar,Brian Jacobsen,Margit Warburg",,,4,0,,
18068001,,Portrait of Love Lost and Found in Ukrainian Cornfield,,B00D8I7PDQ,,,ES,2013/6/5,Nagrad Independent Press,eng,true,1,18068001,2,0,0,0,2013/6/5,,book,0,0,0,0,0,0.00,8,ebook,,0,0,James Dargan,,,,,,1,0,,
18069001,9780988018,ONE HUNDRED NAKED GIRLS,,,,,ES,2013/5/22,veni vici books,eng,true,2,18069001,16,26,7,1,2013/5/22,One Hundred Naked Girls,book,4,1,0,0,2,3.71,,ebook,,4,1,Andy Halmay,,,,,,8,1,2,
18069501,,Tietosuojavastaavan käsikirja,9789518853292,,,,ES,2013/1/1,Tietosanoma,fin,false,1,18069501,2,6,2,0,2013/1/1,,book,0,0,2,0,0,3.00,176,Paperback,,2,0,"Ari Andreasson,Arto Ylipartanen,Juha Koivisto",,,,,,,0,,
18070001,8791654289,By af Glas,,,,,ES,2006/1/1,Per Kofod,dan,false,28,19487,2212,20474,5234,377,1994/1/1,,book,1696,1912,1184,352,90,3.91,144,Paperback,,7,1,"David Mazzucchelli,Paul Auster,Paul Karasik",,,,Søren Vinterberg,,2543,35,44,"adult,adult-fiction,american,art,college,comics,contemporary,crime,detective,fantasy,fiction,graphic-novels,graphic-novels-comics,literary-fiction,literature,mystery,philosophy,school,thriller"
18070501,,The Berkeley Rebellion and Beyond: Essays on Politics & Education in the Technological Society,,,,,ES,1970/8/1,The New York Review,eng,false,1,18070501,38,14,3,1,1970/8/1,The Berkeley Rebellion and Beyond: Essays on Politics & Education in the Technological Society,book,2,1,0,0,0,4.67,158,Paperback,First Edition,3,1,"John H. Schaar,Sheldon S. Wolin",,,,,,32,0,,"academic,philosophy,politics"
18071001,,"Darkness Watching (Darkworld, #1)",9781620073629,,,,ES,2013/10/10,Curiosity Quills Press,eng,true,8,18657107,2548,1795,475,129,2013/9/30,,book,136,166,121,36,16,3.78,,ebook,,47,31,Emma L. Adams,,,,,,795,16,125,"adventure,amazon,demons,fantasy,fiction,magic,new-adult,paranormal,romance,supernatural,suspense,urban-fantasy,young-adult"
18071501,8773947652,Blitz,,,,,ES,2003/1/1,Modtryk,dan,false,5,13560731,39,50,15,0,2001/1/1,Blitz,book,0,7,6,2,0,3.33,285,Hardcover,1,0,0,Fredrik Skagen,,,,,,6,0,,suspense
18072001,,The Black Petal,,,,,ES,2015/10/18,Autumn Orchard,eng,true,4,26044654,2156,57,13,5,2015/10/18,,book,9,1,2,1,0,4.38,245,Kindle Edition,,1,1,Dan C. Thompson,,,,,,2132,8,,"fantasy,medieval,mythology,young-adult"
18072501,,Wie man einen Zirkus zerstreut,9783847640349,,,,ES,2013/6/9,Qindie - Ruth Kornberger,ger,true,2,18072501,1,3,1,0,2013/6/9,,book,0,0,1,0,0,3.00,61,ebook,,1,0,Ruth Kornberger,,,,,,,0,,
18073501,3896040014,Enzyklopädie 1762-1777: Die Bildtafeln. Band 1-4,,,,,ES,,,,false,1,18073501,1,0,0,0,,,book,0,0,0,0,0,0.00,,,,0,0,Denis Diderot,,,,,,,0,,
18074001,,محمد عبد الوهاب ومائة عام,,,,,ES,2001/1/1,الهيئة الإقليمية لتنشيط السياحة ,ara,false,1,18074001,5,5,2,0,2001/1/1,محمد عبد الوهاب ومائة عام ,book,0,0,1,1,0,2.50,,Paperback,مهرجان الإسكندرية السابع عشر,2,0,فتحي العشري,,,,,,1,0,,
18074501,,Captivation,9781742758336,,,,ES,2013/7/1,Random House Australia Pty Ltd,eng,true,2,18074501,188,90,28,15,2013/7/1,,book,5,4,13,4,2,3.21,104,ebook,RHA eBooks Adult,27,15,Nicola Moriarty,,,,,,150,3,,"chick-lit,erotica,paranormal,romance"
18075001,0985665831,"Sunbolt (The Sunbolt Chronicles, #1)",9780985665838,,,,ES,2013/6/17,Purple Monkey Press,eng,false,7,35696827,6937,9776,2316,422,2013/6/13,,book,1000,940,288,64,24,4.22,152,Paperback,,1201,265,Intisar Khanani,,,,,,4135,47,123,"adventure,epic-fantasy,fantasy,fiction,high-fantasy,magic,novella,novels,paranormal,supernatural,vampires,werewolves,young-adult"
18075501,,Dnevniki Carrie Bradshaw,,,,,ES,2010/1/1,Učila International,slv,false,34,7091370,63448,124367,34859,2450,2010/1/1,The Carrie Diaries,book,8025,10448,11025,4014,1347,3.57,312,Hardcover,,4,1,Candace Bushnell,,,,,,22118,291,817,"chick-lit,comedy,contemporary,drama,fiction,high-school,humor,love,realistic-fiction,romance,teen,unfinished,young-adult"
18076501,,Coders (Gamers #3),1230000013959,,,,ES,2012/6/5,Black Moon Books,eng,true,5,13589399,91,137,34,5,2012/4/7,,book,13,10,10,1,0,4.03,,ebook,Kobo Edition,0,0,Thomas K. Carpenter,,,,,,46,1,1,"science-fiction,teen,young-adult"
18077001,,الأهلي: بطل مصر .. ملك أفريقيا .. رابع العالم,,,,,ES,2013/1/1,,ara,false,1,18077001,6,4,1,0,2013/1/1,الأهلي: بطل مصر .. ملك أفريقيا .. رابع العالم,book,0,1,0,0,0,4.00,140,Paperback,,1,0,محمود الرفاعي,,,,,,3,0,1,sports
18077501,,Fortinbras has Escaped,,,,,ES,1956/1/1,Pan Books Ltd. London,eng,false,6,425514,52,117,32,4,1956/1/1,Fortinbras Has Escaped,book,8,11,9,2,2,3.66,124,Paperback,,1,0,Eric Malpass,,,,,,12,3,1,"fiction,funny,modern"
18078001,0804190607,The Anatomy Lesson: A Novel,9780804190602,,,,ES,2014/3/11,Random House Audio,,false,13,18077844,5797,4569,1308,262,2014/1/1,The Anatomy Lesson,book,200,475,445,146,42,3.49,,Audiobook,Unabridged Download,3,1,Nina Siegal,,,,,,4201,46,51,"adult,adult-fiction,art,contemporary,fiction,historical,historical-fiction,history,literature,medical,novels"
18078501,8670711508,Latica i Frano i druge priče,,,,,ES,1992/1/1,"Izdavački centar Rijeka, Rijeka",scr,false,1,18078501,0,0,0,0,1992/1/1,,book,0,0,0,0,0,0.00,87,,Biblioteka za djecu / Posebna izdanja,0,0,Mato Jerinić,Vjekoslav Vojo Radoičić,,,,,,0,,
18079001,1611321425,"Syndemic Suffering: Social Distress, Depression, and Diabetes among Mexican Immigrant Women",9781611321425,,,,ES,2013/8/31,Left Coast Press,,false,4,15807909,26,27,7,1,2012/10/1,,,3,2,1,0,1,3.86,145,Paperback,,1,1,Emily Mendenhall,,,,,,10,0,1,"academic,anthropology,research,social-issues"
18079501,0670014680,"A Mad, Wicked Folly",9780670014682,,,,ES,2014/1/23,Viking Books for Young Readers,eng,false,10,18079501,17172,16828,4386,816,2014/1/23,"A Mad, Wicked Folly",book,1288,1627,1049,311,111,3.84,431,Hardcover,,3967,707,Sharon Biggs Waller,,,,,,2028,159,86,"art,chick-lit,contemporary,family,feminism,fiction,historical,historical-fiction,history,love,realistic-fiction,romance,teen,young-adult"
18080001,9536939258,Prijatelj mačak Nero,,,,,ES,2004/1/1,"Izdavački centar Rijeka, Rijeka",scr,false,2,18080001,1,0,0,0,2004/1/1,,book,0,0,0,0,0,0.00,20,,Posebna izdanja,0,0,Vjekoslav Vojo Radoičić,,Ivanka Glogović Klarić,,,,1,0,,
18080501,8468709239,El regreso del rebelde,9788468709239,,,,ES,2013/1/1,Harlequin Ibérica,spa,false,40,5022581,8477,22978,5500,218,2009/3/1,,book,2372,1939,1012,149,28,4.18,288,Paperback,,10,0,Linda Lael Miller,,,,,,1499,38,184,"adult,contemporary,family,fiction,harlequin,historical-fiction,romance"
18081001,,"Moonglow (The Darkborn Legacy, #1)",,B009L93GMA,,,ES,2013/2/26,Kensington Books,en-US,true,4,15811655,1497,490,158,35,2013/1/1,,book,34,33,38,21,32,3.10,417,Kindle Edition,,8,1,Michael Griffo,,,,,,1240,16,15,"fantasy,mythology,paranormal,science-fiction,supernatural,young-adult"
18081501,,Приказки без царски дъщери,,,,,ES,1975/1/1,Народна младеж,bul,false,1,18081501,6,3,1,1,1975/1/1,,book,0,0,1,0,0,3.00,120,Paperback,,1,1,Чавдар Шинов,,,,,,4,0,,childrens
18082001,1283670801,His Brother's Fiancee,9781283670807,,,,ES,2014/5/9,Harlequin Special Releases,,true,9,1470778,137,193,51,4,2001/9/17,His Brother's Fiancée (Trueblood Texas),book,12,20,16,2,1,3.78,,ebook,,1,0,Jasmine Cresswell,,,,,,54,5,1,"contemporary,romance"
18082501,1299009891,Brian's Return,9781299009899,,,,ES,2014/6/13,Laurel Leaf Library,,true,31,141371,21027,47706,12056,606,1992/9/11,Brian's Return,book,4205,4088,2964,638,161,3.96,,ebook,,0,0,Gary Paulsen,,,,,,3805,26,265,"action,adventure,chapter-books,childrens,classics,contemporary,fiction,historical-fiction,juvenile,literature,middle-grade,nature,novels,realistic-fiction,school,sports,survival,teen,young-adult"
18083001,1299098819,The Hunt of the Unicorn,9781299098817,,,,ES,2013/2/23,Alfred A. Knopf Books for Young Readers,,true,10,8487361,1927,1171,343,60,2011/3/8,The Hunt of the Unicorn,book,69,90,119,44,21,3.41,,ebook,,1,0,C.C. Humphreys,,,,,,1424,17,8,"adventure,fantasy,fiction,high-fantasy,juvenile,magic,mythology,supernatural,teen,unfinished,urban-fantasy,young-adult"
18083501,1299231985,Storm Warriors,9781299231986,,,,ES,2008/1/1,Yearling Books,,true,10,232073,1047,1458,402,55,2001/1/1,Storm Warriors,book,110,132,91,38,31,3.63,,ebook,,0,0,Elisa Carbone,,,,,,517,9,12,"childrens,classics,fiction,funny,historical,historical-fiction,history,humor,middle-grade,survival,suspense,young-adult"
18084001,1299335284,Heart of the Hunter,9781299335288,,,,ES,2014/1/22,Harlequin Nocturne,,true,6,12242658,79,68,20,4,2011/1/1,,book,2,6,10,2,0,3.40,,ebook,,0,0,Vivi Anna,,,,,,49,1,,"demons,erotica,harlequin,paranormal,romance,short-stories"
18084501,1299393969,Lost in Pleasure,9781299393967,,,,ES,2014/1/23,Harlequin Historical Undone,,true,7,17324337,70,63,20,4,2013/1/1,,book,3,4,8,3,2,3.15,,ebook,,0,0,Marguerite Kaye,,,,,,37,3,,"harlequin,historical,love-story,novella,regency,time-travel"
18085001,,"Inodoro Pereyra / 01 (Inodoro Pereyra, el renegau, #1)",9789504932154,,,,ES,2013/4/1,Grupo Editorial Planeta,spa,false,4,1201512,49,104,24,3,1974/6/14,"Inodoro Pereyra, el renegau, libro 1",book,10,12,2,0,0,4.33,108,Paperback,Biblioteca Fontanarrosa,7,2,Roberto Fontanarrosa,,,,,,19,0,,"comics,humor"
18085501,0062252224,Alvin and the Chipmunks: Alvin's Easter Break,9780062252227,,,,ES,2014/1/28,HarperFestival,,false,2,18085501,19,36,9,1,2014/1/28,,,4,1,4,0,0,4.00,24,Paperback,,8,1,Jodi Huelin,,,,,,8,2,1,regency
18086001,0786468947,Cuban Americans and the Miami Media,9780786468942,,,,ES,2014/1/24,McFarland & Company,,false,4,18086001,3,4,1,0,2013/12/31,,,0,1,0,0,0,4.00,200,Paperback,,1,0,Christine Lohmeier,,,,,,1,0,,
18086501,0989327418,"A Fierce Domain: Conflict in Cyberspace, 1986 to 2012",9780989327411,,,,ES,2013/6/1,Cyber Conflict Studies Association,,false,4,18086501,192,208,56,3,2013/6/1,,,8,28,16,4,0,3.71,352,Hardcover,,27,2,,,,"Jason Healey,Karl Grindal",,,62,3,8,historical
18087001,1466392339,"Ohio Court Rules 2012, Government of Bench & Bar",9781466392335,,,,ES,2011/10/12,Createspace,,false,1,18087001,0,0,0,0,2011/10/12,,,0,0,0,0,0,0.00,498,Paperback,,0,0,Summit Legal Publishing,,,,,,,0,,
18087501,1475994435,Pear Season,9781475994438,,,,ES,2013/6/13,iUniverse,eng,false,3,18087501,6,13,3,3,2013/6/13,,book,1,2,0,0,0,4.33,112,Paperback,,3,3,Sally Small,,,,,,3,0,,
18088001,1481760378,"And the Moral Is . . .: Learning Lessons Through Poetry, and Other Silly Words",9781481760379,,,,ES,2013/6/7,Authorhouse,,false,2,18088001,0,0,0,0,2013/6/7,,,0,0,0,0,0,0.00,40,Paperback,,0,0,Joanne Haddad,,,,,,,0,,
18088501,1484952057,Trinidad Head,9781484952054,,,,ES,2013/6/8,Createspace Independent Publishing Platform,,false,1,18088501,0,0,0,0,2013/6/8,,,0,0,0,0,0,0.00,178,Paperback,,0,0,Tony Seton,,,,,,,0,,
18089001,1622306147,The King Is Coming Pray for the Peace of Jerusalem,9781622306145,,,,ES,2012/8/10,Xulon Press,,false,1,18089001,2,9,2,1,2012/8/10,,,1,1,0,0,0,4.50,144,Paperback,,2,1,Sam Dewald Stephen,,,,,,1,0,,
18089501,3639457641,Lernmotivation in Der Beruflichen Weiterbildung,9783639457643,,,,ES,2013/6/6,AV Akademikerverlag,,false,1,18089501,0,0,0,0,2013/6/6,,,0,0,0,0,0,0.00,92,Paperback,,0,0,Wurm Renate,,,,,,,0,,
18090001,0062118277,Call Me Debbie: True Confessions of a Down-to-Earth Diva,9780062118271,,,,ES,2015/1/27,Harper,,false,4,18090001,501,915,232,49,2014/4/8,,book,72,90,58,9,3,3.94,288,Hardcover,,166,44,Deborah Voigt,,,,,,209,6,25,"american,autobiography,biography,biography-memoir,memoir,music,non-fiction,novels"
18090501,0323240607,Endocrinology Adult and Pediatric: Reproductive Endocrinology,9780323240604,,,,ES,2013/8/5,Saunders,,false,2,18090501,5,4,1,0,2013/5/7,,,0,1,0,0,0,4.00,511,Paperback,,1,0,"David M. De Kretser,J. Larry Jameson,John C. Marshall,Leslie J. De Groot",,,,,,3,0,,
18091001,0470220309,QuickBooks 2004 for Dummies,9780470220306,,,,ES,2007/5/11,For Dummies,,true,6,1090995,2,0,0,0,2004/1/16,,book,0,0,0,0,0,0.00,384,ebook,,0,0,Stephen L. Nelson,,,,,,,0,,
18091501,0470249633,The Credit Diet: How to Shed Unwanted Debt and Achieve Fiscal Fitness,9780470249635,,,,ES,2007/8/8,Wiley,,true,8,1619600,29,61,14,1,2002/1/1,The Credit Diet: How to Shed Unwanted Debt and Achieve Fiscal Fitness,,7,5,2,0,0,4.36,223,ebook,,0,0,John Fuhrman,,,,,,10,0,1,self-help
18092001,0470303948,Simplified Design of Steel Structures,9780470303948,,,,ES,2007/12/10,Wiley,,true,3,58784,22,11,3,0,1944/11/30,Simplified Design of Steel Structures (Parker/Ambrose Series of Simplified Design Guides),,0,2,1,0,0,3.67,464,ebook,,0,0,James Ambrose,,,,,,16,0,,
18092501,0470312602,Lighting Design Basics,9780470312605,,,,ES,2007/12/10,Wiley,,true,22,559603,81,105,26,1,2004/4/5,Lighting Design Basics,,10,7,9,0,0,4.04,192,ebook,,0,0,"James R. Benya,Mark Karlen",,,,,,30,4,8,school
18093001,047032757X,Linux Security: Craig Hunt Linux Library,9780470327579,,,,ES,2008/4/21,Sybex,,true,6,6640558,13,15,6,0,2001/7/10,Linux Security: Craig Hunt Linux Library,,0,0,3,3,0,2.50,482,ebook,,0,0,Ramón J. Hontañón,,,,,,2,0,,
18093501,0470335866,"Longeing and Long Lining, the English and Western Horse: A Total Program",9780470335864,,,,ES,2008/4/21,Howell Books,,true,4,1153468,36,56,15,0,1998/12/1,"Longeing and Long Lining, The English and Western Horse: A Total Program (Howell Reference Books)",,3,5,7,0,0,3.73,240,ebook,,0,0,Cherry Hill,,,,,,11,0,2,"non-fiction,reference"
18094001,0470349492,New Strategies for College Funding: An Advisor's Guide,9780470349496,,,,ES,2008/5/2,Wiley,,true,1,18094001,0,0,0,0,2008/5/2,,,0,0,0,0,0,0.00,265,ebook,,0,0,Raymond D Loewe,,,,,,,0,,
18094501,0470358793,The Market Approach to Valuing Businesses Workbook,9780470358795,,,,ES,2008/5/2,Wiley,,true,10,6689614,9,10,3,0,2000/10/26,The Market Approach to Valuing Businesses,book,0,1,2,0,0,3.33,144,ebook,,0,0,Shannon P. Pratt,,,,,,5,0,,non-fiction
18095001,0470367695,Performance Appraisal: State of the Art in Practice,9780470367698,,,,ES,2008/3/11,Pfeiffer,,true,2,18095001,1,0,0,0,2008/5/2,,,0,0,0,0,0,0.00,608,ebook,,0,0,,,,James W. Smither,,,1,0,,
18095501,0470492759,"The Game of School: Why We All Play It, How It Hurts Kids, and What It Will Take to Change It",9780470492758,,,,ES,2009/5/18,Jossey-Bass,,true,1,18095501,0,0,0,0,2009/5/18,,,0,0,0,0,0,0.00,240,ebook,,0,0,Robert L Fried,,,,,,,0,,
18096001,,"Molly Fyde and the Fight for Peace (The Bern Saga, #4)",9781620511121,,,,ES,2010/10/28,Broad Reach Publishing,eng,true,6,10259881,3868,10607,2637,115,2010/10/27,,book,862,1102,555,106,12,4.02,412,ebook,,1,1,Hugh Howey,,,,,,697,26,107,"fantasy,fiction,science-fiction,suspense,tragedy,young-adult"
18096501,0824933540,Home for the Holidays,9780824933548,,,,ES,2013/6/7,GuidepostsBooks,,true,6,633936,585,1208,287,27,2005/2/1,"Home for the Holidays (Tales From Grace Chapel Inn, #7)",book,131,96,51,7,2,4.21,168,ebook,,0,0,Rebecca Kelly,,,,,,199,9,9,"adult,chick-lit,christian,christian-fiction,christmas,fiction,young-adult"
18097001,1134079591,International Perspectives in Feminist Ecocriticism,9781134079599,,,,ES,2013/6/7,Routledge,,true,7,16234053,19,12,4,1,2013/1/1,,,0,0,4,0,0,3.00,290,ebook,,0,0,,,,"Greta Gaard,Serpil Oppermann,Simon C. Estok",,,14,0,,
18097501,1159838062,"Opera (Batiment): La Monnaie, Opera, Theatre Mariinsky, Palais Des Festivals de Bayreuth, Teatro Nacional de Sao Carlos, Theatre National, Opera Khedival Du Caire, Opera Royal de Wallonie, Opera National Hongrois",9781159838065,,,,ES,2012/10/12,"Books LLC, Wiki Series",,false,1,18097501,0,0,0,0,2011/8/24,,,0,0,0,0,0,0.00,32,Paperback,,0,0,,,,Livres Groupe,,,,0,,
18098001,1159865493,"Personnalite de La Viticulture: Ernest Ferroul, Pierre Richard, Kilien Stengel, Philippe de Rothschild, Marcelin Albert, Dom Perignon, Famille Guarini Di Poggiardo, Jules Guyot, Pierre Le Roy de Boiseaumarie, Antonio Augusto de Aguiar",9781159865498,,,,ES,2012/10/12,"Books LLC, Wiki Series",,false,1,18098001,0,0,0,0,2011/8/24,,,0,0,0,0,0,0.00,52,Paperback,,0,0,,,,Livres Groupe,,,,0,,
18098501,1159900418,"Prestidigitation: Illusion D'Optique, Le Prestige, Cartomagie, Jean-Luc Muller, Breaking the Magicians' Code: Magic's Biggest Secrets Finally Revealed, Baguette Magique, Mentalisme, Federation Francaise Des Artistes Prestidigitateurs",9781159900410,,,,ES,2012/10/12,"Books LLC, Wiki Series",,false,1,18098501,2,5,1,0,2011/9/7,,,1,0,0,0,0,5.00,34,Paperback,,1,0,,,,Livres Groupe,,,2,0,,
18099001,1429940018,"Arnie, the Doughnut",9781429940016,,,,ES,2003/4/1,Henry Holt & Company,,true,10,1128849,1586,4286,1041,198,2003/4/1,Arnie the Doughnut,book,481,296,191,51,22,4.12,40,ebook,,0,0,Laurie Keller,,,,,,293,27,9,"childrens,fantasy,fiction,food,funny,humor,juvenile,picture-books"
18099501,1457669099,Signs of Life in the USA [with Hacker's Pocket Style Manual],9781457669095,,,,ES,2013/3/25,Bedford Books,eng,false,112,337924,518,649,184,16,1994/1/1,Signs of Life in the USA: Readings on Popular Culture for Writers,book,39,58,57,21,9,3.53,,Unknown Binding,7th Edition,0,0,"Jack Solomon,Sonia Maasik",,,,,,182,18,21,"academic,anthologies,collections,college,essays,fiction,non-fiction,psychology,reference,school,sociology,textbooks,writing"
18100001,146681120X,Moon Bear,9781466811201,,,,ES,2013/6/18,Henry Holt & Company,,true,7,7259944,286,554,166,46,2010/1/1,,book,24,44,69,22,7,3.34,40,ebook,,0,0,Brenda Z. Guiberson,,,,,,62,7,1,"animals,art,childrens,nature,non-fiction,picture-books,realistic-fiction,science"
18100501,1481121561,Death on the Maid of the Mist: A Cadogan Cain Mystery,9781481121569,,,,ES,2013/6/10,Createspace Independent Publishing Platform,,false,1,18100501,3,4,1,0,2013/6/10,,,0,1,0,0,0,4.00,136,Paperback,,1,0,Marvin Allan Williams,,,,,,2,0,,
18101001,1603581359,The Citizen-Powered Energy Handbook: Community Solutions to a Global Crisis,9781603581356,,,,ES,2007/3/7,Chelsea Green Publishing Company,,true,3,284766,82,43,11,2,2007/3/7,The Citizen-Powered Energy Handbook: Community Solutions to a Global Crisis,,2,6,3,0,0,3.91,336,ebook,,0,0,Greg Pahl,,,,,,51,1,4,"economics,non-fiction"
18101501,1782973923,"Image, Memory and Monumentality: Archaeological Engagements with the Material World",9781782973928,,,,ES,2013/8/31,Oxbow Books Limited,,false,5,18101501,0,0,0,0,2012/12/31,,book,0,0,0,0,0,0.00,366,Paperback,,0,0,,,,"Andrew Meirion Jones,Joshua Pollard,Julie Gardiner,Michael J.   Allen",,,,0,,
18102001,3110333546,Second Temple Pseudepigraphy: A Cross-Cultural Comparison of Apocalyptic Texts and Related Jewish Literature,9783110333541,,,,ES,2013/11/15,Walter de Gruyter,,false,4,18102001,1,0,0,0,2013/1/1,,,0,0,0,0,0,0.00,211,Hardcover,,0,0,Vicente Dobroruka,,,,,,1,0,,
18102501,9004219021,Synchrony and Diachrony of Okinawan Kakari Musubi in Comparative Perspective with Premodern Japanese,9789004219021,,,,ES,2013/5/29,Global Oriental,,false,2,18102501,0,0,0,0,2013/5/29,,,0,0,0,0,0,0.00,19,Hardcover,,0,0,"Leon A Serafim,Rumiko Shinzato",,,,,,,0,,
18103001,1743643497,Copper Lake Encounter / Texas Cold Case / Texas Lost and Found,9781743643495,,,,ES,2013/8/1,Mills  Boon Romantic Suspense,,true,2,18103001,17,20,5,0,2013/8/1,,book,3,1,0,0,1,4.00,564,ebook,,5,0,"Linda Conrad,Marilyn Pappano",,,,,,10,0,,
18103501,,"Uhyrernes by (Eagle and Jaguar, #1)",9788702010213,,,,ES,2002/1/1,Gyldendal,dan,false,103,3304,41743,94965,25649,1341,2002/1/1,La ciudad de las bestias,book,6566,8723,7235,2413,712,3.70,276,Paperback,,7,0,Isabel Allende,,,,,,8952,45,816,"adventure,amazon,childrens,contemporary,fantasy,fiction,literature,magic,magical-realism,middle-grade,mystery,mythology,novels,romance,school,supernatural,teen,unfinished,young-adult"
18104501,1771115785,Atlantis Lost (Atlantis Allure),9781771115780,,,,ES,2013/6/1,eXtasy Books,eng,true,2,18104501,21,8,2,1,2008/4/7,Atlantis Allure,book,1,0,1,0,0,4.00,26,ebook,,2,1,Stephani Hecht,,,,,,15,2,,"paranormal,romance"
18105001,,Yomogi Loves Money? Vol. 3,9786022660835,,,,ES,2013/6/19,PT Gramedia (m&c!),ind,false,1,18105001,135,164,41,6,2008/1/1,Yomogi Mochi Yaketa? Vol 3,book,17,10,11,3,0,4.00,186,Paperback,,41,6,Kiyoko Arai,,,,,,78,2,5,"humor,manga,romance"
18105501,,Fortunes Bought and Sold,,B00DAIOMPI,,,ES,2013/6/8,R. Leonia Shea,en-US,true,2,18105501,5,8,2,2,2013/6/8,,book,1,0,1,0,0,4.00,179,ebook,,2,2,R. Leonia Shea,,,,,,2,2,,
18106001,,تهافت الليبرالية,,,,,ES,2012/1/1,دار ابن الجوزي,ara,false,1,18106001,25,19,5,0,2012/1/1,,book,2,0,3,0,0,3.80,80,Paperback,,5,0,أحمد فريد,,,,,,20,0,,
18106501,,Now Then: A Sci Fi Comedy about Jimmy Savile and a time machine,,,,,ES,2013/1/1,,eng,false,2,18106501,8,10,4,1,2013/1/1,,book,1,0,1,0,2,2.50,,,,4,1,Colin Alexander,,,,,,3,0,,
18107001,,The Terno: Its Development and Identity as the Filipino Woman's National Costume,,,,,ES,1982/1/1,The University of the Philippines College of Home Economics,,false,1,18107001,6,0,0,1,1982/1/1,,book,0,0,0,0,0,0.00,,,,0,1,Eric V. Cruz,,,,,,3,0,,
18108001,1588653668,What Can Simon Be?,9781588653666,,,,ES,2006/1/1,"Kidsbooks, Llc and Gene Yates",,false,1,18108001,14,29,7,3,2006/1/1,,book,4,2,0,0,1,4.14,,Board book,,7,3,"Gene Yates,Thomas Frank",,,,,,3,1,1,
18108501,8560280456,"A Serpente de Pedra (Yashim the Eunuch, #2)",9788560280452,,,,ES,2009/10/21,Suma de Letras,por,false,41,1084771,2958,6641,1766,205,2007/10/16,The Snake Stone,book,331,795,537,92,11,3.76,296,Paperback,,0,0,Jason Goodwin,,,,,,213,11,53,"adventure,crime,detective,fiction,historical,historical-fiction,history,international,mystery,mystery-thriller,suspense,thriller"
18109001,0373162081,A Question of Honor,9780373162086,,,,ES,1987/1/1,Harlequin,eng,false,2,8380135,8,7,2,0,1987/1/1,A Question of Honor,book,1,0,0,1,0,3.50,251,Paperback,,0,0,Jacqueline Ashley,,,,,,2,0,,fiction
18109501,9812602186,Ragnarok Vol.10,,,,,ES,,Chuang Yi Publishing Pte Ltd.,eng,false,7,969363,258,552,147,5,2003/4/1,Ragnarök: Volume 10,book,42,43,47,14,1,3.76,,Paperback,,1,0,Myung-Jin Lee,,,,,,51,4,,"action,comics,fantasy,fiction,graphic-novels,manga,mythology,young-adult"
18110501,,יש ילדים זיגזג,,,,,ES,1994/1/1,הוצאת הקיבוץ המאוחד - הספרייה החדשה,heb,false,32,60372,2201,4906,1253,83,1994/1/1,יש ילדים זיגזג,book,382,496,284,69,22,3.92,300,Paperback,,88,3,"David Grossman,דויד גרוסמן",,,,,,567,14,33,"adventure,fiction,literary-fiction,novels,young-adult"
18111001,,"The Open Secret of Polyglots - How to learn English or Other Languages with Kindle, Print or Audio Books",,B00CW22BF6,,,ES,2013/5/1,,eng,true,1,18111001,37,41,14,3,2013/5/1,,book,2,3,4,2,3,2.93,124,Kindle Edition,,14,3,Mihály Hevesi,,,,,,14,0,6,amazon
18111501,9186845160,Lust,9789186845162,,,,ES,2013/6/1,Mix Förlag,swe,true,3,18111501,38,73,22,7,2013/6/1,,book,2,8,7,5,0,3.32,282,ebook,,18,7,Åsa Schwarz,,,,,,12,1,,chick-lit
18112001,,"Krug Zemlje (Mladi samuraj, #4)",9788677107352,,,,ES,2010/1/1,Alnari,srp,false,12,8585118,4249,10955,2489,77,2010/8/5,The Ring of Earth,book,1372,807,261,35,14,4.40,263,Paperback,,4,0,Chris Bradford,,,,,,316,13,22,"action,adventure,childrens,cultural,fantasy,fiction,historical,historical-fiction,history,magic,medieval,middle-grade,teen,war,young-adult"
18112501,3802589025,"Unsterbliche Sehnsucht (Fallen, #2)",9783802589027,,,,ES,2013/12/12,Egmont LYX,ger,false,7,11424566,1358,1425,383,49,2012/1/1,His Dark Bond,book,95,133,116,31,8,3.72,350,Klappenbroschur,,2,1,Anne Marsh,,,,"Diana Hammermeister,Franziska Kahl",,861,18,6,"adult,angels,demons,fantasy,paranormal,romance,urban-fantasy"
18113001,,Griffith-Justice in Space (Inspector Griffith Series),,B00BA3O5UW,,,ES,2013/2/2,,en-US,true,1,18113001,2,0,0,0,2013/2/2,,book,0,0,0,0,0,0.00,69,ebook,,0,0,Michael Charton,,,,,,2,0,,
18113501,1433690853,Talking Is a Gift: Communication Skills for Women,9781433690853,,,,ES,2014/2/1,B Academic,,false,2,18113501,35,21,7,1,2014/2/1,,,1,2,1,2,1,3.00,320,Hardcover,,4,1,"Monica Rose Breman,Rhonda  Harrington Kelley",,,,,,17,2,8,spirituality
18114001,,Real Vampires Don't Surf,,B00DELZS9A,,,ES,2013/6/13,Purple Prosaic,,true,3,18114001,8,11,3,1,2013/6/13,,book,0,2,1,0,0,3.67,280,ebook,,2,1,Will Belegon,,,,,,4,1,,"action,romance,urban-fantasy"
18114501,1612386466,Moon 101 Great Hikes of the San Francisco Bay Area,9781612386461,,,,ES,2014/2/18,Moon Travel,,false,5,2022977,110,230,54,4,2007/9/28,Moon 101 Great Hikes of the San Francisco Bay Area (Moon Outdoors),,23,22,9,0,0,4.26,432,Paperback,,12,0,Ann Marie Brown,,,,,,25,3,8,"reference,travel"
18115001,,the great stone face,,,,,ES,,,,false,79,171017,830,1334,356,47,1850/1/1,,book,96,121,104,23,12,3.75,,,,0,0,Nathaniel Hawthorne,,,,,,348,9,24,"american,childrens,classic-literature,classics,education,fiction,literature,picture-books,short-stories,social,spirituality"
18115501,1283996650,Witch's Trinity,9781283996655,,,,ES,2014/5/10,Crown Publishing Group (NY),,true,14,919275,6590,5663,1589,258,2007/9/25,The Witch's Trinity,book,285,573,533,149,49,3.56,,ebook,,2,1,Erika Mailman,,,,,,4556,36,131,"adult,christianity,contemporary,cultural,drama,fantasy,feminism,fiction,historical,historical-fiction,history,horror,literature,magic,magical-realism,novels,paranormal,supernatural,witches"
18116001,129903523X,Loss of El Dorado,9781299035232,,,,ES,2011/1/1,Vintage,,true,26,54140,715,772,212,23,1969/1/1,The Loss of El Dorado: A Colonial History,book,37,89,62,21,3,3.64,,ebook,,0,0,V.S. Naipaul,,,,,,387,7,19,"fiction,historical,history,nature,non-fiction,religion"
18116501,1299086438,Mask of Troy,9781299086432,,,,ES,2014/6/13,Dell Publishing Company,,true,21,8111305,3958,7170,1893,107,2010/1/1,The Mask of Troy,book,567,617,512,134,63,3.79,,ebook,,0,0,David Gibbins,,,,,,1089,13,40,"action,adult,adventure,crime,english-literature,fantasy,fiction,historical,historical-fiction,history,mystery,mystery-thriller,mythology,science-fiction,suspense,thriller"
18117001,1299132014,Forgetting: Alzheimer's: Portrait of an Epidemic,9781299132016,,,,ES,2014/5/10,Anchor Books,,true,19,896642,1090,1440,350,54,,,book,126,148,66,10,0,4.11,,ebook,,0,0,David Shenk,,,,,,524,11,26,"adult,health,history,medical,mental-health,non-fiction,psychology,reference,research,science,spirituality"
18118001,,Les Idees Zarbi Du Cafard Felu,9791091596008,,,,ES,2013/5/13,Snow Moon,,false,1,18118001,1,0,0,0,2013/5/13,,,0,0,0,0,0,0.00,64,Paperback,,0,0,"Foogy,Lakik',Zanapa",,,,,,1,0,,
18118501,0444563725,Polymer Science: A Comprehensive Reference,9780444563729,,,,ES,2012/1/1,Elsevier,,false,10,18118501,0,0,0,0,2012/1/1,,,0,0,0,0,0,0.00,,Hardcover,,0,0,,,Krzysztof Matyjaszewski,,,,,0,,
18119001,0749464321,Adland: A Global History of Advertising,9780749464325,,,,ES,2014/5/14,Kogan Page,,true,14,1694829,624,907,242,22,2007/1/1,Adland: A Global History of Advertising,book,54,102,66,11,9,3.75,288,ebook,,0,0,Mark Tungate,,,,,,278,11,41,"academic,adult,business,contemporary,history,non-fiction"
18119501,0819871435,Prayers for Surviving Depression,9780819871435,,,,ES,2011/6/1,Pauline Books & Media,,true,5,3247619,27,56,13,2,2004/8/1,Prayers For Surviving Depression,,7,3,3,0,0,4.31,,ebook,,0,0,Kathryn J. Hermes,,,,,,10,2,1,"christian,mental-health,psychology,religion,spirituality,theology"
18120001,1118402804,Practical Residual Stress Measurement Methods,9781118402801,,,,ES,2013/8/1,Wiley,,true,6,17681869,3,0,0,0,2013/8/1,,,0,0,0,0,0,0.00,328,ebook,,0,0,,,,Gary S. Schajer,,,2,0,,
18120501,1118699858,General Pathology for Veterinary Nurses,9781118699850,,,,ES,2013/5/31,Wiley-Blackwell,,true,6,18120499,6,9,2,0,2010/2/5,,,1,1,0,0,0,4.50,256,ebook,,0,0,Harriet Brooks,,,,,,4,0,,
18121001,9630725800,Az átváltozás,,,,,ES,1982/1/1,Európa,hun,false,244,7723,76768,193074,47850,1513,1915/1/1,Die Verwandlung und andere Erzählungen,book,17925,17615,9161,2357,792,4.03,304,Paperback,Zsebkönyvek,16,0,Franz Kafka,,,,,,18189,100,1703,"adult,adult-fiction,classic-literature,classics,collections,criticism,european-literature,fantasy,fiction,horror,literary-fiction,literature,magical-realism,modern-classics,novella,novels,philosophy,psychology,school,science-fiction,short-stories,unfinished"
18121501,1159369518,"Album de Madonna: Like a Virgin, True Blue, Madonna, Who's That Girl, You Can Dance, Hard Candy, Ray of Light, Confessions on a Dance Floor, Erotica, Celebration, Music, Like a Prayer, Ghv2, Something to Remember, Evita, American Life",9781159369514,,,,ES,2012/10/12,"Books LLC, Wiki Series",,false,1,18121501,1,2,1,0,2012/10/12,,,0,0,0,1,0,2.00,46,Paperback,,1,0,Source Wikipedia,,,Livres Groupe,,,,0,,
18122001,1159406987,"Chaine de Television Quebecoise: Meteomedia, Television de Radio-Canada, Tv5 Monde, Series+, Teletoon, Tele-Quebec, TVA, Cftu-TV, Musiqueplus, Zeste,",9781159406981,,,,ES,2012/10/12,"Books LLC, Wiki Series",,false,1,18122001,0,0,0,0,2012/10/12,,,0,0,0,0,0,0.00,38,Paperback,,0,0,Source Wikipedia,,,Livres Groupe,,,,0,,
18122501,1402281811,Meet Me at the Cupcake Cafe: A Novel with Recipes,9781402281815,,,,ES,2013/7/2,Sourcebooks Landmark,,true,40,10134852,26164,48460,12562,1119,2011/4/14,Meet Me at the Cupcake Café,book,3586,4753,3273,749,201,3.86,432,ebook,,15,2,Jenny Colgan,,,,,,10853,137,535,"adult,adult-fiction,chick-lit,contemporary,cooking,family,fiction,food,funny,humor,relationships,romance"
18123001,1458462587,Mixing and Mastering with Pro Tools,9781458462589,,,,ES,2012/2/1,Hal Leonard Publishing Corporation,,true,2,14370721,2,5,1,0,2012/2/1,,,1,0,0,0,0,5.00,136,ebook,,0,0,Glenn Lorbecki,,,,,,1,0,,
18123501,1480340480,"Swamped!: A Musical about Friendship, Tolerance and Change",9781480340480,,,,ES,2013/7/1,Hal Leonard Publishing Corporation,,false,5,18016035,0,0,0,0,2013/6/20,,,0,0,0,0,0,0.00,56,Paperback,,0,0,,,,,,,,0,,
18124001,1483650405,Cubs to Bonanzas: A Sixty-Five-Year Perspective Through a Pilot's Eyes,9781483650401,,,,ES,2013/6/20,Xlibris,,false,2,18124000,1,3,1,0,2013/6/20,,,0,0,1,0,0,3.00,154,Hardcover,,0,0,Richard A. Komm,,,,,,,1,,
18124501,1609789113,Kaplan Mobile Prep for the GRE(R) + 6 Practice Tests,9781609789114,,,,ES,2013/5/20,Kaplan Publishing,,true,1,18124501,0,0,0,0,2013/5/20,,,0,0,0,0,0,0.00,588,ebook,,0,0,Kaplan Inc.,,,,,,,0,,
18125001,1625846509,The Battle of Fisher's Hill: Breaking the Shenandoah Valley's Gibraltar,9781625846501,,,,ES,2013/6/18,History Press (SC),,true,5,17921459,24,31,8,2,2013/6/13,,,2,3,3,0,0,3.88,144,ebook,,2,0,Jonathan A. Noyalas,,,,,,5,0,3,
18125501,3527410864,"Statistical Analysis Techniques in Particle Physics: Fits, Density Estimation and Supervised Learning",9783527410866,,,,ES,2013/12/23,Wiley-VCH Verlag GmbH,,false,7,18992089,1,0,0,0,2013/1/1,,,0,0,0,0,0,0.00,441,Paperback,,0,0,"Frank C. Porter,Ilya Narsky",,,,,,1,0,,
18126001,9041142150,Economic Efficiency: The Sole Concern of Modern Antitrust Policy?: Non-Efficiency Considerations Under Article 101 Tfeu,9789041142153,,,,ES,2012/8/1,Kluwer Law International,,true,3,18126001,2,0,0,0,2012/1/1,,,0,0,0,0,0,0.00,504,ebook,,0,0,Ben Van Rompuy,,,,,,1,0,,
18126501,,Surfboard Summer,,,,,ES,1965/1/1,Western Publishing Company,eng,false,1,18126501,8,19,5,2,1965/1/1,,book,2,1,1,1,0,3.80,214,Hardcover,,5,2,Jane L. Sears,,,,,,3,0,,young-adult
18127001,144222505X,Rethinking Absorptive Capacitypb,9781442225053,,,,ES,2013/7/1,Rowman & Littlefield Publishers,,false,4,18228399,1,0,0,0,2013/1/1,,,0,0,0,0,0,0.00,68,Paperback,,0,0,"Kathryn Mixon,Robert D. Lamb",,,,,,1,0,,
18127501,1481788337,"Equi-Yoga, Equitation Yogique",9781481788335,,,,ES,2013/6/17,Authorhouse,,false,4,18127502,1,5,1,0,2013/6/17,,,1,0,0,0,0,5.00,250,Hardcover,,0,0,Ann Boudart,,,,,,,0,,
18128001,1490441883,Financial Literacy: The Basic Requirement for Financial Freedom,9781490441887,,,,ES,2013/6/18,Createspace Independent Publishing Platform,,false,3,18128001,6,10,2,1,2012/6/15,,,2,0,0,0,0,5.00,98,Paperback,,1,0,J.B. Malatji,,,,,,2,0,,
18128501,1782791930,The Speed of Angels,9781782791935,,,,ES,2013/10/7,Perfect Edge,,false,6,7744460,3,1,1,1,2009/1/1,,,0,0,0,0,1,1.00,74,Paperback,,1,1,Manu Bazzano,,,,,,1,0,,
18129001,3955830039,Die Befreiungskriege 1813-1815,9783955830038,,,,ES,2013/6/15,Aischines Verlag,,false,5,18452777,0,0,0,0,2012/11/28,,,0,0,0,0,0,0.00,154,Hardcover,,0,0,Rudolf Von Caemmerer,,,,,,,0,,
18129501,9632088263,Budapest az ikerfőváros,,,,,ES,2003/1/1,Helikon Kiadó,hun,false,1,18129501,1,5,1,0,2003/1/1,Budapest az ikerfőváros,book,1,0,0,0,0,5.00,184,Hardcover,,1,0,"Emoke Tomsics,Katalin Jalsovszky",,,,,,,0,,
18130001,,Камень и боль,,,,,ES,,,,false,5,6597749,224,514,116,5,1942/1/1,Kámen a bolest,book,70,32,10,2,2,4.43,,,,2,0,Karel Schulz,,,,,,78,1,13,"art,biography,fiction,historical-fiction,history,school,unfinished"
18130501,9638629940,A világ legnagyobb átverései,,,,,ES,2003/1/1,Jövővilág Alapítvány,hun,false,1,18130501,1,4,1,0,2003/1/1,,book,0,1,0,0,0,4.00,236,Paperback,,1,0,,,,,,,,0,,non-fiction
18131001,3257208405,Die Wiedertäufer,9783257208405,,,,ES,1986/1/1,Diogenes Verlag AG Zürich,ger,false,2,736601,54,91,27,2,1980/1/1,Die Wiedertäufer. Eine Komödie in zwei Teilen. Urfassung.,book,2,11,10,3,1,3.37,146,Paperback,,4,1,Friedrich Dürrenmatt,,,,,,16,0,,"drama,plays,religion,theatre"
18131501,,Cache! Wir finden ihn!,9783939435396,,,,ES,,mixtvision Verlag,ger,false,2,18131501,3,7,2,0,2011/7/18,,book,0,1,1,0,0,3.50,176,Paperback,,2,0,Manuel Andrack,,,,,,,0,,
18132001,0615763693,Death In A Red Canvas Chair (Rhe Brewster #1),9780615763699,,,,ES,2013/5/8,N. A.\Granger,eng,false,2,20166986,143,244,60,13,2013/5/8,,book,23,20,15,2,0,4.07,216,Paperback,,21,11,N.A. Granger,,,,,,68,2,8,"crime,mystery,mystery-thriller,suspense,thriller"
18132501,,"O Encouraçado Potemkin (Folha Cine Europeu,13)",9788516071639,,,,ES,2011/1/1,Moderna,por,false,1,18132501,5,10,3,1,2011/1/1,,book,1,0,1,1,0,3.33,64,Livro-DVD,,3,1,"Cássio Starling Carlos,Luiz Carlos Oliveira Junior,Pedro Maciel Guimarães",,,,,,1,0,,
18133501,,Ninjateknikk II - usynlighet i strid 1978,9788249504268,,,,ES,2004/1/1,Oktober,nor,false,1,18133501,5,16,4,1,2004/1/1,,book,1,2,1,0,0,4.00,,Paperback,,4,1,Thomas Cappelen Malling,,,,,,1,0,,
18134001,,پرواز بر فراز ویوودینا,9789644171123,,,,ES,1376/1/1,انتشارات قدیانی,per,false,1,18134001,13,22,7,1,1376/1/1,,book,0,3,3,0,1,3.14,336,Paperback,,7,1,محمود اکبرزاده,,,,,,5,0,,
18134501,,The Land of Lincoln Salutes Chanute,,,,,ES,,Boone Publications,eng,false,1,18134501,1,0,0,0,,,book,0,0,0,0,0,0.00,,,,0,0,,,,,,,1,1,,
18135501,8203233724,Simple living: slik gjør du det,9788203233722,,,,ES,2006/1/1,Aschehoug,nor,false,3,18137666,19,24,7,0,2005/1/1,Simple living: Sådan gør du,book,1,2,3,1,0,3.43,197,Paperback,norsk utgave,1,0,Gitte Jørgensen,,,,,,8,0,1,non-fiction
18136001,,Forgiveness Offers Everything I Want,,B00D09WEUM,,,ES,2013/5/24,Karat Publishing,en-GB,true,2,17890969,16,46,10,3,1913/5/15,,book,8,1,0,1,0,4.60,270,Kindle Edition,,2,0,Susan Dugan,,,,,,4,0,1,spirituality
18136501,9024552168,De prins op het verkeerde paard,9789024552160,,,,ES,2005/4/1,Luitingh-Sijthoff,nl,false,22,42001,11235,21370,5644,217,2003/8/1,Falling for You,book,1466,2069,1651,353,105,3.79,335,Paperback,,19,1,Jill Mansell,,,,,,1440,46,78,"adult,chick-lit,comedy,contemporary,drama,fiction,funny,humor,modern,romance"
18137001,8531504864,As Ordens Esotéricas e o Seu Trabalho,,,,,ES,1993/1/1,Editora Pensamento,por,false,12,211739,515,700,177,6,1961/11/30,Esoteric Orders and Their Work,,51,81,32,12,1,3.95,126,Paperback,,1,0,Dion Fortune,,,,,,233,4,6,"magic,non-fiction,spirituality"
18137501,,True Singapore Ghost Stories : Book 22,9789814315241,,,,ES,2012/1/1,Angsana Books,eng,false,1,18137501,118,104,26,1,2012/1/1,,book,9,10,6,0,1,4.00,160,Paperback,,26,1,Russell Lee,,,,,,71,2,3,
18138001,9789940220,Pred budjenje,9789940220235,,,,ES,2012/1/1,Gligorije Dijak,srp,false,1,18138001,35,135,27,2,2012/1/1,Pred budjenje,book,27,0,0,0,0,5.00,197,Hardcover,Large print,27,2,Milisav Popović,,,,,,6,0,,
18138501,0670014907,The Portable Hawthorne,,,,,ES,1971/7/1,Viking Press,eng,false,16,392893,237,238,64,9,1948/1/1,The Portable Hawthorne,book,14,23,22,5,0,3.72,698,Mass Market Paperback,,0,0,Nathaniel Hawthorne,,,,,,111,13,6,"adult-fiction,classic-literature,classics,fiction,history,literature,short-stories"
18139001,,Days with the Great Novelists,,,,,ES,,Hodder & Stoughton ,,false,1,18139001,2,4,1,1,,,book,0,1,0,0,0,4.00,130,Hardcover,,1,1,May Clarissa Gillington Byron,,,,,,1,0,,biography
18139501,1441146482,Charity and the Great Hunger in Ireland: The Kindness of Strangers,9781441146489,,,,ES,2013/12/5,Bloomsbury Academic,,false,6,18139408,26,25,6,1,2013/1/1,,,1,5,0,0,0,4.17,424,Paperback,,1,0,Christine Kinealy,,,,,,16,0,1,"history,non-fiction,sociology"
18140001,1137278617,Resurgence: The Four Stages of Market-Focused Reinvention,9781137278616,,,,ES,2014/2/18,St. Martin's Press,,false,3,18140001,28,39,10,0,2014/2/18,,,4,2,3,1,0,3.90,256,Hardcover,,6,0,"Gary F. Gebhardt,Gregory S. Carpenter,John F. Sherry Jr.",,,,,,14,1,3,
18140501,,13 Poemas Ácidos no Bolso da Calça,,,,,ES,2009/1/1,,por,false,1,18140501,2,8,2,0,2009/1/1,,book,1,0,1,0,0,4.00,81,,,2,0,Robisson Sete,,,,,,1,0,,
18141001,1466849363,How to DJ: The Insider's Guide to Success on the Decks,9781466849365,,,,ES,2013/7/16,St. Martin's Griffin,,true,3,312931,12,13,4,1,2006/3/7,How to DJ: The Insider's Guide to Success on the Decks,,0,2,1,1,0,3.25,192,ebook,,0,0,"Phil Benedictus,Point-Blank,Tom Frederikse",,,,,,6,0,,
18141501,,Santo Agostinho em 90 minutos,9788537804063,,,,ES,2011/4/1,Jorge Zahar Editor,por,true,16,243733,421,741,245,29,1997/1/1,St. Augustine in 90 Minutes (Philosophers in 90 Minutes),book,21,54,104,42,24,3.02,100,ebook,,13,0,Paul Strathern,,,,Maria Helena Geordane,,106,8,3,"biography,christianity,classics,faith,history,non-fiction,philosophy,religion,theology"
18142001,0310274710,Sourcebook of 500 Illustrations,,,,,ES,1982/1/1,Zondervan ,eng,false,1,18142001,3,0,0,0,1982/1/1,,book,0,0,0,0,0,0.00,218,Paperback,18th ,0,0,Robert    Lee,,,,,,2,0,,
18142501,0804166676,Sputnik Sweetheart,9780804166676,,,,ES,2013/10/15,Random House Audio,,false,138,9557,148372,345431,90403,5193,1999/4/20,スプートニクの恋人 [Supūtoniku no Koibito],book,21223,38304,25137,4950,789,3.82,7,Audio,,11,2,Haruki Murakami,,,,,,39178,447,1831,"adult,adult-fiction,contemporary,drama,fantasy,fiction,lgbt,literary-fiction,literature,love,magical-realism,modern,mystery,novels,queer,romance"
18143001,,Hiihtopummi,,,,,ES,1967/1/1,Otava,fin,false,21,662768,11219,24572,6235,458,1964/1/1,The Ski Bum,book,2264,2153,1228,366,224,3.94,,Hardcover,,1,0,Romain Gary,,,,,,3397,11,319,"fiction,france,literature,novels,philosophy"
18143501,1452645787,The Girl Factory: A Memoir,9781452645780,,,,ES,2013/10/1,Tantor Media,,false,9,17572146,1013,575,178,43,2013/1/1,,,30,45,57,28,18,3.23,,Audio CD,,0,0,Karen Dietrich,,,,,Cassandra Campbell,795,18,4,"adult,autobiography,biography,crime,family,feminism,fiction,memoir,mental-health,mental-illness,non-fiction"
18144001,1476738262,Mom in the Movies: The Iconic Screen Mothers You Love (and a Few You Love to Hate),9781476738260,,,,ES,2014/4/8,Simon  Schuster,,false,2,18144001,331,173,48,16,2014/4/8,,book,10,19,11,6,2,3.60,256,Hardcover,,48,16,Richard Corliss,,,,,,274,2,1,"americana,art,cultural,film,historical,history,movies,non-fiction"
18144501,1299684564,Harlequin Intrigue August 2013 - Bundle 2 of 2: Smoky Ridge Curse\Ruthless\Falcon's Run,9781299684560,,,,ES,2014/6/13,Harlequin Intrigue,,true,3,18144501,18,5,1,0,2013/1/1,,book,1,0,0,0,0,5.00,,ebook,,1,0,"Aimée Thurlo,HelenKay Dimon,Paula Graves",,,,,,12,0,1,
18145001,,Field Guide to the Native Trees of the ACT,9780646447476,,,,ES,2007/1/1,,eng,false,1,18145001,1,4,1,0,1983/1/1,,book,0,1,0,0,0,4.00,98,Paperback,Second Edition,1,0,National Parks Association of the ACT Inc.,,,,,,,0,,
18145501,,Камень и пламя,9785516001116,,,,ES,2013/1/1,"Издательский дом ""Ленинград""",rus,false,1,18145501,9,29,9,0,,,book,0,3,5,1,0,3.22,262,,,9,0,Андрей Борисович Земляной,,,,,,,0,,
18146001,8074473015,"Som zlomená (Shatter Me, #2)",9788074473012,,,,ES,2013/8/26,CooBoo,slo,false,5,13104080,261203,610431,143135,13648,2013/2/5,Unravel Me,book,72866,44549,18653,4879,2188,4.26,392,Hardcover,,27,12,Tahereh Mafi,,,,,,95440,2214,3065,"action,adventure,dystopia,fantasy,fiction,love,magic,new-adult,paranormal,post-apocalyptic,romance,science-fiction,supernatural,teen,young-adult"
18146501,1482744597,Breaking Anonymous,9781482744590,,,,ES,2013/6/23,Createspace Independent Publishing Platform,,false,2,18146501,0,0,0,0,2013/6/23,,,0,0,0,0,0,0.00,278,Paperback,,0,0,J R Varnell,,,,,,,0,,
18147001,1490505024,Fantasy Saga D-Type: Legend of the Demon Doors,9781490505022,,,,ES,2013/6/22,Createspace Independent Publishing Platform,,false,1,18147001,1,0,0,0,2013/6/22,,,0,0,0,0,0,0.00,98,Paperback,,0,0,Walter B Gress V,,,,,,1,0,,
18147501,1630045330,When the Spotlight Burns: Excerpts from the Diary of Mary Nicks,9781630045333,,,,ES,2013/6/19,America Star Books,,false,3,18147501,0,0,0,0,2011/11/11,,,0,0,0,0,0,0.00,156,Paperback,,0,0,Mabe Real,,,,,,,0,,
18148001,3846039551,Tagebuch Seiner Musikalischen Reisen,9783846039557,,,,ES,2013/6/24,Salzwasser-Verlag Gmbh,,false,2,18148001,0,0,0,0,2013/6/24,,,0,0,0,0,0,0.00,350,Paperback,,0,0,Carl Burney,,,,,,,0,,
18148501,0310432448,Readeasy Bible-NKJV-Compact,9780310432449,,,,ES,2014/2/25,Zondervan,,false,4,18148503,6,5,1,0,2014/2/25,,book,1,0,0,0,0,5.00,1686,Leather Bound,,0,0,Anonymous,,,,,,2,0,1,
18149001,0520957024,Beyond the Second Sophistic: Adventures in Greek Postclassicism,9780520957022,,,,ES,2013/8/3,University of California Press,,true,3,18562181,19,4,1,0,2013/1/1,,,0,1,0,0,0,4.00,291,ebook,,0,0,Tim Whitmarsh,,,,,,18,0,,
18149501,,Yeraltındaki Melekler Yerüstündeki Şeytanlar,9786050915044,,,,ES,2013/6/1,Doğan Kitap,tur,false,1,18149501,51,68,17,0,2013/6/1,Yeraltındaki Melekler Yerüstündeki Şeytanlar,book,7,5,4,0,1,4.00,336,Paperback,,17,0,Sevil Atasoy,,,,,,21,0,,
18150001,1118703340,"Electrical Overstress (Eos): Devices, Circuits and Systems",9781118703342,,,,ES,2013/8/27,Wiley,,true,6,20171616,3,4,1,0,2013/1/1,,,0,1,0,0,0,4.00,368,ebook,,0,0,Steven H. Voldman,,,,,,1,0,2,
18150501,1134902093,Being of Two Minds: The Vertical Split in Psychoanalysis and Psychotherapy,9781134902095,,,,ES,2013/6/17,Routledge,,true,5,65102,16,12,3,1,1999/5/1,Being of Two Minds: The Vertical Split in Psychoanalysis and Psychotherapy,,2,0,0,1,0,4.00,200,ebook,,0,0,Arnold Goldberg,,,,,,9,0,,college
18151001,1136401490,Hitler: Profile of a Dictator,9781136401497,,,,ES,2013/6/17,Routledge,,true,13,2684779,23,39,11,0,1998/1/1,Hitler: Profile of a Dictator,,0,8,1,2,0,3.55,144,ebook,,0,0,David Welch,,,,,,9,0,,"biography,history"
18151501,1234798174,"Wickedpedia - Most Heavy Villains: Chubby Villains, Masters of Evil, Alameda Slim, Al McWhiggin, Beagle Boys, Br'er Bear, Bruce, Captain Nathaniel Flint, Captain Razoul, Coachman, Governor Ratcliffe, Henry J. Waternoose III",9781234798178,,,,ES,2012/10/13,"Books LLC, Wiki Series",,false,1,18151501,0,0,0,0,2012/10/13,,,0,0,0,0,0,0.00,128,Paperback,,0,0,Source Wikia,,,,,,,0,,
18152001,1438985096,Today I Met a Rainbow: The Story of Patricia Turner,9781438985091,,,,ES,2013/6/26,Authorhouse,,false,1,18152001,0,0,0,0,2013/6/26,,,0,0,0,0,0,0.00,44,Paperback,,0,0,Stephanie Stockdale,,,,,,,0,,
18152501,1454839457,"Casenote Legal Briefs for Administrative Law, Keyed to Cass, Diver, Beerman, and Freeman",9781454839453,,,,ES,2011/5/12,Aspen Publishers,,true,2,18152501,0,0,0,0,2011/5/12,,,0,0,0,0,0,0.00,144,ebook,,0,0,Casenote Legal Briefs,,,,,,,0,,
18153001,1477806598,"Frailty of Flesh, The",9781477806593,,,,ES,2013/6/25,Thomas & Mercer,,false,4,4583828,385,448,121,10,2008/10/28,The Frailty of Flesh,,29,43,37,8,4,3.70,350,Paperback,,0,0,Sandra Ruttan,,,,,,159,8,9,"american,crime,detective,family,fiction,mystery,suspense,thriller"
18153501,1483336387,The Emergence of Sociological Theory,9781483336381,,,,ES,2011/11/1,Sage Publications (CA),,true,14,2302,104,101,28,1,1989/1/1,The Emergence of Sociological Theory,book,7,8,10,1,2,3.61,520,ebook,,0,0,Jonathan H. Turner,,,,,,57,1,3,"sociology,textbooks"
18154001,1595555285,The Total Money Makeover: A Proven Plan for Financial Fitness,9781595555281,,,,ES,2013/9/17,Thomas Nelson,,true,36,78427,101935,239132,55762,4475,2003/1/1,The Total Money Makeover: A Proven Plan for Financial Fitness,book,28447,17790,7321,1570,634,4.29,272,ebook,Classic Edition,5,1,Dave Ramsey,,,,,,32361,235,5505,"adult,business,christian,christianity,economics,education,family,inspirational,non-fiction,personal-development,reference,self-help,unfinished"
18154501,1626977623,The Law of Multiplication Theses,9781626977624,,,,ES,2013/6/27,Xulon Press,,false,1,18154501,1,0,0,0,2013/6/27,,,0,0,0,0,0,0.00,112,Paperback,,0,0,Steve Santini,,,,,,,0,,
18155001,303460095X,Drugs for Her-2-Positive Breast Cancer,9783034600958,,,,ES,2011/3/30,Springer,,false,5,8037389,1,0,0,0,2011/1/1,,,0,0,0,0,0,0.00,122,Paperback,,0,0,,,,"Christoph C. Zielinski,Maria Sibilia,Rupert Bartsch",,,,0,,
18155501,3642122981,Computer Vision -- Accv 2009,9783642122989,,,,ES,2011/3/13,Springer,,false,3,18155501,0,0,0,0,2011/3/13,,,0,0,0,0,0,0.00,706,Paperback,,0,0,,,,"Hongbin Zha,Rin-ichiro Taniguchi,Stephen Maybank",,,,0,,
18156001,3642170870,Advances and Challenges in Space-Time Modelling of Natural Events,9783642170874,,,,ES,2012/1/21,Springer,,false,4,9616372,2,0,0,0,2012/1/1,,,0,0,0,0,0,0.00,268,Paperback,,0,0,,,Emilio Porcu,,,,1,0,,
18156501,3642236065,Brain Informatics,9783642236068,,,,ES,2012/2/23,Springer,,false,1,18156501,0,0,0,0,2012/2/23,,,0,0,0,0,0,0.00,350,Paperback,,0,0,,,Springer,,,,,0,,
18157001,3846039039,Das Kind in Der Altfranzosischen Literatur,9783846039038,,,,ES,2013/6/26,Salzwasser-Verlag Gmbh,,false,6,18157001,0,0,0,0,2013/6/26,,,0,0,0,0,0,0.00,274,Paperback,,0,0,Ferdinand Fellinger,,,,,,,0,,
18157501,9382573445,Strategies for Countering Non State Actors in South Asia,9789382573449,,,,ES,2011/8/8,Vij Multimedia,,true,2,15209501,3,0,0,0,2011/8/8,,,0,0,0,0,0,0.00,188,ebook,,0,0,,,,P.J.S. Sandhu,,,1,0,,
18158001,9780978187,Relentless Journeys: Literacy Stories Shared by Three Women in Canada,,,,,ES,2011/9/1,The Learners' Lighthouse Partnership,eng,false,2,18158001,1,3,1,1,2011/9/1,,book,0,0,1,0,0,3.00,151,Paperback,First Edition,1,1,"Carey Rigby-Wilcox,Dianne C. Smith,Ellen Szita",,,,,,,0,,
18158501,,أحلامي .. كيف أحققها؟,,,,,ES,2012/1/1,http://hmisk.wordpress.com,ara,true,2,18158501,72,30,8,2,2012/1/1,,book,2,2,4,0,0,3.75,84,ebook,,6,2,هدى عبد الرحمن النمر,,,,,,59,0,2,self-help
18159001,,Neli monoloogi  Püha Jüri asjus,,,,,ES,1970/1/1,Perioodika,est,false,1,18159001,42,85,21,1,1970/1/1,,book,9,4,8,0,0,4.05,54,Paperback,,21,1,Jaan Kross,,,,,,12,0,,
18159501,0982280971,The Children of Lot,9780982280973,,,,ES,2013/3/16,Montag Press,,false,2,18159501,54,104,24,6,2013/3/15,,book,13,7,3,1,0,4.33,426,Paperback,,11,4,Vic Kerry,,,,,,26,0,2,"fiction,horror"
18160001,,On the trail of the Koh-i-Noor diamonds,,,,,ES,,,,false,9,316386,107,180,50,6,1999/12/31,Chasing the Mountain of Light: Across India on the Trail of the Koh-I-Noor Diamond,,9,18,18,4,1,3.60,,,,0,0,Kevin Rushby,,,,,,37,1,2,"biography,history,modern,non-fiction,travel"
18160501,,The Poetic Edda,,,,,ES,1996/1/1,Oxford University Press,eng,false,165,381112,17844,26662,6264,287,1270/1/1,,book,2907,2250,941,138,28,4.26,,,Oxford World's Classics,29,3,Anonymous,,,,,,9195,20,796,"academic,classic-literature,classics,epic,european-literature,fantasy,fiction,historical,historical-fiction,history,literature,medieval,mythology,non-fiction,philosophy,poetry,reference,religion,research,school,spirituality,theology"
18161001,1908819081,Keys to the Adults of Seed and Leaf Beetles of Britain and Ireland,9781908819086,,,,ES,2012/11/1,Field Studies Council,eng,false,1,18161001,1,0,0,0,2012/11/1,,book,0,0,0,0,0,0.00,140,Paperback,,0,0,David Hubble,,,,,,,0,,reference
18161501,,"Edible (Exquisite, #3)",2940016540382,,,,ES,2013/2/3,Ella Frank,eng,true,13,16249388,12673,26826,6410,666,2013/2/3,Edible,book,2826,2337,962,177,108,4.19,,,,11,3,Ella Frank,,,,,,5195,56,114,"abuse,adult,bdsm,chick-lit,contemporary,erotica,family,realistic-fiction,romance"
18162001,,An Open Door in the Landscape,978192674013,,,,ES,2011/9/1,Palimpsest Press,eng,false,1,18162001,0,0,0,0,2011/9/1,,book,0,0,0,0,0,0.00,86,Paperback,1st edition,0,0,Elisabeth Harvor,,,,,,,0,,
18162501,,"Money, and the Law of Attraction: Learning to Attract Wealth, Health, and Happiness",,B001EVUE64,,,ES,2008/1/1,Hay House,eng,false,24,2505836,17408,41791,9817,151,2006/12/1,"Money, and the Law of Attraction: Learning to Attract Wealth, Health, and Happiness",book,5264,2556,1435,380,182,4.26,,Audiobook,Audible,8,0,"Abraham,Esther Hicks,Jerry Hicks",,,,,,6985,13,417,"business,health,inspirational,non-fiction,personal-development,philosophy,psychology,reference,self-help,spirituality"
18163001,,كتاب الأسماء,,,,,ES,,,ara,false,1,18163001,18,5,2,0,,,book,0,1,0,0,1,2.50,,,,2,0,ابن تونارت,,,,,,16,0,1,
18163501,,Berkeley Square: A Play in Three Acts,,,,,ES,1929/1/1,The Macmillan Company,eng,false,1,18163501,14,18,5,2,1929/1/1,,book,1,1,3,0,0,3.60,124,Hardcover,,5,2,John L. Balderston,,,,,,9,0,,plays
18164001,,Brennender Himmel,,,,,ES,1952/1/1,Alfred Scherz Verlag,ger,false,14,3422586,79,139,33,1,1951/1/1,Feux du Ciel,book,14,12,7,0,0,4.21,244,Hardcover,,0,0,Pierre Clostermann,,,,,,39,0,,
18164501,,A Ton of Trouble,,B00D4CF542,,,ES,2013/5/30,Pearlsong Press,,true,5,1973186,138,182,51,2,2002/7/15,A Ton of Trouble: A Josephine Fuller Mystery (Josephine Fuller Mysteries),book,12,16,14,7,2,3.57,,Kindle Edition,,6,0,Lynne Murray,,,,,,66,2,,"cozy-mystery,crime,humor"
18165001,,Adventures of a Domme,,B00AT0BEIS,,,ES,2012/12/24,,en-GB,true,1,18165001,13,4,1,1,2012/12/24,,book,0,1,0,0,0,4.00,175,Kindle Edition,,1,1,Mistress Alora,,,,,,12,0,,bdsm
18166001,,"The Dreamland Chronicles (Dreamland Chronicles, #5)",,,,,ES,2011/1/1,Blue Dream Studios,eng,false,1,18166001,15,49,12,0,2011/1/1,,book,3,7,2,0,0,4.08,,Paperback,,12,0,Scott Christian Sava,,,,,,1,0,1,"adventure,fantasy,young-adult"
18166501,1466839171,Abel's Island,9781466839175,,,,ES,2013/7/30,"Farrar, Straus and Giroux (BYR)",,true,39,784726,8415,15743,4034,356,1976/5/1,Abel's Island,book,1416,1310,929,257,122,3.90,128,ebook,,1,1,William Steig,,,,,,3402,50,109,"adventure,animals,chapter-books,childrens,classics,fantasy,fiction,historical-fiction,humor,juvenile,literature,love,middle-grade,novels,picture-books,school,survival,young-adult"
18167001,0812993578,The Work: My Search for a Life That Matters,9780812993578,,,,ES,2015/1/13,Spiegel & Grau,,false,8,18167001,2726,2660,721,105,2014/4/1,The Work: My Search for a Life That Matters,book,169,251,232,46,23,3.69,272,Hardcover,,627,95,Wes  Moore,,,,,,1755,17,79,"adult,biography,biography-memoir,business,education,fiction,inspirational,memoir,non-fiction,personal-development,psychology,relationships,self-help,sociology"
18167501,,"Best Children's Classics (The Children's Hour, Vol. 8)",,,,,ES,,,eng,false,2,18167522,27,15,3,0,1979/1/1,,book,3,0,0,0,0,5.00,,,,0,0,,,"Alfred Tennyson,Anna Sewell,Carlo Collodi,Charles Lamb,Elizabeth Barrett Browning,Emily Dickinson,Eric Knight,Francis of Assisi,George MacDonald,Helen Hunt Jackson,James Otis,Johanna Spyri,John Bennett,John Keats,John Masefield,John Ruskin,Joyce Kilmer,L. Frank Baum,Leigh Hunt,Lewis Carroll,Louisa May Alcott,Lydia Maria Francis Child,Mark Twain,Oliver Wendell Holmes Sr.,Percy Bysshe Shelley,Ralph Waldo Emerson,Robert Browning,Thomas Edward Brown,Victor Hugo,William Blake,William Wordsworth",,,,18,0,,
18168001,,Metode,9786069334737,,,,ES,2013/1/1,Casa de editură Max Blecher,rum,false,1,18168001,54,137,34,4,2013/1/1,,book,12,13,7,2,0,4.03,80,Paperback,,34,4,Vlad Drăgoi,,,,,,13,0,,
18168501,0778315908,Paradise Valley,9780778315902,,,,ES,2014/1/28,Harlequin MIRA,,false,1,5324907,15764,41725,9923,476,2009/4/1,Paradise Valley,book,4109,3992,1599,192,31,4.20,416,Paperback,,48,7,Robyn Carr,,,,,,2533,94,589,"adult,adult-fiction,chick-lit,contemporary,drama,family,fiction,harlequin,love,romance,war"
18169001,,Noblesse Season4. 2: Cerberus,9788901152639,,,,ES,,,kor,false,1,18169001,294,859,187,4,,,book,129,46,8,2,2,4.59,304,,,187,4,Son Jae Ho,Lee Gwang Su,,,,,53,3,1,"action,comics,fantasy,manga,paranormal,science-fiction,vampires"
18169501,,The best guide: Madeira Porto Santo,9729793344,,,,ES,2000/1/1,,por,false,1,18169501,1,0,0,0,2000/1/1,,book,0,0,0,0,0,0.00,190,Paperback,,0,0,,,,J. Pedro Castanheira,,,,0,,
18170001,0920009301,The Canadian Press Caps And Spelling,,,,,ES,2003/1/1,The Canadian Press,eng,false,2,10418616,17,26,6,1,1965/1/1,,,2,4,0,0,0,4.33,202,Paperback,,0,0,,,,Patti Tasko,,,1,0,,"reference,writing"
18170501,,Field Guide To The Animals Of Britain (Nature Lover's Library),,,,,ES,,,,false,3,5393673,35,44,9,0,1984/11/1,,book,8,1,0,0,0,4.89,,,,1,0,Reader's Digest Association,,,,,,13,2,1,"animals,nature,non-fiction,reference"
18171501,,Conni & Co (Conni & Co #1),,,,,ES,2005/1/1,Carlsen Verlag,ger,false,5,17827896,107,219,53,1,2005/11/1,,book,23,19,6,5,0,4.13,160,,,0,0,Julia Boehme,,,,,,8,5,2,academic
18172001,,Startup CEO: A Field Guide to Scaling Up Your Business,,,,,ES,,,eng,false,3,19013596,629,671,165,12,2013/1/1,,,64,61,30,7,3,4.07,,Hardcover,,0,0,Matt Blumberg,,,,,,345,8,54,"american,business,education,non-fiction"
18172501,0199642389,Shakespeare and the Eighteenth Century,9780199642380,,,,ES,2013/12/31,"Oxford University Press, USA",,false,3,18172500,1,0,0,0,2013/12/31,,,0,0,0,0,0,0.00,232,Hardcover,,0,0,Michael M. Caines,,,,,,1,0,,
18173001,0373019750,Clouded Waters,9780373019755,,,,ES,1976/5/1,Harlequin Books,eng,false,1,18173001,16,8,4,1,1976/2/1,Clouded Waters,book,0,0,1,2,1,2.00,,Paperback,Harlequin Romance #1975,4,1,Sue Peters,,,,,,10,0,,
18173501,1285445864,"Grammar and Usage, Naturally",9781285445861,,,,ES,2014/1/1,Cengage Learning,,false,1,18173501,5,15,3,0,2014/1/1,,,3,0,0,0,0,5.00,384,Paperback,,3,0,Larry Barkley,,,,,,2,0,,
18174001,1576859517,Nursing Assistant/Nurse Aide Flash Review,9781576859513,,,,ES,2014/4/15,Learning Express (NY),,false,3,18174001,2,0,0,0,2014/3/7,,,0,0,0,0,0,0.00,530,Paperback,,0,0,,,,,,,,0,1,
18174501,1619501678,Aberration,9781619501676,,,,ES,2013/7/5,Smashwords Edition,,true,2,18208513,240,24,6,5,2013/7/5,,,1,4,1,0,0,4.00,,ebook,,0,0,Steven P. Marini,,,,,,234,1,,
18175001,3110320363,Der Umgang Mit Wissen Heute: Zur Erkenntnistheorie Im 21. Jahrhundert. Eine Einf�hrung,9783110320367,,,,ES,2013/5/2,de Gruyter,,true,2,18174987,0,0,0,0,2012/1/1,,,0,0,0,0,0,0.00,472,ebook,,0,0,Kazimierz Rynkiewicz,,,,,,,0,,
18175501,3111403165,"An Outline of English Lexicology: Lexical Structure, Word Semantics, and Word-Formation",9783111403168,,,,ES,2010/11/5,de Gruyter,,true,1,18175501,4,0,0,0,1990/1/1,,,0,0,0,0,0,0.00,223,ebook,,0,0,Leonhard Lipka,,,,,,3,0,,
18176001,3990432486,"Erlebte Modelle. Model Experience: Projektraum, Kunsthalle Bern 1998-2000: Renate Buser, Marie Sester, Elizabeth Wright, Katharina Grosse, Susanne Fankhauser, Sarah Rossiter, Lee Bul, Martina Klein, � Home, Heinz Brand, Eran Schaerf, Anya Gallacio",9783990432488,,,,ES,2000/3/22,Ambra Verlag,,false,2,3587946,0,0,0,0,2000/3/22,"Erlebte Modelle. Model Experience: Projektraum, Kunsthalle Bern 1998-2000: Renate Buser, Marie Sester, Elizabeth Wright, Katharina Grosse, Susanne Fankhauser, ... Schaerf, Anya Gallacio (Edition Voldemeer)",,0,0,0,0,0,0.00,148,Hardcover,,0,0,Roman Kurzmeyer,,,,,,,0,,
18176501,,"Pens Available Thursday, Paper Available Next Tuesday...",9781304199157,,,,ES,2013/7/6,tz Media/lulu.com,eng,false,4,18171980,9,14,4,1,2013/7/6,,book,2,0,0,2,0,3.50,340,Paperback,lulu.com print edition,0,0,,,,,,,5,0,,"biography,politics"
18177501,0988528975,The Atlantic Alphabet Beach Song,9780988528970,,,,ES,2013/7/1,Loconeal Select,,false,1,18177501,0,0,0,0,2013/7/1,,,0,0,0,0,0,0.00,32,Paperback,,0,0,Phyllis Levine,,,,,,,0,,
18178001,1466986530,"Season of Hope: Her Story, His Story, Their Story",9781466986534,,,,ES,2013/7/1,Trafford Publishing,,false,3,18178000,0,0,0,0,2013/7/1,,,0,0,0,0,0,0.00,218,Hardcover,,0,0,Beverly Key Ball,,,,,,,0,,
18178501,1483660982,A Shot in the Dark,9781483660981,,,,ES,2013/6/28,Xlibris Corporation,,false,2,18178500,1,0,0,0,2013/6/28,,,0,0,0,0,0,0.00,50,Hardcover,,0,0,Sid Cooper,,,,,,1,0,,
18179001,1600478735,Murder in Three Acts: A Rounders Mystery,9781600478734,,,,ES,2013/6/24,Wasteland Press,,false,5,24893460,3,7,2,0,2013/7/1,,,1,0,0,1,0,3.50,210,Paperback,,0,0,C.L. Hutchins,,,,,,1,0,,
18179501,1909765007,SQL Success - Database Programming Proficiency,9781909765009,,,,ES,2013/6/20,Roughsea Ltd,,false,1,18179501,4,5,1,0,2013/6/20,,,1,0,0,0,0,5.00,592,Paperback,,1,0,Stephane Faroult,,,,,,2,0,,
18180001,3854387997,Kuscheldeckeboutique,9783854387992,,,,ES,2013/6/27,United P.C. Verlag,,false,2,18180001,1,5,1,0,2013/6/27,,,1,0,0,0,0,5.00,96,Paperback,,1,0,Simon Stiegler,,,,,,1,0,,
18180501,0153860197,Houghton Mifflin Harcourt Math: Student Test Preparation Grade 5,9780153860195,,,,ES,2009/12/31,Houghton Mifflin,,false,1,18180501,0,0,0,0,2009/12/31,,,0,0,0,0,0,0.00,112,Paperback,,0,0,,,,,,,,0,,
18181001,0547388837,Houghton Mifflin Harcourt Math Expression Spanish: Assessment Guide Grade 3,9780547388830,,,,ES,2010/4/7,Houghton Mifflin,,false,1,18181001,0,0,0,0,2010/4/7,,,0,0,0,0,0,0.00,176,Paperback,,0,0,,,,,,,,0,,
18181501,0547898002,Houghton Mifflin Harcourt Common Core Math: Student Standards Practice Book Grade 1,9780547898001,,,,ES,2012/6/12,Houghton Mifflin,,false,1,18181501,0,0,0,0,2012/6/12,,,0,0,0,0,0,0.00,112,Paperback,,0,0,,,,,,,,0,,
18182001,098895429X,Ricki,9780988954298,,,,ES,2013/3/15,Mockingbird Lane Press,,true,3,17472878,24,41,10,4,2013/1/28,,book,5,3,1,0,1,4.10,170,ebook,,0,0,Lou Honderich,,,,,,13,0,,adventure
18182501,1136195580,Ancient Greece at Work,9781136195587,,,,ES,2013/7/4,Routledge,,true,6,2013171,12,8,2,0,1926/1/1,Ancient Greece at work ; an economic history of Greece from the Homeric period to the Roman conquest,book,1,0,1,0,0,4.00,416,ebook,,0,0,Gustave Glotz,,,,,,8,0,,"economics,history"
18183001,1136707697,Mediterranean Mosaic: Popular Music and Global Sounds,9781136707698,,,,ES,2013/7/4,Routledge,,true,7,1993865,10,17,4,0,2002/11/22,Mediterranean Mosaic : Popular Music and Global Sounds,book,1,3,0,0,0,4.25,344,ebook,,0,0,,,,Goffredo Plastino,,,4,0,1,"academic,music,non-fiction"
18183501,143299560X,Experiencing Poetry: Poems about Choices,9781432995607,,,,ES,2014/1/1,Capstone Heinemann Library,,false,2,18183508,5,9,3,1,2014/1/1,,,0,1,1,1,0,3.00,,Hardcover,,1,1,Jessica Cohn,,,,,,2,0,,"poetry,young-adult"
18184001,1457180308,Functional Programming Bibliography,9781457180309,,,,ES,2013/6/27,Safari Books Online,,true,4,19143874,7,16,4,0,2013/6/27,,,1,2,1,0,0,4.00,60,ebook,,1,0,Safari Content Team,,,,,,2,0,,
18184501,1480561290,The Adversary,9781480561298,,,,ES,2014/1/14,Brilliance Audio,,false,10,17568783,2602,5025,1282,100,2013/1/1,The Adversary,book,430,444,301,89,18,3.92,,Audio CD,,1,0,Erin M. Evans,,,,,,965,9,84,"adult,demons,fantasy,fiction,high-fantasy,history,magic"
18185001,1610976223,The Trace of the Face in the Politics of Jesus,9781610976220,,,,ES,2013/6/26,Pickwick Publications,,false,3,18185001,2,0,0,1,2013/6/26,,,0,0,0,0,0,0.00,162,Paperback,,0,1,John Patrick Koyles,,,,,,1,0,,
18185501,1625167520,"How to Talk Your Way Forward: Think, Talk and ACT Like a Champion",9781625167521,,,,ES,2013/6/19,"Strategic Book Publishing & Rights Agency, LLC",,false,1,18185501,3,0,0,0,2013/6/19,,,0,0,0,0,0,0.00,30,Paperback,,0,0,Barth E. Okonigene,,,,,,3,1,,
18186001,149045960X,"Love at First Slight: Aidan and Olivia's Story (Love at First Slight, #1)",9781490459608,,,,ES,2013/7/20,Murphy Publishing,eng,false,2,18186001,473,110,29,5,2013/6/16,,book,6,14,7,1,1,3.79,141,Paperback,,10,3,Tobi Doyle,,,,,,424,8,1,"amazon,bdsm,romance"
18186501,9814332151,Chinapedia: The First Authoritative Reference to Understanding China,9789814332156,,,,ES,2013/3/20,Enrich Professional Publishing,,true,2,18538768,1,0,0,0,2013/1/1,,,0,0,0,0,0,0.00,688,ebook,,0,0,,,,Jun Feng,,,1,0,,
18187501,483228794X,LIMITER リミッタ―,9784832287945,,,,ES,2012/2/28,芳文社,jpn,false,1,18187501,27,57,19,4,2012/2/28,LIMITER リミッタ―,book,1,6,6,4,2,3.00,162,Paperback,,19,4,"Akiko Monden,もんでんあきこ",,,,,,2,2,,"fiction,manga"
18188001,,Painting Water Colour Portraits that Glow,,,,,ES,1989/1/1,North Light Books,,false,1,18188001,2,0,0,0,1989/1/1,,book,0,0,0,0,0,0.00,,Hardcover,,0,0,Jan Kunz,,,,,,1,0,,
18188501,,Batman - El Caballero Oscuro: Amanecer Dorado,9788493950316,,,,ES,2012/1/1,"ECC Ediciones (El Catálogo del Comic, DC Comics)",spa,false,12,12159288,1942,3302,973,85,2012/1/10,Batman – The Dark Knight: Golden Dawn,book,225,205,326,162,55,3.39,120,Hardcover,Batman El Caballero Oscuro,12,4,David Finch,,,,,,826,12,6,"action,comics,crime,dark,fiction,graphic-novels,graphic-novels-comics,mystery,superheroes,young-adult"
18189001,,Выборочный метод. Руководство по применению статистических методов оценивания,,,,,ES,1978/1/1,Статистика,rus,false,1,18189001,3,5,1,1,1978/1/1,,book,1,0,0,0,0,5.00,213,Hardcover,,1,1,Heinrich Schwarz,,,,,,1,0,,
18189501,,A First Encounter with Machine Learning,,,,,ES,,,eng,true,1,18189501,26,8,3,0,,,book,1,0,0,1,1,2.67,93,ebook,,3,0,Max Welling,,,,,,16,0,3,"non-fiction,technology,unfinished"
18190001,,Jakob og Hans Forældre,9788702119596,,,,ES,1997/1/1,Gyldendal,dan,false,1,18190001,3,7,2,0,1997/1/1,,book,0,1,1,0,0,3.50,322,Hardcover,En tid &amp; En befrielse,2,0,Knud Sørensen,,,,,,1,0,,
18190501,,Jorge Newbery: El conquistador del espacio,,,,,ES,1960/1/1,Editorial Futuro S.R.L.,spa,false,1,18190501,1,4,1,0,1960/1/1,,book,0,1,0,0,0,4.00,200,Hardcover,,1,0,Raul Larra,,,,,,,0,,
18191001,,The Dosadi Experiment,,B007PRZP0G,,,ES,2002/9/16,Tor Books,en-US,true,42,2011,10023,24726,6492,178,1977/1/1,The Dosadi Experiment,book,1775,2329,1843,461,84,3.81,319,Kindle Edition,,108,5,Frank Herbert,,,,,,652,25,61,"aliens,american,dystopia,fantasy,fiction,love,novels,politics,science,science-fiction,science-fiction-fantasy,speculative-fiction,war"
18191501,,Jutro powiem: dość,,,,,ES,1978/1/1,Czytelnik,pol,false,3,1721663,62,94,23,3,1978/1/1,Mañana digo basta,book,8,10,4,1,0,4.09,208,,,2,0,Silvina Bullrich,,,,,,32,1,1,
18192501,,نظرة للمقاومة من الداخل,,,,,ES,2010/1/1,دار النور للنشر,ara,true,1,18192501,56,50,12,3,2010/1/1,نظرة للمقاومة من الداخل,book,4,7,0,1,0,4.17,181,ebook,1st Edition,12,3,محمد عرمان,,,,,,41,0,1,
18193001,,Criminal Love and Other Stories,,B00DT5KVUM,,,ES,2013/7/5,"Amazon Digital Services, Inc.",en-GB,true,3,18193001,56,128,33,10,2013/7/5,,book,12,12,4,3,2,3.88,72,Kindle Edition,,26,8,Mike Monson,,,,,,19,1,2,"crime,short-stories"
18193501,8845921948,Le altissime torri: Come al-Qaeda giunse all'11 settembre,9788845921940,,,,ES,2007/9/1,Adelphi,ita,false,46,110890,46889,84354,19208,2045,2006/1/1,The Looming Tower: Al-Qaeda and the Road to 9/11,book,10095,6936,1857,244,76,4.39,589,Paperback,L'Oceano delle Storie,12,1,Lawrence Wright,,,,Giovanni Ferrara degli Uberti,,22910,178,1970,"american,american-history,biography,contemporary,crime,historical,history,non-fiction,politics,religion,sociology,true-crime,unfinished,war"
18194001,,جاده جهنم,,,,,ES,,,per,false,1,18194001,2,0,0,0,,جاده جهنم,book,0,0,0,0,0,0.00,,,,0,0,مهرداد امیر رحیمی,,,,,,2,0,,
18194501,,Lasting Pride (The Pride #4),,B00DRDZLKG,,,ES,2013/7/2,Jill Sanders,,true,15,23634640,1467,2632,624,34,2013/7/2,Lasting Pride,book,276,228,102,16,2,4.22,266,Kindle Edition,,205,5,Jill Sanders,,,,,,525,17,77,"contemporary,mystery,romance,suspense"
18195001,,"Theological Tractates, The Consolation of Philosophy",,,,,ES,1962/1/1,Harvard University Press,lat,false,26,216537,692,1075,254,23,524/1/1,Theological Tractates and The Consolation of Philosophy (Loeb Classical Library),book,123,80,40,9,2,4.23,428,Hardcover,Loeb Classical Library,0,0,Boethius,,,,,,347,6,27,"canon,christian,christianity,classics,history,inspirational,medieval,non-fiction,philosophy,reference,religion,theology"
18195501,,German Squad Tactics in WWII,,,,,ES,1995/1/1,George F. Nafziger,eng,false,1,18195501,2,4,1,0,1995/1/1,,book,0,1,0,0,0,4.00,106,Paperback,First Edition,1,0,Matthew Gajkowski,,,,,,1,0,,
18196001,,A Swedish-American Preacher's Own Story,,,,,ES,1963/1/1,Covenant Press,eng,false,1,18196001,1,3,1,1,1963/1/1,,book,0,0,1,0,0,3.00,135,Paperback,,1,1,Erik Walgren,,,,,,,0,,
18196501,,الفضائيات القرآنية,,,,,ES,2013/1/1,مجموعة آيات للإعلام القرآني,,false,1,18196501,2,0,0,0,2013/1/1,أصالة المنهج وتحديات الواقع,book,0,0,0,0,0,0.00,61,,,0,0,عمر راغب زيدان,,,,,,2,0,,
18197001,0373023804,Man in the Shadows,9780373023806,,,,ES,1981/1/1,Harlequin Books,eng,false,2,6272292,25,11,3,0,1979/12/1,Man in the Shadows,book,1,1,0,1,0,3.67,188,Mass Market Paperback,Harlequin Romance #2380,0,0,Rosemary Carter,,,,,,14,0,,
18197501,,Vacationista,,,,,ES,2013/7/17,Tara Simone Books,,true,4,18134833,357,204,50,23,2013/7/16,,book,21,18,6,4,1,4.08,,ebook,,0,0,Tara Simone,,,,,,296,8,,"adventure,chick-lit"
18198001,098195264X,What's Wrong with Protestant Theology? Tradition vs. Biblical Emphasis,9780981952642,,,,ES,2013/2/1,Word & Spirit Press,,false,1,18198001,32,40,9,1,2013/2/15,,,5,3,1,0,0,4.44,314,Paperback,,9,1,Jon Mark Ruthven,,,,,,20,1,3,"christian,non-fiction,theology"
18198501,1414341601,June,9781414341606,,,,ES,2010/10/13,Tyndale House Publishers,,true,11,221040,2733,6959,1745,60,1999/1/1,June (Brides of the West #2),book,641,561,436,95,12,3.99,127,ebook,,2,1,Lori Copeland,,,,,,583,13,17,"adult,adult-fiction,christian,christian-fiction,fiction,historical,historical-fiction,inspirational,novels,romance,young-adult"
18199001,1455772763,Year Book of Hand and Upper Limb Surgery 2013,9781455772766,,,,ES,2013/12/28,Elsevier,,false,1,18199001,0,0,0,0,2013/12/28,,,0,0,0,0,0,0.00,,Unknown Binding,,0,0,Jeffrey Yao,,,,,,,0,,
18199501,1459232003,Change of Heart,9781459232006,,,,ES,2012/2/15,Harlequin Special Releases,,true,15,65887,104,121,38,6,2004/1/1,The Wrong Man,book,6,5,20,4,3,3.18,304,ebook,,0,0,Laura Abbot,,,,,,38,0,,"adult,fiction,romance"
18200001,1459247043,Into the Dark: The Darkest Fire\The Amazon's Curse\The Darkest Prison,9781459247048,,,,ES,2012/6/15,Harlequin Books,,true,16,6593451,12932,30433,7196,233,2010/4/27,,book,3473,2180,1300,205,38,4.23,384,ebook,,22,1,Gena Showalter,,,,,,3736,39,74,"action,adult,angels,anthologies,contemporary,demons,fantasy,fiction,love,magic,mythology,novella,paranormal,romance,short-stories,supernatural,urban-fantasy,vampires"
18200501,1461273846,Output Regulation of Uncertain Nonlinear Systems,9781461273844,,,,ES,2012/10/4,Birkhauser,,false,1,18200501,0,0,0,0,1997/6/1,,,0,0,0,0,0,0.00,120,Paperback,,0,0,"Alberto Isidori,Christopher I Byrnes,Francesco Delli Priscoli",,,,,,,0,,
18201001,1461593018,Unification of the Fundamental Particle Interactions II,9781461593010,,,,ES,2012/8/2,Springer,,false,2,3860001,0,0,0,0,1983/7/1,"Unification of the Fundamental Particle Interactions II (Ettore Majorana International Science Series. Physical Sciences, V. 15)",,0,0,0,0,0,0.00,527,Paperback,,0,0,,,,John Ellis,,,,0,,
18201501,1481753193,In the Shadow of Her Grace,9781481753197,,,,ES,2013/7/10,Authorhouse,,true,2,18207610,4,0,0,0,2013/7/10,,,0,0,0,0,0,0.00,,ebook,,0,0,Larsen Bowker,,,,,,4,0,,
18202001,1488517266,Presentations 90 Success Secrets - 90 Most Asked Questions on Presentations - What You Need to Know,9781488517266,,,,ES,2013/7/12,Emereo Publishing,,false,2,18202001,1,5,1,0,2013/7/12,,,1,0,0,0,0,5.00,90,Paperback,,1,0,Deborah Ball,,,,,,,0,,
18202501,1621390101,"Hunters, Heroes, Kings: The Frieze of Tomb II at Vergina",9781621390107,,,,ES,2012/12/12,American School of Classical Studies at Athens,,true,2,13812941,2,0,0,0,2012/12/12,,,0,0,0,0,0,0.00,158,ebook,,0,0,Hallie M. Franks,,,,,,1,0,,
18203001,184996033X,Stochastic Distribution Control System Design,9781849960335,,,,ES,2010/9/13,Springer,,false,2,18203001,0,0,0,0,2010/1/1,,,0,0,0,0,0,0.00,216,Paperback,,0,0,"Hong Wang,Lei Guo",,,,,,,0,,
18203501,3034896956,"Continuous and Discrete Fourier Transforms, Extension Problems and Wiener-Hopf Equations",9783034896955,,,,ES,2012/10/30,Birkhauser,,false,4,18203501,2,0,0,0,1992/8/28,,,0,0,0,0,0,0.00,214,Paperback,,0,0,,,,Israel Gohberg,,,2,0,,
18204001,3322983951,Unter Raubern in Tibet: Gefahren Und Freuden Eines Forscherlebens,9783322983954,,,,ES,1952/1/1,Vieweg+teubner Verlag,,false,1,18204001,1,0,0,0,1952/1/1,,,0,0,0,0,0,0.00,240,Paperback,,0,0,Ernst Schafer,,,,,,1,0,,
18204501,3642050999,Prokaryotic Cell Wall Compounds,9783642050992,,,,ES,2010/9/10,Springer,,false,4,7245307,2,0,0,0,2009/1/1,,book,0,0,0,0,0,0.00,536,Paperback,,0,0,,,,"Ajit Varma,Harald Claus,Helmut  König",,,,0,1,
18205001,3642888658,Geschichte Der Volkswirtschaftslehre,9783642888656,,,,ES,1929/1/1,Springer,,false,2,2343686,0,0,0,0,1929/1/1,Geschichte der Volkswirtschaftslehre,,0,0,0,0,0,0.00,107,Paperback,,0,0,Edgar Salin,,,"Eduard Kohlrausch,Walter Kaskel",,,,0,,
18205501,3710300827,Die Grosse Liebe Auf Lanzarote,9783710300820,,,,ES,2013/7/9,United P.C. Verlag,,false,1,18205501,0,0,0,0,2013/7/9,,,0,0,0,0,0,0.00,104,Paperback,,0,0,Alina Brown,,,,,,,0,,
18206001,9048186587,Chemistry for Sustainable Development,9789048186587,,,,ES,2012/1/21,Springer,,false,1,18206001,0,0,0,0,2012/1/21,,,0,0,0,0,0,0.00,506,Paperback,,0,0,,,Springer,,,,,0,,
18206501,1844882969,Mad About You,,,,,ES,2013/8/1,Penguin Ireland,eng,false,5,21447893,3570,2887,842,140,2013/7/25,,book,177,218,281,121,45,3.43,400,Paperback,,94,25,Sinéad Moriarty,,,,,,2479,45,28,"adult,chick-lit,contemporary,family,fiction,love,mystery,romance"
18207001,,More Than Friends,,B00DG6V46Y,,,ES,2013/7/16,"Audible, Inc.",eng,false,5,13587063,416,791,210,14,2013/2/1,,book,45,91,58,12,4,3.77,7,Audiobook,Audible Unabridged,1,0,Erin Dutton,,,,,Abby Craden,141,7,7,"drama,fiction,gay,lgbt,romance"
18207501,1478708018,In the Hands of a Killer,9781478708018,,,,ES,2013/7/5,Outskirts Press,,false,1,18207501,0,0,0,0,2013/7/5,,,0,0,0,0,0,0.00,150,Paperback,,0,0,Hu Sykes,,,,,,,0,,
18208001,1484958292,End Insomnia and Sleeping Problems Without Drugs,9781484958292,,,,ES,2013/5/1,Createspace Independent Publishing Platform,,false,1,18208001,1,0,0,0,2013/5/1,,,0,0,0,0,0,0.00,172,Paperback,,0,0,Rosanna D'Agnillo,,,,,,1,0,,
18208501,1616552875,House of Gold & Bones,9781616552879,,,,ES,2013/11/26,Dark Horse Books,,false,2,18208501,370,637,182,21,2013/12/10,,,42,46,62,25,7,3.50,104,Paperback,,168,20,"Corey Taylor,Richard Clark",,,Sierra Hahn,,,164,5,4,"adult,adult-fiction,art,comics,demons,fantasy,fiction,graphic-novels,horror,music,mystery,philosophy"
18209001,8571646546,Nó de ratos,,,,,ES,1997/1/1,Companhia Das Letras,por,false,13,715939,6178,12294,3314,277,1988/4/5,Ratking,book,685,1350,976,238,65,3.71,313,Paperback,,0,0,Michael Dibdin,,,,,,2179,12,96,"adult-fiction,british-literature,crime,detective,fiction,international,literature,mystery,mystery-thriller,suspense,thriller"
18209501,1580933904,Witness: Art and Civil Rights in the Sixties,9781580933902,,,,ES,2014/3/18,The Monacelli Press,,false,1,18209501,33,25,6,1,2014/3/4,,,3,1,2,0,0,4.17,176,Hardcover,,6,1,,,"Connie Choi,Cynthia Young,Dalila Scruggs","Kellie Jones,Teresa A. Carbone",,,24,1,,"art,history"
18210001,,Vocabulary Spelling Poetry II Teacher Key (A Beka),,,,,ES,,,,false,4,4027106,86,38,10,3,,"Vocabulary, Spelling, Poetry II: Quiz Key",,5,1,2,1,1,3.80,,,,0,0,Abeka Books,,,,,,28,0,1,
18210501,9725302966,É só um Filme: Vida e Obra de Alfred Hitchcock,,,,,ES,,,por,false,21,15081,873,1386,369,44,2005/1/1,It's Only a Movie Alfred Hitchcock: A Personal Biography,book,88,135,119,22,5,3.76,,,,4,0,Charlotte Chandler,,,,,,415,7,16,"american,biography,biography-memoir,essays,film,history,horror,movies,non-fiction"
18211001,1628737700,The School Principals' Guide to Successful Daily Practices: Practical Ideas and Strategies for Beginning and Seasoned Educators,9781628737707,,,,ES,2014/4/1,Skyhorse,,false,3,25513944,2,4,1,0,2014/4/1,,,0,1,0,0,0,4.00,192,Paperback,,0,0,"Barbara L. Brock,Marilyn L. Grady",,,,,,,0,,education
18211501,,مقدمه‌ای بر معادلات دیفرانسیل,9789649074597,,,,ES,,اندیشگان,per,false,1,18211501,4,3,1,0,,مقدمه ای بر معادلات دیفرانسیل,book,0,0,1,0,0,3.00,256,,,1,0,"امیرعلی طباطبایی,حسین دوستی,محمد مقاصدی",,,,,,3,0,,
18212001,,قصة التفسير,,,,,ES,,,ara,false,2,18212001,9,9,2,0,,,book,1,1,0,0,0,4.50,120,Paperback,,2,0,أحمد الشرباصي,,,,,,7,0,,
18212501,,"The Burglar in the Library (Rhodenbarr, #8)",978174061816,,,,ES,1997/1/1,NO EXIT PRESS,eng,false,1,380557,3794,9732,2470,188,1997/1/1,The Burglar in the Library,book,678,1086,599,94,13,3.94,342,Hardcover,1st printing,0,0,Lawrence Block,,,,,,577,17,55,"adult,adult-fiction,american,comedy,cozy-mystery,crime,detective,fiction,funny,humor,murder-mystery,mystery,mystery-thriller,thriller"
18213501,1780036434,"Abort, Retry, Fail?",9781780036434,,,,ES,2013/7/11,Pen Press,eng,false,1,18213501,1,5,1,0,2013/7/11,,book,1,0,0,0,0,5.00,222,Paperback,,1,0,Russell   Smith,,,,,,,0,,
18214001,,Come vivere con un gatto arrivista,,,,,ES,1962/1/1,Rizzoli,ita,false,15,1515861,229,465,122,22,1962/12/1,How To Live with a Calculating Cat,book,41,32,35,13,1,3.81,,Hardcover,,1,0,"Eric Gurney,William Nettleton",,,,Maria Gallone,,53,14,3,"animals,art,childrens,comedy,fiction,funny,graphic-novels,humor,nature,non-fiction,picture-books"
18214501,,Grimm's Fairy Tales,,,,,ES,2011/3/24,,eng,true,233,5929857,2172,3674,936,72,1958/1/1,,book,300,334,246,44,12,3.93,291,Kindle Edition,,5,0,"Jacob Grimm,Wilhelm Grimm",,,,,,710,14,139,"childrens,classics,dark,fairy-tales,fantasy,fiction,horror,literature,mythology,novels,reference,retellings,short-stories"
18215001,,Takluk Hati Pasangan,9789678603898,,,,ES,2012/1/1,Karya Bestari,msa,false,1,18215001,9,19,5,1,2012/1/1,,book,1,2,2,0,0,3.80,280,Paperback,,5,1,Mohd Nor Mamat,,,,,,4,0,,
18215501,,ไวโอลินของไอน์สไตน์,9789740200291,,,,ES,2007/10/1,มติชน,tha,false,2,1103063,118,143,40,8,2005/3/17,Einstein's Violin,,13,7,12,6,2,3.58,416,Paperback,,1,1,Joseph Eger,,,,จิตราภรณ์ ตันรัตนกุล,,58,3,6,"biography-memoir,music,science"
18216001,,"Tarzán. Jungla de Hielo (Tarzan: The Joe Kubert Years, # 8)",9789563138269,,,,ES,2012/11/23,Unlimited,spa,false,1,18216001,1,4,1,0,2012/11/23,,book,0,1,0,0,0,4.00,,Paperback,,1,0,Joe Kubert,,,,,,,0,,comics
18217001,,TSN: Epiphany,,B00BZWRWL2,,,ES,,,en-GB,true,1,18217001,75,232,57,1,2013/3/22,,book,25,19,8,2,3,4.07,,Kindle Edition,,57,1,Paul Phipps,,,,,,4,1,2,
18217501,,Das ferne Echo der Zeit,,,,,ES,,Weltbild,ger,false,19,15720779,2672,4530,1167,166,2012/8/30,Time's Echo,book,341,454,279,79,14,3.88,504,Hardcover,,2,0,Pamela Hartshorne,,,,,,169,22,22,"contemporary,fantasy,fiction,historical,historical-fiction,history,mystery,paranormal,romance,science-fiction,supernatural,time-travel"
18218001,3257214456,Secondelieutenant Sjedoch,,,,,ES,1987/1/1,Diogenes Verlag,ger,false,1,18218001,4,9,2,1,1927/1/1,Подпоручик Киже,book,1,1,0,0,0,4.50,97,Paperback,,2,1,Juri Tynjanow,,,,,,2,0,,
18218501,8186581502,ভূতনাথের ডায়েরি,,,,,ES,2001/1/1,ভাষা ও সাহিত্য,ben,false,3,18218501,117,98,25,5,2001/1/1,ভূতনাথের ডায়েরি,book,9,9,4,2,1,3.92,160,Hardcover,,16,3,Anish Deb,Samir  Sarkar,,,,,88,0,1,"fantasy,horror"
18219001,,"Death's Awakening (Eternal Sorrows, #1)",,B00DSKUMU2,,,ES,2013/7/4,Dead River Books,en-GB,true,6,28185531,1168,1391,323,64,2013/7/4,Death's Awakening,book,186,74,44,14,5,4.31,253,Kindle Edition,,86,4,Sarra Cannon,,,,,,707,16,37,"dystopia,fantasy,horror,magic,paranormal,post-apocalyptic,supernatural,unfinished,urban-fantasy,witches,young-adult,zombies"
18219501,,Eternal Flames,,B00CHL02JY,,,ES,2013/4/22,Kindle Direct Publishing,eng,true,1,18219501,0,0,0,0,2013/4/22,,book,0,0,0,0,0,0.00,,Kindle Edition,,0,0,Mark Nelson O'Brien,,,,,,,0,,
18220001,,The Unseen War: Allied Air Power and the Takedown of Saddam Hussein,,,,,ES,2013/10/15,Naval Institute Press,eng,false,6,17555436,101,91,27,6,2013/9/1,,book,2,11,10,3,1,3.37,480,Hardcover,,0,0,Benjamin S. Lambeth,,,,,,54,11,1,"biography,history,non-fiction,war"
18220501,,القرآن وإعجازه العلمي,,,,,ES,,دار الفكر العربي,,false,1,18220501,6,9,2,0,,,book,1,1,0,0,0,4.50,175,,,2,0,محمد إسماعيل إبراهيم,,,,,,5,0,,
18221001,,"The True Master (Waterman, #1.2)",,B00E0M1MAG,,,ES,2013/7/1,Love in Dark Settings Press,en-US,true,2,18221001,19,13,4,0,2013/7/1,,book,1,1,1,0,1,3.25,,ebook,,4,0,Dusk Peterson,,,,,,10,0,,fantasy
18221501,,Hood Misfits (Volume 4),,B00E2WC0C8,,,ES,2013/7/20,Sankofa Publications ,eng,true,5,18221501,329,600,132,7,2013/7/20,,book,88,32,10,0,2,4.55,133,Kindle Edition,1st,110,6,"Brick,Storm",,,,,,154,2,11,
18222001,,There Is a Song for You(#1),,,,,ES,,,,false,1,18222001,10,8,3,0,,,book,0,1,1,0,1,2.67,,,,3,0,Ryou Ikuemi,,,,,,5,0,,manga
18222501,1480438251,The Group,9781480438255,,,,ES,2013/8/6,Open Road Media,eng,true,71,387348,41860,43142,11765,1103,1963/1/1,The Group,book,2488,4597,3303,1028,349,3.67,487,ebook,,7,2,Mary McCarthy,,,,,,26792,452,988,"adult,adult-fiction,american,chick-lit,classics,contemporary,feminism,fiction,historical,historical-fiction,history,literary-fiction,literature,modern-classics,novels,unfinished"
18223001,0711234809,100 Flowers from the RHS: 100 Postcards in a Box,9780711234802,,,,ES,2013/12/15,Frances Lincoln,eng,false,1,18223001,7,24,5,0,2013/10/3,,book,4,1,0,0,0,4.80,100,Hardcover,,5,0,,,,,,,1,0,,
18223501,1442308869,Pimsleur German Level 1 Lesson 26 MP3: Learn to Speak and Understand German with Pimsleur Language Programs,9781442308862,,,,ES,2010/4/1,Pimsleur,,false,1,18223501,0,0,0,0,2010/4/1,,,0,0,0,0,0,0.00,,Audiobook,,0,0,Pimsleur Language Programs,,,,,,,0,,
18224001,1137361425,Politics to the Extreme: American Political Institutions in the Twenty-First Century,9781137361424,,,,ES,2013/12/11,Palgrave Macmillan,,false,5,18224001,128,7,2,0,2013/1/1,,,0,1,1,0,0,3.50,276,Paperback,,2,0,,,,"Scott A. Frisch,Sean Q. Kelly",,,45,1,43,
18224501,,الفراشة والاخطبوط,,,,,ES,,مؤسسة العنقاء ,ara,false,1,18224501,16,31,7,0,,,book,4,2,1,0,0,4.43,172,Mass Market Paperback,الاولى,7,0,زينب حبش,,,,,,3,1,1,
18225001,032326218X,2014 ICD-10-CM Draft Edition - Elsevier eBook on Intel Education Study (Retail Access Card),9780323262187,,,,ES,2013/8/26,Saunders,,false,1,18225001,0,0,0,0,2013/8/15,,,0,0,0,0,0,0.00,1736,Hardcover,,0,0,Carol J. Buck,,,,,,,0,,
18225501,0470338776,The Liquidity Theory of Asset Prices,9780470338773,,,,ES,2007/12/10,Wiley,,true,6,3260641,26,47,12,1,2006/1/1,The Liquidity Theory of Asset Prices (The Wiley Finance Series),,4,4,3,1,0,3.92,190,ebook,,0,0,"Gordon T. Pepper,Michael Oliver",,,,,,12,0,1,economics
18226001,071512255X,Common Worship: Pastoral Ministry Companion,9780715122556,,,,ES,2014/8/5,Church House Pub,,true,2,18226001,2,0,0,0,2012/10/8,,,0,0,0,0,0,0.00,176,ebook,,0,0,Church of England,,,,,,2,0,,
18226501,0822226766,In the Red and Brown Water,9780822226765,,,,ES,2013/9/5,Dramatists Play Service,,false,2,7182140,127,215,58,7,2012/11/1,,,15,21,14,6,2,3.71,86,Paperback,,9,1,Tarell Alvin McCraney,,,,,,46,12,1,"american,contemporary,drama,fiction,plays,school,theatre"
18227001,,Effectief leren,9789001307523,,,,ES,2009/1/1,Noordhoff uitgevers,nl,false,1,18227001,27,38,11,0,2009/1/1,,book,1,3,7,0,0,3.45,210,Paperback,,11,0,"Sebbo Ebbens,Simon Ettekoven",,,,,,9,0,2,education
18227501,111873582X,Modern Automatic Control Systems,9781118735824,,,,ES,2014/7/14,John Wiley & Sons,,true,5,17941496,4,4,1,0,2013/9/24,,,0,1,0,0,0,4.00,,ebook,,0,0,Farid Golnaraghi,,,,,,3,0,,
18228001,1284035174,Human Physiology with Access Code,9781284035179,,,,ES,2014/2/7,Jones & Bartlett Publishers,,false,1,18228001,0,0,0,0,2014/2/7,,book,0,0,0,0,0,0.00,294,Paperback,,0,0,Cheryl Watson,,,,,,,0,,
18228501,145225642X,Sustainable Enterprise: A Macromarketing Approach,9781452256429,,,,ES,2012/10/8,Sage Publications (CA),,true,5,15870153,7,13,4,0,2012/10/8,,,0,2,1,1,0,3.25,560,ebook,,0,0,Mark Peterson,,,,,,1,0,,college
18229001,1477718192,Cool Careers Without College for People Who Love Music (Cool Careers Without College),9781477718193,,,,ES,2014/1/1,Rosen Classroom,,false,3,18229001,4,4,1,0,2013/1/1,,book,0,1,0,0,0,4.00,144,Hardcover,,1,0,Carla Mooney,,,,,,2,0,,
18229501,1565895193,Two Souls: Four Lives--: The Lives & Former Lives of Paramhansa Yogananda and His Disciple Swami Kriyananda,9781565895195,,,,ES,2010/10/16,Crystal Clarity Publishers,,true,4,8580996,38,39,9,3,2010/8/16,,,5,2,2,0,0,4.33,446,ebook,,0,0,Catherine Kairavi,,,,,,17,0,1,
18230001,1619338831,Coaching Soccer Successfully,9781619338838,,,,ES,2013/7/16,Fastpencil Inc,,true,1,18230001,0,0,0,0,2013/7/16,,,0,0,0,0,0,0.00,,ebook,,0,0,Scott Haywood,,,,,,,0,,
18230501,1897430876,Seven Lakes Further North,9781897430873,,,,ES,2013/2/13,Ekstasis Editions,,false,2,12208864,6,15,4,0,1993/1/1,Sept lacs plus au nord,book,0,3,1,0,0,3.75,147,Paperback,,0,0,Robert Lalonde,,,,,,2,0,,fiction
18231001,3895789054,"Elektrische Antriebstechnik: Grundlagen, Auslegung, Anwendungen, L�sungen",9783895789052,,,,ES,2013/6/14,Publicis MCD Werbeagentur GmbH,,true,2,18598588,0,0,0,0,2013/1/1,,,0,0,0,0,0,0.00,413,ebook,,0,0,Jens Weidauer,,,,,,,0,,
18231501,1850899452,Elidor,,,,,ES,1989/1/1,Clio Press,eng,false,40,292654,4548,10808,2793,136,1965/1/1,Elidor,book,920,917,683,218,55,3.87,236,Hardcover,Large Print,0,0,Alan Garner,,,,,,1313,20,17,"adventure,british-literature,childrens,classics,fantasy,fiction,horror,juvenile,middle-grade,novels,school,science-fiction,speculative-fiction,young-adult"
18232501,1414378424,"It Had to Be You (Christiansen Family, #2)",9781414378428,,,,ES,2014/2/1,Tyndale House Publishers,eng,false,7,18232501,5236,10686,2489,318,2014/1/17,,book,1242,819,361,50,17,4.29,462,Paperback,,2009,275,Susan May Warren,,,,,,2144,53,107,"adult,adult-fiction,amazon,chick-lit,christian,christian-fiction,contemporary,fiction,inspirational,realistic-fiction,romance,sports,suspense,young-adult"
18233001,1468412299,Industrial Aspects of Biochemistry and Genetics,9781468412291,,,,ES,2013/4/5,Springer,,false,2,18233001,0,0,0,0,1985/6/1,,,0,0,0,0,0,0.00,240,Paperback,,0,0,,,,Gurdal N Alaeddinoglu,,,,0,,
18233501,1483650464,The Neighbors: Abuse Next Door,9781483650463,,,,ES,2013/7/17,Xlibris Corporation,,false,3,18229320,0,0,0,0,2013/7/17,,,0,0,0,0,0,0.00,86,Hardcover,,0,0,Bryan Siegrist,,,,,,,0,,
18234001,1491000775,18 Things Your Doctor Probably Hasn't Told You about Losing Weight and Keeping It Off-For Good!: Gluten-Free Recipes to Lose Fat Featuring Low Glycemi,9781491000779,,,,ES,2013/7/1,Createspace,,false,1,18234001,0,0,0,0,2013/7/18,,,0,0,0,0,0,0.00,124,Paperback,,0,0,Susan Steinlauf,,,,,,,0,,
18234501,1935907271,Why Kindergarten Matters: Elizabeth Harrison's a Study of Child Nature,9781935907275,,,,ES,2013/7/17,Westphalia Press,,false,1,18234501,1,0,0,0,2013/7/17,,,0,0,0,0,0,0.00,216,Paperback,,0,0,Paul Rich,,,,,,1,0,,
18235001,3519022435,"Parallelrechnerstrukturen: Synthese Von Architektur, Kommunikation Und Algorithmus",9783519022435,,,,ES,1990/1/1,Vieweg+teubner Verlag,,false,1,18235001,0,0,0,0,1990/1/1,,,0,0,0,0,0,0.00,254,Paperback,,0,0,,,,,,,,0,,
18235501,3531028901,"Beitrag Zur Entstehung Und Verminderung Von Getriebegerausch Und -Verschleiss Anhand Eines Erweiterten Dynamischen Modells, Abgeleitet Aus Oszillografischen Untersuchungen Des Eingriffsstosses",9783531028903,,,,ES,1979/1/1,Vs Verlag Fur Sozialwissenschaften,,false,1,18235501,0,0,0,0,1979/1/1,,,0,0,0,0,0,0.00,174,Paperback,,0,0,Gunter Laue,,,,,,,0,,
18236001,3531124404,Gelegenheit Macht Diebe Doch Frauen Klauen Auch: Massenkriminalitat Bei Frauen Und Mannern,9783531124407,,,,ES,1993/1/1,Vs Verlag Fur Sozialwissenschaften,,false,1,18236001,0,0,0,0,1993/1/1,,,0,0,0,0,0,0.00,236,Paperback,,0,0,,,,,,,,0,,
18236501,3642536727,Advanced Theory of Mechanisms and Machines,9783642536724,,,,ES,2012/8/30,Springer,,false,4,241330,3,0,0,0,2000/1/15,Advanced Theory of Mechanisms and Machines (Foundations of Engineering Mechanics),,0,0,0,0,0,0.00,396,Paperback,,0,0,"A.N. Evgrafov,M.Z. Kolovsky,Yu.A. Semenov",,,,,,3,0,,
18237001,3663000052,Die Simulation Kontinuierlicher Prozesse Mit Digitalrechnern: Eine Vergleichende Analyse Der Techniken Bei Der Digitalen Simulation Kontinuierlicher Prozesse,9783663000051,,,,ES,1972/1/1,Vieweg+teubner Verlag,,false,1,18237001,0,0,0,0,1972/1/1,,,0,0,0,0,0,0.00,144,Paperback,,0,0,Peter Rechenberg,,,,,,,0,,
18237501,3663030520,Absatzorganisation,9783663030522,,,,ES,1958/1/1,Gabler Verlag,,false,1,18237501,0,0,0,0,1958/1/1,,,0,0,0,0,0,0.00,100,Paperback,,0,0,Edmund Sundhoff,,,,,,,0,,
18238001,3732243656,Im Schatten des Glücks,9783732243655,,,,ES,2013/7/15,Books on Demand,,false,2,18238001,0,0,0,0,2013/7/15,,,0,0,0,0,0,0.00,172,Paperback,,0,0,Petruta Ritter,,,,,,,0,,
18238501,3824404265,Eintrittsbarrieren in Japanische Markte: Das Beispiel Recycling-Industrie,9783824404261,,,,ES,1999/4/21,Deutscher Universitatsverlag,,false,1,18238501,0,0,0,0,1999/4/21,,,0,0,0,0,0,0.00,212,Paperback,,0,0,,,,,,,,0,,
18239001,3824474840,Customer Value Management in Franchisesystemen: Konzeptionelle Grundlagen Der Franchisenehmer-Bewertung,9783824474844,,,,ES,2001/9/27,Deutscher Universitatsverlag,,false,1,18239001,0,0,0,0,2001/9/27,,,0,0,0,0,0,0.00,239,Paperback,,0,0,Eva-Maria Gust,,,,,,,0,,
18239501,3955640019,Der Arzt Und Die Heilkunst in Der Deutschen Vergangenheit,9783955640019,,,,ES,2013/1/28,Ehv-History,,false,6,18057234,0,0,0,0,2012/9/12,,,0,0,0,0,0,0.00,144,Paperback,,0,0,Hermann Peters,,,,,,,0,,
18240001,9401185565,Monopsychism Mysticism Metaconsciousness: Problems of the Soul in the Neoaristotelian and Neoplatonic Tradition,9789401185561,,,,ES,1963/1/1,Springer,,false,1,18240001,3,0,0,0,1963/1/1,,,0,0,0,0,0,0.00,154,Paperback,,0,0,Philip Merlan,,,,,,1,0,,
18240501,2365772064,Batman tome 2 : La Nuit des hiboux,9782365772068,,,,ES,2013/4/11,Urban Comics ,fre,false,6,15752115,25334,80025,18750,859,2013/3/26,"Batman, Volume 2: The City of Owls",book,8610,7129,2514,420,77,4.27,208,Hardcover,,45,5,Scott Snyder,Greg Capullo,,,,,4122,223,183,"action,adult,adventure,american,comics,crime,detective,fantasy,fiction,graphic-novels,graphic-novels-comics,horror,mystery,science-fiction,superheroes,thriller,young-adult"
18241501,8448048784,Ágora,9788448048785,,,,ES,2009/10/5,Libros Cúpula,spa,false,1,18241501,8,12,3,0,2009/10/5,,book,1,1,1,0,0,4.00,216,Hardcover,,3,0,Alejandro Amenábar,,,,,,4,1,,fiction
18242001,,The Democratic State: Critique of Bourgeois Sovereignty,,,,,ES,1993/1/1,Gegenstandpunkt,,false,3,18075797,21,34,7,1,1979/1/1,,book,6,1,0,0,0,4.86,,,,1,0,"Audrey Hill,Karl Held",,,,,,6,1,1,"non-fiction,politics"
18242501,,La Politique naturelle,,,,,ES,2008/1/1,Coda,fre,false,4,17202240,6,4,1,0,2008/1/1,Politique naturelle (Corpus des euvres de philosophie en langue francaise),,0,1,0,0,0,4.00,,Paperback,,0,0,Paul Henri Thiry,,,,,,2,0,,france
18243001,,A World of InTemperance,,B00DXYDDF4,,,ES,2013/7/14,GoldenBear Creative Workd,en-US,true,3,27310544,54,68,17,13,2013/7/14,,book,5,7,5,0,0,4.00,227,Kindle Edition,,13,10,Ichabod Temperance,,,,,,35,3,2,"fantasy,fiction,historical-fiction,science-fiction,steampunk"
18243501,3865806635,"Küss Mich, Student 3",9783865806635,,,,ES,2006/5/1,Tokyopop,ger,false,5,1595702,340,726,191,5,2006/5/1,"Challengers, Volume 03",book,51,69,55,14,2,3.80,206,Paperback,,7,1,Hinako Takanaga,,,,,,71,7,3,"gay,manga,romance"
18244001,,kaiser franz joseph. epistolario imperiale,,,,,ES,2006/1/1,mgs press,ita,false,1,18244001,4,8,2,1,2006/1/1,,book,0,2,0,0,0,4.00,248,,,2,1,Romana De Carli Szabados,,,,,,1,0,,
18245001,8585008105,Conceito de texto,,,,,ES,1984/1/1,EDUSP,,false,1,18245001,8,0,0,0,1984/1/1,,book,0,0,0,0,0,0.00,212,Paperback,,0,0,Umberto Eco,,,,,,5,0,,
18245501,,Isis Erotica,,,,,ES,2012/3/10,Tajine Publishing,eng,false,2,18245501,8,15,3,2,2012/3/10,,book,3,0,0,0,0,5.00,214,Paperback,,3,2,Sandra Gore,,,,,,5,0,,romance
18246001,2757833383,Le Musée du Dr Moses,9782757833384,,,,ES,2013/4/25,Points,fre,false,15,15977,1563,2924,860,143,2007/1/1,The Museum of Dr. Moses: Tales of Mystery and Suspense,book,106,297,318,113,26,3.40,266,Mass Market Paperback,,0,0,Joyce Carol Oates,,,,Claude Seban,,509,12,22,"anthologies,contemporary,fantasy,fiction,horror,literary-fiction,literature,mystery,short-stories,suspense,thriller"
18246501,,Mina de Vanghel,,,,,ES,1830/1/1,,,false,8,18246501,40,89,26,0,1830/1/1,,book,4,7,12,2,1,3.42,,,,16,0,Stendhal,,,,,,6,0,,
18247001,,NAT - A Love Story,,B00DYEBHBU,,,ES,2013/7/15,I.G. Harrison,en-GB,true,1,18247001,2,1,1,0,2013/7/15,,book,0,0,0,0,1,1.00,274,Kindle Edition,,1,0,Ian  Harrison,,,,,,1,0,,
18247501,,"Portfolio: A Magazine for the Graphic Arts (vol. 1, no. 2)",,B00CFVKAFC,,,ES,1950/1/1,Zebra Press,eng,false,1,18247501,3,5,1,0,1950/1/1,,book,1,0,0,0,0,5.00,,Paperback,,1,0,,,,,,,1,0,,
18248001,,Autsaideriai,9786090108857,,,,ES,2013/1/1,Alma litera,lit,false,188,231804,1062033,3244625,795006,28563,1967/1/1,The Outsiders,book,328867,264067,151681,38588,11803,4.08,200,Paperback,,19,1,S.E. Hinton,,,,Vytautas Čepliejus,,157627,3447,8759,"adventure,american,childrens,classic-literature,classics,contemporary,crime,drama,family,fiction,high-school,historical,historical-fiction,literature,middle-grade,modern-classics,novels,realistic-fiction,school,teen,young-adult"
18248501,9513217582,"Pöllön varjo (Ajan verkko, #3)",,,,,ES,2004/1/1,Sanoma Magazines Finland,fin,false,11,7615702,194,352,109,1,2003/1/1,"Uglens Skygge (W.I.T.C.H., #8)",book,15,21,49,22,2,3.23,117,Hardcover,,3,0,Lene Kaaberbøl,,,,,,29,9,,"childrens,fantasy,fiction,high-fantasy,magic,novels,urban-fantasy,young-adult"
18249501,,Nogitsune,9781301887422,,,,ES,2013/7/28,Smashwords,eng,true,3,20881825,141,84,20,4,2013/7/27,Nogitsune,book,10,6,2,2,0,4.20,,ebook,,10,3,Clovia Shaw,,,,,,109,2,2,"adult,fantasy,urban-fantasy"
18250001,,حوار حول المرأة,9786144261125,,,,ES,2013/1/1,دار المحجة البيضاء,ara,false,2,18250001,64,28,7,1,2013/1/1,,book,2,3,2,0,0,4.00,78,Paperback,الطبعة الأولى,6,1,هادي المدرسي,,,,,,47,0,3,
18250501,054411261X,"Houghton Mifflin Harcourt Sciencefusion Texas: Leveled Reader, Enrichment (6-Pack) Grade 1 Book 058: A Trip to the Aquarium",9780544112612,,,,ES,1900/1/1,Houghton Mifflin,,false,1,18250501,0,0,0,0,1900/1/1,,,0,0,0,0,0,0.00,,Hardcover,,0,0,,,,,,,,0,,
18251001,0985316888,Prose and Kahns,9780985316884,,,,ES,2013/7/19,Paradisiac Publishing,,false,2,13741339,3,15,3,0,2011/11/21,,,3,0,0,0,0,5.00,88,Paperback,,0,0,Zack Kahn,,,,,,,0,,
18251501,1249481058,"Journal General de Medecine, de Chirurgie Et de Pharmacie Franc Aises Et Etrangeres, Ou, Recueil Periodique de La Societe de Medecine de Paris, Volume",9781249481058,,,,ES,2012/9/22,Saraswati Press,,false,3,18251501,0,0,0,0,2012/9/22,,,0,0,0,0,0,0.00,442,Paperback,,0,0,,,,,,,,0,,
18252001,1249549779,"Mémoires, Volume 3",9781249549772,,,,ES,2012/9/25,Saraswati Press,,false,28,40259284,0,0,0,0,2012/9/25,,book,0,0,0,0,0,0.00,500,Paperback,,0,0,,,,,,,,0,,
18252501,1249655730,Ordonnance Faicte Pour Les Fun Railles C L Br Es Paris Le 24 Avril 1498 Pour L'Enterrement Du Corps Du Bon Roy Charles Huytiesme: Que Dieu Absoille...,9781249655732,,,,ES,2012/10/11,Saraswati Press,,false,1,18252501,0,0,0,0,2012/10/11,,,0,0,0,0,0,0.00,110,Paperback,,0,0,,,,,,,,0,,
18253001,1249923565,Oraci N F Nebre ... Por Las Heroicas V Ctimas del 2 de Mayo de 1808,9781249923565,,,,ES,2012/10/25,Saraswati Press,,false,1,18253001,1,0,0,0,2012/10/25,,,0,0,0,0,0,0.00,26,Paperback,,0,0,Anonymous,,,,,,1,0,,
18253501,1249939445,"Mitteilungen Aus Dem Stadtarchiv Von K Ln, Volume 6",9781249939443,,,,ES,2012/10/25,Saraswati Press,,false,1,18253501,0,0,0,0,2012/10/25,,,0,0,0,0,0,0.00,456,Paperback,,0,0,,,,,,,,0,,
18254001,124995598X,"Melanges Interessans Et Curieux Ou Abrege D'Histoire Naturelle, Morale, Civile, Et Politique de L'Asie, L'Afrique, L'Amerique Et Des Terres Polaires,",9781249955986,,,,ES,2012/10/26,Saraswati Press,,false,1,18254001,0,0,0,0,2012/10/26,,,0,0,0,0,0,0.00,248,Paperback,,0,0,,,,,,,,0,,
18254501,1249972973,"Transactions of the ... Session of the American Institute of Hom Opathy, Volume 31",9781249972976,,,,ES,2012/10/26,Saraswati Press,,false,1,18254501,0,0,0,0,2012/10/26,,,0,0,0,0,0,0.00,664,Paperback,,0,0,,,,,,,,0,,
18255001,1249990920,Reglamento de Emigraci N China del Puerto de Macao Aprobado Por Decreto N.O 34 de 28 Mayo de 1872,9781249990925,,,,ES,2012/10/26,Saraswati Press,,false,1,18255001,0,0,0,0,2012/10/26,,,0,0,0,0,0,0.00,50,Paperback,,0,0,,,,,,,,0,,
18255501,1286858143,"Viage Est Tico Al Mundo Planetario En Que Se Observan El Mecanismo y Los Principales Fen Menos del Cielo...: Parte Segunda ( [20], 396 P., [1] H. de G",9781286858141,,,,ES,2012/10/26,Saraswati Press,,false,1,18255501,0,0,0,0,2012/10/26,,,0,0,0,0,0,0.00,422,Paperback,,0,0,,,,,,,,0,,
18256001,128692684X,Journal Historique Et Litt Raire,9781286926840,,,,ES,2012/10/26,Saraswati Press,,false,15,18252549,1,0,0,0,2012/9/21,,,0,0,0,0,0,0.00,80,Paperback,,0,0,Anonymous,,,,,,1,0,,
18256501,1286968666,Raghuvansa...,9781286968666,,,,ES,2012/10/27,Saraswati Press,,false,20,2515852,157,147,35,2,400/1/1,रघुवंश,book,14,14,7,0,0,4.20,378,Paperback,,0,0,,,,,,,89,1,11,"history,poetry"
18257001,1288137338,"Aus Der Mappe K Nig Ludwig Philipp's, Volume 2",9781288137336,,,,ES,2012/10/27,Saraswati Press,,false,1,18257001,0,0,0,0,2012/10/27,,,0,0,0,0,0,0.00,290,Paperback,,0,0,,,,,,,,0,,
18257501,1288170475,EMS Et Les Bords Du Rhin,9781288170470,,,,ES,2012/10/27,Saraswati Press,,false,1,18257501,0,0,0,0,2012/10/27,,,0,0,0,0,0,0.00,286,Paperback,,0,0,,,,,,,,0,,
18258001,1463342977,La Victoria del Recluso,9781463342975,,,,ES,2013/7/25,Palibrio,,false,2,18258000,0,0,0,0,2013/7/25,,,0,0,0,0,0,0.00,322,Hardcover,,0,0,Sandro Sepulveda,,,,,,,0,,
18258501,1482695774,The Dangers of Sin,9781482695779,,,,ES,2013/3/7,Createspace,,false,1,18258501,1,0,0,0,2013/3/7,,,0,0,0,0,0,0.00,144,Paperback,,0,0,Paul Stepp,,,,,,1,0,,
18259001,1488524203,Project Manager 23 Success Secrets - 23 Most Asked Questions on Project Manager - What You Need to Know,9781488524202,,,,ES,2013/7/24,Emereo Publishing,,false,2,18259001,0,0,0,0,2013/7/24,,,0,0,0,0,0,0.00,26,Paperback,,0,0,Craig Hamilton,,,,,,,0,,
18259501,1563447371,Estudos Biblicos Para Criancas: Atos,9781563447372,,,,ES,2012/8/7,Casa Nazarena de Publicaciones,,false,1,18259501,0,0,0,0,2012/8/7,,,0,0,0,0,0,0.00,158,Paperback,,0,0,,,,,,,,0,,
18260001,1630049387,McCain & Terror at Midnight,9781630049386,,,,ES,2013/7/12,America Star Books,,false,1,18260001,0,0,0,0,2013/7/12,,,0,0,0,0,0,0.00,202,Paperback,,0,0,J.J. Ehrhardt,,,,,,,0,,
18260501,2012619975,"Polyeucte, Traga(c)Die, (A0/00d.1863)",9782012619975,,,,ES,2012/5/1,Hachette Livre Bnf,,false,75,1490175,614,999,286,6,1641/1/1,Polyeucte,book,59,82,98,35,12,3.49,86,Paperback,,0,0,Pierre Corneille,,,,,,249,11,6,"classics,drama,fiction,france,historical-fiction,plays,poetry,school,theatre"
18261001,3844862455,Entbehrung - Hunger - Trümmer - aber ich habe überlebt!: Ein Hamburger Junge erlebt Nachkriegszeit und Wirtschaftswunder,9783844862454,,,,ES,2011/8/3,Books on Demand,,false,1,18261001,0,0,0,0,2011/8/3,,,0,0,0,0,0,0.00,352,Paperback,,0,0,Gisela Laue,,,,,,,0,,
18261501,3955630528,Der Zusammenbruch,9783955630522,,,,ES,2013/5/2,Leseklassiker,ger,false,180,28419,2904,4103,1028,82,1892/1/1,La Débâcle,book,377,372,197,57,25,3.99,292,Paperback,,0,0,Émile Zola,,,,,,1548,14,50,"classic-literature,classics,fiction,france,historical,historical-fiction,history,literary-fiction,literature,novels,war"
18262001,,Man in the Crescent Moon (A Pirates of the Narrow Seas Adventure),,B00E3LYXS2,,,ES,2013/7/22,Keibooks,en-GB,true,2,18241437,88,67,17,2,2013/1/1,,book,7,5,3,1,1,3.94,234,Kindle Edition,,1,0,M. Kei,,,,,,56,1,2,"adventure,historical,lgbt,new-adult"
18262501,5518417020,"A Combined View of the Prophecies of Daniel, Ezra, and St. John",9785518417021,,,,ES,2013/5/30,Book on Demand Ltd.,,false,1,18262501,0,0,0,0,2013/5/30,,,0,0,0,0,0,0.00,568,Paperback,,0,0,J Hatley Frere,,,,,,,0,,
18263001,9264079920,Les Essentiels de L'Ocde Les Pecheries: Jusqu'a L'Epuisement Des Stocks ?,9789264079922,,,,ES,2011/1/26,OECD,,false,1,18263001,0,0,0,0,2011/1/26,,,0,0,0,0,0,0.00,166,Paperback,,0,0,Organisation for Economic Co-operation and Development,,,,,,,0,,
18263501,0393913481,Cognitive Neuroscience: The Biology of the Mind,9780393913484,,,,ES,2013/10/1,W. W. Norton & Company,,false,15,170016,2320,2204,536,16,1998/11/30,"Cognitive Neuroscience, Second Edition",book,228,184,88,28,8,4.11,752,Hardcover,,22,1,Michael S. Gazzaniga,,,,,,1421,17,129,"academic,american,education,non-fiction,philosophy,psychology,reference,research,science,textbooks"
18264001,0759116792,Theory in Economic Anthropology,9780759116795,,,,ES,2001/12/20,Altamira Press,,true,5,5667968,27,4,1,1,2001/1/1,Theory in Economic Anthropology,,0,1,0,0,0,4.00,336,ebook,,0,0,,,,Jean Ensminger,,,8,0,,anthropology
18264501,1108066399,"Self-Instruction for Young Gardeners, Foresters, Bailiffs, Land-Stewards, and Farmers: With a Memoir of the Author",9781108066396,,,,ES,2013/8/22,Cambridge University Press,,false,1,18264501,0,0,0,0,2013/5/18,,,0,0,0,0,0,0.00,300,Paperback,,0,0,John Claudius Loudon,,,,,,,0,,
18265001,1438445679,Hegel on Religion and Politics,9781438445670,,,,ES,2014/5/14,State University of New York Press,,true,4,15945677,3,0,0,0,2013/1/1,,,0,0,0,0,0,0.00,250,ebook,,0,0,,,,Angelica Nuzzo,,,1,0,,
18265501,1460223144,I Want to Be as Strong as Milo,9781460223147,,,,ES,2013/7/22,FriesenPress,,true,3,18286235,0,0,0,0,2013/7/22,,,0,0,0,0,0,0.00,,ebook,,0,0,Robert DeWitt,,,,,,,0,,
18266001,1477831096,Darkness Rising,9781477831090,,,,ES,2013/7/23,Montlake Romance,,false,5,6520232,296,339,101,4,2005/8/25,Darkness Rising,book,20,27,29,19,6,3.36,306,Paperback,,0,0,Elissa Wilds,,,,,,104,16,48,"erotica,fiction,paranormal,romance,urban-fantasy"
18266501,1488522235,Healthcare 49 Success Secrets - 49 Most Asked Questions on Healthcare - What You Need to Know,9781488522239,,,,ES,2013/7/24,Emereo Publishing,,true,2,18258874,0,0,0,0,2013/7/24,,,0,0,0,0,0,0.00,62,ebook,,0,0,Catherine Munoz,,,,,,,0,,
18267001,1609256700,The Hades Moon: Pluto in Aspect to the Moon,9781609256708,,,,ES,1998/1/15,Weiser Books,,true,4,975328,152,190,46,2,1998/1/15,The Hades Moon: Pluto in Aspect to the Moon,,19,19,5,1,2,4.13,336,ebook,,0,0,Judy Hall,,,,,,92,1,13,"psychology,spirituality"
18267501,184888155X,Queer Sexualities: Staking Out New Territories in Queer Studies,9781848881556,,,,ES,2012/12/31,Inter-Disciplinary.Net,,false,1,18267501,2,0,0,0,2012/1/1,,,0,0,0,0,0,0.00,190,Paperback,,0,0,,,,Anne Worthington,,,2,0,,
18268001,331901921X,Secularism and Religion in Multi-Faith Societies: The Case of India,9783319019215,,,,ES,2013/10/11,Springer,,false,2,18268001,1,0,0,0,2013/10/2,,,0,0,0,0,0,0.00,83,Paperback,,0,0,"Caroline Howarth,Ragini Sen,Wolfgang Wagner",,,,,,1,0,,
18268501,3642403662,Pressure-Induced Phase Transitions in Ab2x4 Chalcogenide Compounds,9783642403668,,,,ES,2014/2/3,Springer,,false,3,18268501,1,0,0,0,2013/10/1,,,0,0,0,0,0,0.00,243,Hardcover,,0,0,,,,"Francisco Javier Manjon,Ion Tiginyanu,Veaceslav Ursaki",,,,0,,
18269001,9048187974,"Natural Deduction, Hybrid Systems and Modal Logics",9789048187973,,,,ES,2010/7/5,Springer,,false,4,18967189,1,0,0,0,2010/6/10,,,0,0,0,0,0,0.00,516,Paperback,,0,0,Andrzej Indrzejczak,,,,,,1,0,,
18269501,8501052140,Kant e o ornitorrinco,9788501052148,,,,ES,1998/1/1,Record,por,false,42,59925,3829,3415,901,43,1997/1/1,Kant e l'ornitorinco,book,219,364,243,60,15,3.79,432,,,1,0,Umberto Eco,,,,,,2251,11,227,"academic,criticism,essays,fiction,language,literature,non-fiction,philosophy,psychology,reference,science,short-stories,unfinished"
18270001,,أخبار أبي نواس,,,,,ES,2011/1/1,منشورات الجمل,ara,false,1,18270001,40,37,12,2,2011/1/1,,book,3,1,4,2,2,3.08,255,Paperback,,12,2,أبو هفان بن حرب المهزمي البصري,,,,,,22,0,3,
18270501,8477383995,Química Orgánica Vol.I. Conceptos Básicos.,,,,,ES,1999/1/1,Editorial Síntesis,spa,false,1,18270501,3,4,1,0,1999/1/1,,book,0,1,0,0,0,4.00,318,Paperback,,1,0,José Luis Soto,,,,,,,0,,science
18271501,,La tragédie racinienne,9782218720529,,,,ES,2003/1/1,,fre,false,1,18271501,1,3,1,0,2003/1/1,,book,0,0,1,0,0,3.00,156,,Hatier,1,0,Alain Courpie,,,,,,1,0,,
18272001,,"Queen of the Dark Things (Dreams & Shadows, #2)",,B00DB32Q6E,,,ES,2014/5/13,Harper Voyager,eng,true,13,18052900,3490,5062,1253,154,2014/5/13,,book,420,527,252,44,10,4.04,448,Kindle Edition,,124,4,C. Robert Cargill,,,,,,1908,15,81,"adult,adventure,fairy-tales,fantasy,fiction,horror,magic,magical-realism,mythology,novels,paranormal,science-fiction,speculative-fiction,supernatural,urban-fantasy"
18272501,,La dona que es va perdre,9788499306391,,,,ES,2013/3/1,Empúries (Labutxaca),cat,false,2,13509024,28,56,19,2,2012/1/1,La dona que es va perdre,book,1,6,6,3,3,2.95,243,,,0,0,Marina Espasa,,,,,,6,0,,
18273001,,E Jimmy foi ao arco-íris,,,,,ES,1972/1/1,Nova Fronteira,por,false,17,2958291,237,540,137,8,1970/1/1,Und Jimmy ging zum Regenbogen.,book,45,47,38,6,1,3.94,501,Paperback,,0,0,Johannes Mario Simmel,,,,,,55,3,2,fiction
18273501,0517250691,Mushrooms and Toadstools,,,,,ES,1978/1/1,"Crescent Books, a division of Crown Publishers Inc",eng,false,2,18273501,7,4,1,1,1978/1/1,,book,0,1,0,0,0,4.00,63,Hardcover,1st US (originally published UK '78),0,0,Jacqueline Seymour,,,,,,4,0,,non-fiction
18274001,,"He Touches Me  (Seen Trilogy, #2)",,B00CD36FVA,,,ES,2013/7/9,Avon Red,en-US,true,3,17824643,1208,2133,592,48,2013/7/9,,book,139,190,176,63,24,3.60,100,Kindle Edition,,98,3,Cynthia Sax,,,,,,493,16,8,"adult,bdsm,chick-lit,contemporary,erotica,fiction,harlequin,love,romance,short-stories"
18274501,,O mistério dos gémeos siameses,,,,,ES,,Europa-América,por,false,41,88579,1102,2184,603,43,1933/1/1,The Siamese Twin Mystery,book,127,198,212,55,11,3.62,201,Mass Market Paperback,,4,1,Ellery Queen,,,,,,329,12,17,"american,classics,detective,fiction,mystery,novels,thriller"
18275001,1845830822,Still The Beast Is Feeding: Forty Years of Rocky Horror,9781845830823,,,,ES,2013/5/31,Telos Publishing Ltd,eng,false,3,18275001,32,77,17,3,2013/8/25,,book,10,6,1,0,0,4.53,500,Paperback,,10,3,"Phil Barden,Rob Bagnall",,,,,,3,0,,non-fiction
18275501,,Pour un instant de vérité,9782924242766,,,,ES,2013/7/16,Éditions Laska,fre,true,6,39880414,36,96,25,4,2013/7/16,Pour un instant de vérité,book,6,9,10,0,0,3.84,62,ebook,,17,3,Pauline Libersart,,,,,,6,0,-1,"contemporary,romance,short-stories"
18276001,,The Long Night Ahead,,B006CC6HXE,,,ES,2011/11/22,The Blue Bouzouki Press,en-US,true,1,18276001,2,0,0,0,2011/11/22,,book,0,0,0,0,0,0.00,,Kindle Edition,,0,0,Rock Bronson,,,,,,1,1,,
18276501,,The Arrest of Pastor Pratt (Pastor Pratt series),,B00BGZQCNM,,,ES,2013/2/16,,en-US,true,1,18276501,3,4,1,1,2013/2/16,,book,0,1,0,0,0,4.00,316,Kindle Edition,,1,1,Janet   Cooper,,,,,,2,0,,
18277001,,Arca profana,9788563994004,,,,ES,2010/1/1,Território das Artes,por,false,1,18277001,1,0,0,0,2010/1/1,,book,0,0,0,0,0,0.00,112,Paperback,,0,0,"Cristina Macedo,Dione Detanico,Jacob Klintowitz,Jose Eduardo Degrazia,Lenira Fleck,Luiz Artur Costa,Tania Maria Galli Fonseca,Élvio Vargas",,,,,,,0,,
18277501,,"The Fallen (The Guardians of Hayden, #2)",,,,,ES,2013/1/1,,eng,false,2,18277501,4,10,2,0,2013/1/1,,book,2,0,0,0,0,5.00,445,,,2,0,Nadege Chouteau,,,,,,2,0,,
18278001,,A volta de Sherlock Holmes,9788572325554,,,,ES,2010/1/1,Martin Claret,por,false,951,194366,77275,200614,46521,1191,1905/1/1,The Return of Sherlock Holmes,book,22778,16666,6139,705,233,4.31,354,Mass Market Paperback,1,3,0,Arthur Conan Doyle,,,,,,21655,154,1250,"adult,adult-fiction,adventure,british-literature,classic-literature,classics,crime,detective,english-literature,fiction,historical,historical-fiction,history,literature,mystery,mystery-thriller,novels,short-stories,suspense,thriller,victorian"
18279001,,El entenado,9788415539582,,,,ES,2013/9/1,Rayo Verde Editorial,spa,false,41,348244,2787,3646,916,79,1983/1/1,El entenado,book,335,312,201,52,16,3.98,192,Paperback,,21,4,Juan José Saer,,,,,,1552,49,67,"adventure,contemporary,fiction,language,literary-fiction,literature,novels,unfinished"
18279501,1442330996,Pimsleur Hebrew Level 3 Lesson 16 MP3: Learn to Speak and Understand Hebrew with Pimsleur Language Programs,9781442330993,,,,ES,2010/4/1,Pimsleur,,false,1,18279501,0,0,0,0,2010/4/1,,,0,0,0,0,0,0.00,,Audiobook,,0,0,Pimsleur Language Programs,,,,,,,0,,
18280001,1442312920,Pimsleur Russian Level 3 Lesson  7 MP3: Learn to Speak and Understand Russian with Pimsleur Language Programs,9781442312920,,,,ES,2010/4/1,Pimsleur,,false,1,18280001,0,0,0,0,2010/4/1,,,0,0,0,0,0,0.00,,Audiobook,,0,0,Pimsleur Language Programs,,,,,,,0,,
18280501,1442333561,Pimsleur Irish Level 1 Lesson 1 MP3: Learn to Speak and Understand Irish (Gaelic) with Pimsleur Language Programs,9781442333567,,,,ES,2010/12/9,Pimsleur,eng,false,1,18280501,5,16,4,1,2010/12/9,,book,2,1,0,1,0,4.00,1,Audiobook,,4,1,Paul Pimsleur,,,,,,,1,,
18281001,8848125980,Siti che funzionano 3.0,9788848125987,,,,ES,2011/9/29,Tecniche Nuove,ita,false,1,18281001,5,7,2,1,2011/9/29,,book,0,1,1,0,0,3.50,238,,,2,1,Sofia Postai,,,,,,2,0,,
18281501,,海の住人とは恋はしない [Umi no Juunin to wa Koi wa Shinai],,,,,ES,2011/1/1,ミリオン出版,jpn,false,1,18281501,35,72,20,2,2011/1/1,海の住人とは恋はしない,book,4,6,8,2,0,3.60,,Paperback,,20,2,Akira Honma,,,,,,5,4,1,manga
18282001,,Legendy: Prokleté knihovny,9788087364406,,,,ES,2013/9/19,Straky na vrbě,cze,false,1,18282001,66,77,21,3,2013/9/19,,book,2,10,9,0,0,3.67,960,Hardcover,,21,3,,,,,,,37,2,2,"collections,fantasy,fiction,science-fiction,urban-fantasy"
18282501,,"Himmelstormeren (Matt Cruse, #2)",9788711227091,,,,ES,2007/1/1,sesam,dan,false,29,428036,15483,45857,10789,627,2005/1/1,,book,4887,4101,1499,219,83,4.25,391,Hardcover,,3,0,Kenneth Oppel,,,,,,1759,32,122,"action,adult,adventure,chapter-books,childrens,fantasy,fiction,high-school,historical,historical-fiction,juvenile,middle-grade,novels,realistic-fiction,romance,science-fiction,science-fiction-fantasy,steampunk,survival,teen,young-adult"
18283001,,Was den Menschen antreibt: Psychoanalyse als Theorie und Praxis von Beziehung,,,,,ES,,,ger,false,1,18283001,3,0,0,0,,,book,0,0,0,0,0,0.00,,,,0,0,Erich Fromm,,,,,,3,0,,
18283501,,"One Taste of Scandal (Redcakes, #2)",9781601831125,,,,ES,2013/12/5,Kensington,eng,true,4,18283501,347,432,117,16,2013/12/5,,book,29,34,44,9,1,3.69,268,ebook,,78,14,Heather Hiestand,,,,,,150,9,15,"adventure,chick-lit,fiction,funny,historical,historical-fiction,regency,romance,victorian"
18284001,,Diez teorías que conmovieron al mundo,,,,,ES,,,spa,false,4,18284001,31,52,13,1,2006/4/1,,book,3,7,3,0,0,4.00,,Mass Market Paperback,,5,1,"Esteban Magnani,Leonardo Moledo",,,,,,4,0,-1,
18284501,,Linda Craig: Misteri Palomino,,,,,ES,1984/6/1,Indira,ind,false,7,640157,133,247,65,12,1962/1/1,Linda Craig and the Palomino Mystery,book,20,21,17,5,2,3.80,192,Paperback,,2,1,Ann Sheldon,,,,,,46,1,,"animals,childrens,middle-grade,mystery,teen,young-adult"
18285001,,Das Versprechen eines SEALs,9789963521418,,,,ES,2013/7/26,bookshouse Verlag,ger,true,2,18285001,7,14,5,1,2013/7/26,,book,0,1,2,2,0,2.80,40,Kindle Edition,Ready-Steady-Go,5,1,Melanie Jezyschek,,,,,,1,1,,
18285501,0810892855,The Twilight Saga,9780810892859,,,,ES,2013/11/18,Scarecrow Press,,false,3,18285501,15,5,1,0,2013/12/12,,,1,0,0,0,0,5.00,253,Hardcover,,1,0,,,,Claudia Bucciferro,,,8,0,3,
18286001,1421851172,The Call of the Canyon,9781421851174,,,,ES,2013/7/25,1st World Publishing,eng,false,164,828299,1740,3922,1054,89,1924/1/1,The Call of the Canyon,book,275,345,326,81,27,3.72,272,Hardcover,,0,0,Zane Grey,,,,,,393,10,85,"adventure,classics,fiction,historical,historical-fiction,language,novels,romance,writing"
18286501,1478707291,Knights of Gold: Battle Over the Lost Confederate Treasure,9781478707295,,,,ES,2013/7/28,Outskirts Press,,false,2,18286501,3,9,2,0,2013/7/28,,,1,1,0,0,0,4.50,418,Paperback,,1,0,Dell Isham,,,,,,1,0,,
18287001,1488526141,Web Content Management 21 Success Secrets - 21 Most Asked Questions on Web Content Management - What You Need to Know,9781488526145,,,,ES,2013/7/27,Emereo Publishing,,false,1,18287001,1,0,0,0,2013/7/27,,,0,0,0,0,0,0.00,42,Paperback,,0,0,Douglas Lee,,,,,,,0,,
18288001,1782997415,The Crusader's Arms,9781782997412,,,,ES,2013/7/1,FeedARead.com,,false,2,21327912,4,5,1,0,2013/7/17,,,1,0,0,0,0,5.00,344,Paperback,,0,0,Richard M Cavillon,,,,,,1,0,2,
18288501,3710303869,The Atomic Bombshell,9783710303869,,,,ES,2013/7/25,United P.C. Verlag,eng,false,1,18288501,0,0,0,0,2013/7/25,,book,0,0,0,0,0,0.00,524,Paperback,,0,0,Christine Betts,,,,,,,0,,
18289001,5911807300,Testy Pri Prieme Na Rabotu Kak Uspeshno Projti Sobesedovanie,9785911807306,,,,ES,2013/1/17,Book on Demand Ltd.,,false,1,18289001,0,0,0,0,2013/1/17,,,0,0,0,0,0,0.00,162,Paperback,,0,0,N Abelmas,,,,,,,0,,
18289501,0415536294,"Chinese Business in East Asia, 1850-1950: Strategic Ethnic Networking",9780415536295,,,,ES,2018/1/6,Routledge,,false,1,18289501,0,0,0,0,2014/9/11,,,0,0,0,0,0,0.00,288,Hardcover,,0,0,Chi-Cheung Choi,,,,,,,0,,
18290001,0571259014,The Image of a Drawn Sword,9780571259014,,,,ES,2010/1/21,Faber & Faber,,false,6,3534785,69,156,38,4,1950/1/1,Image of a Drawn Sword,book,15,13,9,1,0,4.11,144,Paperback,,0,0,Jocelyn Brooke,,,,,,27,2,,"fiction,lgbt"
18290501,0819225827,Anglican Young People's Dictionary,9780819225825,,,,ES,2004/9/1,Morehouse Publishing,,true,1,18290501,0,0,0,0,2004/9/1,,,0,0,0,0,0,0.00,80,ebook,,0,0,,,,,,,,0,,
18291001,1107626269,Samuel Pepys: Volume 3: The Saviour of the Navy,9781107626263,,,,ES,2013/9/30,Cambridge University Press,,false,2,4986763,41,57,14,2,1985/10/1,Samuel Pepys: The Saviour of the Navy,,5,5,4,0,0,4.07,474,Paperback,,0,0,Arthur Bryant,,,,,,15,2,1,"biography,history,non-fiction"
18291501,1407300504,"Viking Burial in the North of England: A Study of Contact, Interaction and Reaction Between Scandinavian Migrants with Resident Groups, and the Effect of Immigration on Aspects of Cultural Continuity",9781407300504,,,,ES,2007/8/15,British Archaeological Reports Oxford Ltd,,false,1,18291501,0,0,0,0,2007/12/31,,,0,0,0,0,0,0.00,126,Paperback,,0,0,Angela Z. Redmond,,,,,,,0,,
18292001,1459255062,The Best Catch in Texas,9781459255067,,,,ES,2013/8/15,Harlequin Special Releases,,true,14,1051825,148,208,54,5,2007/1/1,The Best Catch In Texas (Men of the West) (Silhouette Special Edition #1814),book,16,18,16,4,0,3.85,320,ebook,,0,0,Stella Bagwell,,,,,,61,3,4,"contemporary,harlequin,love-story,romance"
18292501,1480518409,The True Tale of the Monster Billy Dean,9781480518407,,,,ES,2014/1/7,Candlewick on Brilliance Audio,,false,2,17797383,1880,1592,498,138,2011/1/1,,book,65,148,157,76,52,3.20,,Audio CD,,0,0,David Almond,,,,,,1210,17,30,"abuse,dystopia,fantasy,fiction,high-school,horror,magical-realism,paranormal,post-apocalyptic,school,science-fiction,supernatural,teen,unfinished,young-adult"
18293001,1491800097,When the World Ends...,9781491800096,,,,ES,2013/7/25,Authorhouse,,true,4,18266768,18,26,6,5,2013/7/25,,book,2,4,0,0,0,4.33,,ebook,,0,0,J.J.  Marshall,,,,,,12,1,,"post-apocalyptic,thriller,young-adult"
18293501,1620863448,Canvas of Dreams,9781620863442,,,,ES,2013/8/6,Mascot Books,,false,1,18293501,1,0,0,0,2013/8/6,,,0,0,0,0,0,0.00,233,Paperback,,0,0,Dorothea Sawatzky,,,,,,,0,1,
18294501,1921870567,Quarterly Essay 45 Us and Them: On the Importance of Animals,9781921870569,,,,ES,2012/3/1,Quarterly Essay,,true,5,13520446,192,450,111,15,2012/3/1,,book,36,46,28,1,0,4.05,130,ebook,,0,0,Anna Krien,,,,,,59,3,3,"animals,business,economics,essays,history,non-fiction,philosophy,politics,science"
18295001,3700126301,Das Sudtor Der Tetragonos-Agora: Keramik Und Kleinfunde,9783700126300,,,,ES,1997/12/31,Austrian Academy of Sciences Press,,false,1,18295001,0,0,0,0,1997/12/31,,,0,0,0,0,0,0.00,265,Paperback,,0,0,Verena Gassner,,,,,,,0,,
18295501,9077922288,Greek Identity and the Athenian Past in Chariton: The Romance of Empire,9789077922286,,,,ES,2007/12/31,Barkhuis,,false,2,18295501,0,0,0,0,2007/12/31,,,0,0,0,0,0,0.00,282,Hardcover,,0,0,Steven D. Smith,,,,,,,0,,
18296001,1905825587,Rio: My Decade as a Red,9781905825585,,,,ES,2013/8/7,Bonnier Books,en-US,false,12,2126131,195,349,101,11,2006/1/1,Rio: My Story,,20,29,35,11,6,3.46,256,Hardcover,Illustrated,24,3,Rio Ferdinand,,,,,,68,1,1,"biography,non-fiction,sports"
18296501,,"Twisted by Love (Reincarnation Tales, #1)",,B0094OPTVI,,,ES,2012/8/31,Jasmine Haynes,eng,true,4,17561625,72,43,11,6,2012/8/31,,book,3,4,4,0,0,3.91,224,Kindle Edition,1st edition,1,0,Jasmine Haynes,,,,,,12,1,,erotica
18297001,,Longevidad,9789871923137,,,,ES,2013/1/1,Adriana Hidalgo Editora,spa,false,4,18365773,17,22,6,2,2012/2/1,Longevità,book,1,2,3,0,0,3.67,96,Paperback,,1,0,Umberto Veronesi,,,,Inés Marini,,6,1,,"health,science"
18297501,,"Calígula (Caligula, #1)",9788499474298,,,,ES,2012/1/1,EDT (Editores de Tebeos),spa,false,5,13101133,280,557,176,29,2012/1/1,Caligula I,book,24,39,66,36,11,3.16,144,Paperback,Colección Avatar,6,1,David Lapham,,,,,,66,9,2,"adult,comics,fantasy,fiction,graphic-novels,graphic-novels-comics,historical,historical-fiction,horror,supernatural"
18298501,,عون الحنان فى شرح الأمثال فى القرآن,,,,,ES,,دار الكتب العلمية - بيروت,ara,false,2,18298495,11,8,3,1,,,book,0,1,1,0,1,2.67,288,,,0,0,علي أحمد عبد العال الطهطاوي,,,,,,6,0,1,
18299001,0957137265,The Valentine Present and Other Diabolical Liberties,9780957137264,,,,ES,2013/9/1,Raucous Publishing,en-GB,false,3,18889537,657,1479,363,29,2013/8/27,,book,156,114,65,20,8,4.07,288,Paperback,1st,51,18,Lynda Renham,,,,,,102,4,40,"chick-lit,comedy,humor,relationships,romance"
18299501,,College Admission Policies Demystified: Understanding Homeschool Requirements for Getting In (Coffee Break Books),,,,,ES,,,,false,2,19184815,38,36,11,0,2013/5/22,,book,1,3,5,2,0,3.27,,,,1,0,Lee Binz,,,,,,21,1,1,
18300001,,Deadly Justice?,,B00DGW31GE,,,ES,2003/6/18,Ray Joesbury,en-GB,true,1,18300001,1,0,0,0,2003/6/18,,book,0,0,0,0,0,0.00,,Kindle Edition,,0,0,Ray Joesbury,,,,,,1,0,,
18300501,,The Suitcase Entrepreneur,,B00ED0JUE0,,,ES,2013/8/5,Tonawhai Press,en-US,true,4,18300501,1173,1199,306,28,2013/8/4,,book,111,95,73,18,9,3.92,,Kindle Edition,,276,25,Natalie Sisson,,,,,,758,9,45,"business,non-fiction,personal-development,self-help,travel"
18301001,2869597444,Lettre Ouverte Aux Voyous,9782869597440,,,,ES,2006/5/11,Arléa,fre,false,1,18301001,1,3,1,0,2006/5/11,,book,0,0,1,0,0,3.00,141,Mass Market Paperback,,1,0,Albert Simonin,,,,,,,0,,
18301501,,أسرار الجمال والجاذبية,,,,,ES,1983/1/1,أخبار اليوم,,false,1,18301501,3,5,1,0,1983/1/1,,book,1,0,0,0,0,5.00,156,Paperback,كتاب اليوم الطبي19,1,0,علي أبو الوفا,,,,,,1,0,,
18302001,1489581227,The Week I Was A Vampire,9781489581228,,,,ES,2013/7/5,CreateSpace Independent Publishing Platform,eng,false,2,18302001,55,40,12,2,2013/7/4,,book,3,3,2,3,1,3.33,244,Paperback,,10,2,Brittney Dussault,,,,,,41,5,3,"fantasy,new-adult,vampires"
18302501,0615817793,One Thousand Showers: A University Immersed in a Culture of,9780615817798,,,,ES,2013/6/13,Terri Patraw,en-US,false,1,18302501,4,5,1,0,2013/6/13,,book,1,0,0,0,0,5.00,226,Paperback,,1,0,Terri Patraw,,,,,,3,0,,
18303001,,به دنبال صدای او,,,,,ES,,سوره مهر,per,false,1,18303001,6,4,1,0,,,book,0,1,0,0,0,4.00,,,,1,0,محمدرضا بایرامی,,,,,,5,0,,
18304001,,Do Absolutismo ao Liberalismo - as Reformas de Mouzinho da Silveira,9789728758530,,,,ES,2008/1/1,Edições Tenacitas,por,false,1,18304001,4,7,2,0,2008/1/1,Do Absolutismo ao Liberalismo - as Reformas de Mouzinho da Silveira,book,0,1,1,0,0,3.50,100,Paperback,,2,0,Diogo Freitas do Amaral,,,,,,2,0,,
18304501,,Satan Is Alive & Well on Planet Earth,,,,,ES,1974/1/1,ZONDERVAN PUBLISHING HOUSE,eng,false,18,1122640,569,857,266,28,1972/1/1,Satan Is Alive and Well on Planet Earth,book,65,58,64,29,50,3.22,255,Paperback,,7,3,Hal Lindsey,,,,,,207,9,12,"canon,christian,christian-fiction,christianity,fiction,historical,history,horror,inspirational,non-fiction,novels,religion,spirituality,supernatural,theology"
18305001,,Газрын нулимс,,,,,ES,2013/1/1,Мөнхийн үсэг,,false,1,18305001,69,71,21,4,2013/1/1,,book,5,7,1,7,1,3.38,176,Paperback,1,21,4,Л. Сарантуяа,,,,,,41,0,3,
18305501,3436016330,Gefängnistagebuch,,,,,ES,1974/1/1,Fischer Taschenbuch Verlag,ger,false,7,842740,166,73,20,5,1946/1/1,Gefängnistagebuch,book,4,7,7,2,0,3.65,120,Paperback,,1,0,Luise Rinser,,,,,,58,0,38,"autobiography,biography,historical,history,memoir,non-fiction"
18306001,,Why We Broke Up,9781780311524,,,,ES,2012/8/6,Electric Monkey,eng,true,56,10798418,134051,170431,49009,6846,2011/12/27,Why We Broke Up,book,10110,15161,14535,6429,2774,3.48,354,ebook,,0,0,Daniel Handler,,,,,,75854,636,2298,"adult,chick-lit,contemporary,fiction,graphic-novels,high-school,humor,love,love-story,novels,realistic-fiction,relationships,romance,teen,unfinished,young-adult"
18306501,,The Hall of Mirrors Effect,,B00EAZF8LW,,,ES,2013/8/1,,en-GB,true,1,18306501,8,20,4,4,2013/8/1,,book,4,0,0,0,0,5.00,344,Kindle Edition,,4,4,C.S. Carrig,,,,,,2,0,1,
18307001,1442457074,"Chantress Alchemy (Chantress, #2)",9781442457072,,,,ES,2014/5/6,Margaret K McElderry Books,eng,false,1,18307001,5192,1426,372,79,2014/5/6,Chantress Alchemy,book,99,142,104,24,3,3.83,352,Hardcover,,341,71,Amy Butler Greenfield,,,,,,4644,11,14,"amazon,fantasy,fiction,historical,historical-fiction,magic,mystery,paranormal,romance,supernatural,teen,witches,young-adult"
18307501,,O Império Africano - Séculos XIX e XX,9789727721610,,,,ES,2000/1/1,Edições Colibri,por,false,1,18307501,5,11,3,0,2000/1/1,O Império Africano - Séculos XIX e XX,book,0,2,1,0,0,3.67,195,Paperback,,3,0,,,,,,,1,0,,
18308001,,Kırmızı Başlıklı Kız,9789717782027,,,,ES,2012/1/1,,tur,false,102,1002694,1369,2931,789,76,1697/7/30,,book,251,188,255,64,31,3.71,48,Paperback,,1,0,Charles Perrault,,,,,,338,18,14,"adventure,animals,childrens,classic-literature,classics,fairy-tales,fantasy,fiction,france,graphic-novels,picture-books,school,short-stories"
18308501,,Smash Book,,,,,ES,,,,false,1,18308501,3,5,1,0,,,book,1,0,0,0,0,5.00,,,,1,0,K&Company,,,,,,2,0,,
18309001,8896999332,La geografia delle piogge,9788896999332,,,,ES,2012/9/1,Laurana Editore,ita,false,2,17131229,13,37,11,6,2012/1/1,La geografia delle piogge,book,1,6,1,2,1,3.36,165,Paperback,,1,1,Paolo Grugni,,,,,,2,0,,
18309501,2742788417,Le Roman du piano,9782742788415,,,,ES,2010/2/3,Babel,fre,false,10,457165,70,56,14,3,1987/1/1,Pianoforte: A Social History of the Piano,book,5,5,3,1,0,4.00,608,Mass Market Paperback,,1,0,Dieter Hildebrandt,,,,Brigitte Hébert,,37,1,4,"music,non-fiction"
18310001,,ЦРУ против СССР,,,,,ES,1983/1/1,Правда,rus,false,1,18310001,1,0,0,0,1983/1/1,ЦРУ против СССР,book,0,0,0,0,0,0.00,464,Hardcover,,0,0,Николай Яковлев,,,,,,,0,,
18310501,,Frida Kahlo,,,,,ES,1976/1/1,Departamento editorial -Secretaría de la Presidencia,spa,false,1,18310501,0,0,0,0,1976/1/1,,book,0,0,0,0,0,0.00,64,Paperback,,0,0,Teresa Del Conde,,,,,,,0,,
18311001,,"LC:  Airgear 31 (Airgear, #31)",9786020035420,,,,ES,2012/11/14,Elex Media Komputindo,ind,false,8,11105539,210,508,120,0,2011/3/17,エア・ギア 31,book,59,36,21,2,2,4.23,200,Paperback,,0,0,Oh! Great,,,,,,43,6,,"graphic-novels,manga,science-fiction,sports,teen,young-adult"
18311501,0415831393,Colloquial English: The Complete Course for Beginners,9780415831390,,,,ES,2014/3/1,Routledge,,false,14,1135990,20,19,5,0,2004/2/8,Colloquial English: The Complete Course for Beginners (Colloquial Series (Book Only)),,2,2,0,0,1,3.80,,Hardcover,,0,0,Gareth King,,,,,,10,0,,american
18312001,056757038X,Women in Mark's Gospel,9780567570383,,,,ES,2004/10/1,T & T Clark International,,true,1,18312001,0,0,0,0,2004/10/1,,,0,0,0,0,0,0.00,320,ebook,,0,0,Susan Miller,,,,,,,0,,
18313001,0736242724,"Windows on Literacy Language, Literacy & Vocabulary: Thomas Edison (6-Pack)",9780736242721,,,,ES,2007/10/30,National Geographic Society,,false,1,18313001,0,0,0,0,2007/10/30,,,0,0,0,0,0,0.00,,Paperback,,0,0,Linda Hoyt,,,,,,,0,,
18313501,0736274839,Reach B: Language Builder Picture Cards,9780736274838,,,,ES,2010/3/18,National Geographic Society,,false,1,18313501,0,0,0,0,2010/3/18,,,0,0,0,0,0,0.00,105,Paperback,,0,0,National Geographic Learning,,,,,,,0,,
18314001,0736293949,Ready Set Staar (TX) Grade 5 Teachers Guide,9780736293945,,,,ES,2012/3/18,National Geographic School Publishing,,false,1,18314001,0,0,0,0,2012/3/18,,,0,0,0,0,0,0.00,,Hardcover,,0,0,National Geographic Learning,,,,,,,0,,
18314501,0792244443,Winlit: Ahora y Antes,9780792244448,,,,ES,2007/3/11,National Geographic School Publishing,,false,2,18314501,0,0,0,0,2007/3/11,,,0,0,0,0,0,0.00,,Paperback,,0,0,National Geographic Learning,,,,,,,0,,
18315001,0792286677,Up Down and All Around,9780792286677,,,,ES,2007/2/12,National Geographic School Publishing,,false,1,18315001,0,0,0,0,2007/2/12,,,0,0,0,0,0,0.00,8,Paperback,,0,0,National Geographic Learning,,,,,,,0,,
18315501,0988743779,History of West Virginia Free Will Baptists,9780988743779,,,,ES,2013/8/1,Fwb Publications,,false,2,18315501,1,0,0,0,2013/7/22,,book,0,0,0,0,0,0.00,142,Hardcover,,0,0,James H. Cox,,,,,,1,0,,"christian,history"
18316001,,"Untamed (MacKinnon's Rangers, #2)",,,,,ES,2013/8/12,,eng,false,25,3711150,7221,15039,3539,304,2008/11/25,Untamed,book,1714,1181,499,103,42,4.25,,Audiobook,,0,0,Pamela Clare,,,,,,3163,28,48,"action,adult,americana,erotica,fiction,historical,historical-fiction,romance,suspense,war"
18317001,1441127690,Disempowered King: Monarchy in Classical Jewish Literature,9781441127693,,,,ES,2011/3/17,Continuum,,true,4,11812567,4,4,1,0,2011/3/17,,,0,1,0,0,0,4.00,232,ebook,,0,0,Yair Lorberbaum,,,,,,1,0,,"academic,history"
18317501,1446270556,The Sage Handbook of Evaluation,9781446270554,,,,ES,2013/6/21,Sage Publications Ltd,eng,false,6,17079514,3,3,1,0,2006/1/1,,book,0,0,1,0,0,3.00,632,Paperback,,0,0,,,,"Ian F. Shaw,Jennifer C. Greene,,Melvin M. Mark",,,2,1,,
18318001,1466649364,Global Trends in Intelligent Computing Research and Development,9781466649361,,,,ES,2013/12/9,Information Science Reference,,false,5,18318001,1,0,0,0,2013/1/1,,,0,0,0,0,0,0.00,601,Hardcover,,0,0,,,,"B.K. Tripathy,D.P. Acharjya",,,1,0,,
18318501,1476570442,Countries,9781476570440,,,,ES,2014/1/1,Capstone Press,,false,7,17648706,0,0,0,0,2013/7/1,,,0,0,0,0,0,0.00,96,Paperback,,0,0,Christine Juarez,,,,,,,0,,
18319001,1481761005,The Heirloom,9781481761000,,,,ES,2013/8/9,Authorhouse,,true,3,18319000,0,0,0,0,2013/8/9,,,0,0,0,0,0,0.00,,ebook,,0,0,Beth Adet,,,,,,,0,,
18319501,1491501383,No Place to Hide: A Brain Surgeon's Long Journey Home from the Iraq War,9781491501382,,,,ES,2014/5/6,Zondervan on Brilliance Audio,,false,6,19631029,1461,2637,599,85,2014/2/25,,,345,184,46,14,10,4.40,,Audio CD,,2,1,W. Lee Warren,,,,,,664,22,96,"biography,biography-memoir,christian,contemporary,faith,historical,history,medical,memoir,non-fiction,society,sociology,war"
18320001,1621039714,Conversations with Edna O'Brien,9781621039716,,,,ES,2013/12/2,University Press of Mississippi,,true,7,18063484,4,0,0,0,2013/10/29,,,0,0,0,0,0,0.00,128,ebook,,0,0,,,,Alice Hughes Kersnowski,,,4,0,,
18320501,,EVENTS² - Hoe organiseer je een geslaagd event?,9789401408110,,,,ES,2013/7/1,eventplanner.be /.nl,nl,false,1,18320501,7,15,3,0,2013/7/1,,book,3,0,0,0,0,5.00,233,Paperback,,3,0,Kevin van der Straeten,,,,,,3,0,,
18321001,3631628927,Portfolio ALS Baustein Einer Neuen Lernkultur: Eine Empirische Studie Zur Implementierung Des Europaeischen Portfolios Der Sprachen,9783631628928,,,,ES,2013/8/26,"Peter Lang Gmbh, Internationaler Verlag Der Wissenschaften",,false,2,18321001,0,0,0,0,2013/9/5,,,0,0,0,0,0,0.00,242,Hardcover,,0,0,Carmen Becker,,,,,,,0,,
18321501,3663006352,Grundzuge Der Marktforschung: Ein Leitfaden Fur Studium Und Praxis,9783663006350,,,,ES,1965/1/1,Gabler Verlag,,false,6,5920719,1,0,0,0,1965/1/1,Grundzüge der Marktforschung.,,0,0,0,0,0,0.00,360,Paperback,,0,0,Manfred Hüttner,,,,,,,0,,
18322001,5518439695,Our Phil and Other Stories,9785518439696,,,,ES,2013/7/13,Book on Demand Ltd.,,false,1,18322001,0,0,0,0,2013/7/13,,,0,0,0,0,0,0.00,164,Paperback,,0,0,Katharina Floyd Dana,,,,,,,0,,
18322501,9400776837,Transactions on Engineering Technologies: International Multiconference of Engineers and Computer Scientists 2013,9789400776838,,,,ES,2013/12/13,Springer,,false,2,18322501,0,0,0,0,2013/12/18,,,0,0,0,0,0,0.00,451,Hardcover,,0,0,,,,"Gi-Chul Yang,Oscar Castillo,Sio-Iong Ao,Xu Huang",,,,0,,
18323001,,"Jamie, Y Llew yn Ne Affrica",9781847711724,,,,ES,,Y Lolfa,wel,false,1,18323001,1,2,1,1,,,book,0,0,0,1,0,2.00,80,,,1,1,Jamie Roberts,,,,,,,0,,
18323501,,You Can Do it Yourself: Great Do It Yourself Home Improvements on a Budget,1624090184,,,,ES,13/7/22,Velocity House,eng,true,3,19056859,195,106,32,0,13/7/22,,book,7,6,11,6,2,3.31,224,Kindle Edition,,0,0,Gary Nealon,,,,,,139,6,5,"amazon,non-fiction,reference,self-help"
18324001,0989534812,California Revolution,9780989534819,,,,ES,2013/8/10,Stag Hunt Enterprises,,false,1,18324001,0,0,0,0,2013/8/10,,book,0,0,0,0,0,0.00,60,Paperback,,0,0,,,,Patrick Atwater,,,,0,,
18324501,1462729452,"Once Saved, Always Saved",9781462729456,,,,ES,2013/8/1,CrossBooks Publishing,,false,10,700066,80,133,32,5,1969/12/1,"Once Saved, Always Saved",,17,6,7,1,1,4.16,192,Hardcover,,0,0,R.T. Kendall,,,,,,34,1,2,"christian,non-fiction,theology"
18325001,1489560416,The Pirate Heir: Uncut Edition,9781489560414,,,,ES,2013/8/5,Createspace Independent Publishing Platform,,false,2,18325001,3,0,0,0,2013/8/5,,,0,0,0,0,0,0.00,324,Paperback,,0,0,Reilly Woodhouse,,,,,,3,0,,
18325501,1608091066,The Deal,9781608091065,,,,ES,2014/1/21,Oceanview Publishing,,false,5,2775797,562,730,229,42,2008/5/1,The Deal,book,32,60,77,39,21,3.19,442,Paperback,,0,0,Adam Gittlin,,,,,,269,19,17,"adventure,fiction"
18326001,1904380956,Her Majesty's Philosophers,9781904380955,,,,ES,2013/9/9,Waterside Press,,false,5,18326001,22,33,8,1,2013/1/1,,,3,4,0,1,0,4.12,218,Paperback,,7,1,Alan Smith,,,,,,11,0,1,non-fiction
18326501,9029587121,Wat doe ik hier in Godsnaam?,9789029587129,,,,ES,2013/6/13,De Arbeiderspers,nl,false,1,18326501,41,63,20,7,2013/1/1,,book,2,8,3,5,2,3.15,164,Hardcover,,20,7,Carel ter Linden,,,,,,11,0,4,"christianity,inspirational,philosophy,religion,spirituality,theology"
18327001,3732605930,Verordnung Uber Die Bundesstatistik Fur Krankenhauser (Krankenhausstatistik-Verordnung - Khstatv),9783732605934,,,,ES,2013/5/1,Outlook Verlag,,false,1,18327001,0,0,0,0,2013/5/1,,,0,0,0,0,0,0.00,12,Paperback,,0,0,Anonymous,,,,,,,0,,
18327501,3732612066,Verordnung Uber Die Leistungsprufungen Und Die Zuchtwertfeststellung Bei Schafen Und Ziegen,9783732612062,,,,ES,2013/5/16,Outlook Verlag,,false,1,18327501,0,0,0,0,2013/5/16,,,0,0,0,0,0,0.00,12,Paperback,,0,0,Ohne Autor,,,,,,,0,,
18328001,3944596021,A Decade of Turmoil and Hope,9783944596020,,,,ES,2013/8/5,Morisken Verlag,,false,1,18328001,3,10,2,0,2013/8/5,,,2,0,0,0,0,5.00,216,Paperback,,2,0,Wissam Yafi,,,,,,1,0,,
18328501,5518430450,The Book of the Sweet Pea,9785518430457,,,,ES,2013/7/26,Book on Demand Ltd.,,false,2,14465882,0,0,0,0,2011/10/20,,,0,0,0,0,0,0.00,184,Paperback,,0,0,D.B. Crane,,,,,,,0,,
18329001,5518435460,Bacon Versus Shakspere a Plea for the Defendant,9785518435469,,,,ES,2013/2/4,Book on Demand Ltd.,,false,2,12038494,0,0,0,0,2013/2/4,,,0,0,0,0,0,0.00,196,Paperback,,0,0,Thomas Davies King,,,,,,,0,,
18329501,,"Duplicity (The Reunited Hearts, #3)",,B008QMNFLA,,,ES,2012/7/28,Magnolia Leaf Press,en-US,true,5,15952327,221,240,61,8,1999/4/1,Duplicity,book,20,20,18,3,0,3.93,396,ebook,2nd,3,0,Vicki Hinze,,,,,,23,1,4,"fiction,mystery,romance,suspense,thriller"
18330001,1481876449,"The StoneCutter (S. Lasher & Associates, #1)",9781481876445,,,,ES,13/8/23,"Black Snake, llc",eng,false,4,21424455,254,385,107,8,2013/8/2,,book,33,31,18,17,8,3.60,270,Paperback,,4,1,Scott Blade,,,,,,118,7,14,"fiction,horror,murder-mystery,mystery,mystery-thriller,paranormal,thriller"
18330501,,lautlos ist die stille,,B009T0DC5M,,,ES,2012/10/18,Edition Anna Perenna,ger,true,1,18330501,3,2,1,1,2012/10/18,,book,0,0,0,1,0,2.00,,Kindle Edition,,1,1,Bettina Ferbus,,,,,,2,0,,
18331001,,Crimes Exemplares,9789726082019,,,,ES,2008/1/1,Antígona,por,false,22,9696780,965,2092,549,80,1957/1/1,Crímenes ejemplares,book,143,223,127,48,8,3.81,140,Hardcover,,36,3,Max Aub,,,,,,243,6,5,"classics,crime,fiction,horror,mystery,short-stories,theatre,thriller"
18331501,,"Archangel's Storm (Guild Hunter, #5)",,B009C18FGE,,,ES,2012/9/17,Tantor Audio,eng,false,22,9738483,33381,86754,20234,1276,2012/9/4,Archangel's Storm,book,9566,7419,2817,365,67,4.29,11,Audible Audio,Unabridged,37,7,Nalini Singh,,,,,Justine Eyre,8398,221,352,"action,adult,adult-fiction,angels,erotica,fantasy,fiction,magic,mystery,new-adult,paranormal,romance,supernatural,suspense,urban-fantasy,vampires"
18332001,,Against domestication,,,,,ES,1981/1/1,Invariance/Falling sky books,eng,false,1,18332001,43,47,11,0,1981/1/1,,book,5,4,2,0,0,4.27,24,Paperback,Reprint,11,0,Jacques Camatte,,,,,,30,0,,
18332501,,Mass Effect Homeworlds #4,,B0091W0KTE,,,ES,2012/8/29,Dark Horse,eng,false,2,18332501,57,76,22,1,2012/8/29,Mass Effect Homeworlds #4,book,4,7,8,1,2,3.45,22,Paperback,,21,1,"Jeremy Barlow,Mac Walters,Sylvia Feketekuty",Omar Francia,,,,,23,2,2,"comics,graphic-novels-comics,science-fiction"
18333001,3150202663,Wirklichkeit 2.0: Medienkultur im digitalen Zeitalter,9783150202661,,,,ES,2012/10/1,Reclam,ger,false,2,18333001,5,3,1,0,2012/10/1,Wirklichkeit 2.0: Medienkultur im digitalen Zeitalter,book,0,0,1,0,0,3.00,300,Paperback,,1,0,,,,,,,1,1,1,
18333501,,"The King's Evil (Christopher Redmayne, #1)",,B006WB7OXW,,,ES,2011/1/17,Allison & Busby,en-GB,true,8,1094874,801,1207,318,38,1999/8/5,The King's Evil,book,79,132,78,21,8,3.80,,Kindle Edition,,38,1,Edward Marston,,,,,,396,13,14,"crime,fiction,historical,historical-fiction,history,mystery"
18334001,,Die Hurenkönigin und der Venusorden,9783548285221,,,,ES,2013/8/1,,ger,false,2,18334001,13,25,6,2,2013/8/1,Die Hurenkönigin und der Venusorden,book,2,3,1,0,0,4.17,347,Paperback,,6,2,Ursula Neeb,,,,,,4,1,,"crime,historical-fiction"
18334501,,The Tale of Two Bad Mice,,,,,ES,,Folio Society,eng,false,111,585747,9248,28960,6903,190,1904/1/1,The Tale of Two Bad Mice ,book,3356,1934,1285,261,67,4.20,57,Hardcover,,4,1,Beatrix Potter,,,,,,1015,36,23,"animals,childrens,classics,fantasy,fiction,juvenile,literature,nature,picture-books,short-stories"
18335001,0435280104,Preparing for Proficiency. Students' Book,,,,,ES,1984/1/1,Heinemann Educational Books Ltd.,eng,false,1,18335001,1,0,0,0,1984/1/1,,book,0,0,0,0,0,0.00,124,Paperback,,0,0,Stephen Andrews,,,,,,,0,,
18335501,1492134813,"Holding On (Hooking Up, #2)",9781492134817,,,,ES,2013/8/14,,eng,false,2,18335501,335,134,34,6,2013/8/14,,book,11,14,7,0,2,3.94,232,Paperback,,25,6,Jessica L. Degarmo,,,,,,269,6,8,"chick-lit,new-adult"
18336001,,Drep ikke en sangfugl,9788252579406,,,,ES,2005/1/1,Aschehoug,nor,false,19,2657,5330779,16511600,3869210,82143,1960/7/11,To Kill a Mockingbird,book,2010497,1153447,503886,132289,69091,4.27,329,Hardcover,,7,0,Harper Lee,,,,Magli Elster,,1127510,9176,47960,"adult,adult-fiction,american,classic-literature,classics,contemporary,crime,drama,family,fiction,high-school,historical,historical-fiction,history,literary-fiction,literature,modern-classics,novels,realistic-fiction,school,young-adult"
18336501,,Fringes,9781925031355,,,,ES,2013/8/7,Wilde City Press,,true,4,31294333,25,27,7,4,2013/8/7,,book,1,4,2,0,0,3.86,,ebook,,5,4,Shae Connor,,,,,,7,2,1,"bdsm,erotica,fiction,queer,romance,science-fiction"
18337001,,Big Joe and the Prep School Soccer Jock,,B00D004EKE,,,ES,2013/5/24,Amazon Digital Publishing,eng,true,2,18337001,71,79,24,4,,,book,6,5,5,6,2,3.29,44,Kindle Edition,,24,4,Keegan Kennedy,,,,,,40,1,3,"bdsm,contemporary,erotica,lgbt"
18337501,7898666133,零與無限大,,,,,ES,,,zho,false,1,18337501,2,9,2,0,,,book,1,1,0,0,0,4.50,,Paperback,,2,0,許文龍,,,,,,,0,,
18338001,,Purzelbaum,,B00BFGLZMU,,,ES,,,ger,true,1,18338001,5,6,3,0,2013/2/12,,book,0,0,1,1,1,2.00,205,Kindle Edition,,3,0,Selma Stephenson,,,,,,,0,,romance
18338501,,La mujer de mis sueños,,,,,ES,1945/3/1,Ediciones Lauro,spa,false,2,18338501,9,10,3,1,1925/1/1,La donna dei miei sogni,book,0,2,0,1,0,3.33,197,Hardcover,,3,1,Massimo Bontempelli,,,,,,6,1,,
18339001,,Tusen varv runt månen och tillbaks,9789186589110,,,,ES,2012/4/27,Vombat förlag,swe,false,1,18339001,1,5,1,0,2012/4/27,,book,1,0,0,0,0,5.00,101,Hardcover,,1,0,Johannes Sandreyo,,,,,,,0,,
18339501,0374708819,The Tastemaker: Carl Van Vechten and the Birth of Modern America,9780374708818,,,,ES,2014/2/18,"Farrar, Straus and Giroux",,true,4,17934407,197,213,55,11,2014/2/18,,book,14,26,12,0,3,3.87,400,ebook,,0,0,Edward   White,,,,,,127,0,5,"american-history,biography,historical-fiction,history,literature,music,non-fiction,psychology,queer,unfinished"
18340001,0804121451,Joshua Dread: The Dominion Key,9780804121453,,,,ES,2014/5/13,Listening Library (Audio),,false,12,18339641,702,1611,381,24,2014/5/13,The Dominion Key,book,191,110,63,10,7,4.23,,Audio,,0,0,Lee Bacon,,,,,,63,21,8,"adventure,fantasy,fiction,humor,juvenile,middle-grade,mystery,science-fiction,science-fiction-fantasy,superheroes,young-adult"
18340501,,The Skagen Painters: Introduction to the Skagen Painters and the Skagen Museum,,,,,ES,2009/1/1,Skagens Museum,eng,false,1,18340501,2,0,0,0,2009/1/1,Skagensmalerne : Introduktion til skagensmalerne og Skagens Museum,book,0,0,0,0,0,0.00,,,,0,0,Annette Johansen,,,"Lisette Vind Ebbesen,Mette Bøgh Jensen",,,,0,1,history
18342001,,คิดอย่างอาเซียน,9786167060750,,,,ES,,แมคกรอ-ฮิล,tha,true,6,742150,163,93,28,5,2014/11/6,Think ASEAN! Rethinking Marketing toward ASEAN Community 2015,book,5,6,11,5,1,3.32,188,ebook,,2,0,"Den Huan Hooi,Hermawan Kartajaya,Philip Kotler",,,,"ผุสดี พลสารัมย์,ภาณุชาติ บุณยเกียรติ",,108,0,7,"business,economics"
18342501,9992740477,Çapaçuli,,,,,ES,2000/1/1,OMSCA,sqi,false,1,18342501,34,64,16,0,2000/1/1,,book,7,5,1,3,0,4.00,118,Paperback,,16,0,Dionis Bubani,,,,,,9,0,1,
18343001,032166289X,The Economics of Public Issues,9780321662897,,,,ES,2010/1/1,Pearson Education,eng,false,20,558364,524,627,179,16,1993/1/1,The Economics of Public Issues (HarperCollins Series in Economics),book,35,64,48,20,12,3.50,238,Paperback,Sixteenth Edition,1,0,"Daniel K. Benjamin,Douglass C.North,Roger LeRoy Miller",,,,,,218,7,18,"business,college,economics,history,non-fiction,politics,textbooks"
18343501,0571277462,Riviera: The Rise and Rise of the Côte d'Azur,9780571277469,,,,ES,2011/4/21,Faber  Faber,,false,2,6900217,6,4,1,1,2011/4/21,,,0,1,0,0,0,4.00,290,Paperback,,0,0,Jim Ring,,,,,,4,0,,"history,travel"
18344001,0989125815,Knickerbocker Glory: A Chef's Guide to Innovation in the Kitchen and Beyond,9780989125819,,,,ES,2013/9/1,"Culinary Exchange, LLC",,false,3,18344001,387,31,7,2,2013/9/1,,book,4,2,1,0,0,4.43,108,Hardcover,,6,1,Matthew     Robinson,,,,,,376,2,,food
18344501,1475806957,Becoming a Great School: Harnessing the Powers of Quality Management and Collaborative Leadership,9781475806953,,,,ES,2015/2/26,Rowman & Littlefield Publishers,,false,5,18344501,0,0,0,0,2013/1/1,,,0,0,0,0,0,0.00,170,Paperback,,0,0,"Joseph G. Salah,Kenneth B. Cooper,Nels Gustafson",,,,,,,0,,
18345001,1490353062,From High Heels to Gumboots One Cow Pie at a Time,9781490353067,,,,ES,2013/8/12,Createspace,,false,1,18345001,2,3,1,1,2013/8/12,,,0,0,1,0,0,3.00,204,Paperback,,1,1,June Hilbert,,,,,,1,0,,
18345501,1550029169,Historical Distillates: Chemistry at the University of Toronto since 1843,9781550029161,,,,ES,2007/3/24,Dundurn,,true,7,6245215,0,0,0,0,2007/1/1,,book,0,0,0,0,0,0.00,256,ebook,,0,0,"Adrian G. Brook,W a E (Peter) McBryde",,,,,,,0,,
18346001,1627980229,"When Love Takes Over (Provincetown, #1)",9781627980227,,,,ES,2013/8/5,Dreamspinner Press,,false,4,18248789,820,1469,411,100,2013/8/4,,book,70,168,116,42,15,3.57,270,Paperback,,1,0,Jacob Z. Flores,,,,,,289,35,8,"contemporary,erotica,fiction,funny,gay,humor,lgbt,romance"
18346501,3659078859,Laberinto de Utopia,9783659078859,,,,ES,2013/8/8,Eae Editorial Academia Espanola,,false,1,18346501,0,0,0,0,2013/8/8,,,0,0,0,0,0,0.00,236,Paperback,,0,0,Garbuno Avina Eugenio,,,,,,,0,,
18347001,5518445717,Characteristics,9785518445710,,,,ES,2013/2/13,Book on Demand Ltd.,,false,14,28743410,1,2,1,1,1892/1/1,,,0,0,0,1,0,2.00,322,Paperback,,0,0,S. Weir Mitchell,,,,,,,0,,
18347501,5518451067,Abstract of Criminal Laws of Massachusetts,9785518451063,,,,ES,2013/7/7,Book on Demand Ltd.,,false,1,18347501,0,0,0,0,2013/7/7,,,0,0,0,0,0,0.00,180,Paperback,,0,0,Massachusetts Constable O Commonwealth,,,,,,,0,,
18348001,5518456298,The Memoirs of Paul de Kock,9785518456297,,,,ES,2013/2/20,Book on Demand Ltd.,,false,3,18348001,0,0,0,0,2008/8/1,,,0,0,0,0,0,0.00,310,Paperback,,0,0,Paul de Kock,,,,,,,0,,
18348501,5518461534,The Battles of Wakefield,9785518461536,,,,ES,2013/5/12,Book on Demand Ltd.,,false,1,18348501,0,0,0,0,2013/5/12,,,0,0,0,0,0,0.00,106,Paperback,,0,0,George Tyas,,,,,,,0,,
18349001,5518466781,"Annals of the Catholic Hierarchy in England and Scotland, A.D. 1585-1876",9785518466784,,,,ES,2013/1/22,Book on Demand Ltd.,,false,2,18349001,0,0,0,0,2013/1/22,,,0,0,0,0,0,0.00,554,Paperback,,0,0,"Andrew Dickson White,William Maziere Brady",,,,,,,0,,
18349501,5990422261,Ergonomika Zritelnogo Vospriyatiya,9785990422261,,,,ES,2013/5/13,Book on Demand Ltd.,,false,1,18349501,0,0,0,0,2013/5/13,,,0,0,0,0,0,0.00,194,Paperback,,0,0,Evgenij Aleksandrovich Trofimov,,,,,,,0,,
18350001,038730410X,Handbook of Neurochemistry and Molecular Neurobiology: Schizophrenia,9780387304106,,,,ES,2009/1/1,Springer,,true,2,9115674,1,0,0,0,2009/1/1,,,0,0,0,0,0,0.00,550,ebook,,0,0,Abel Lajtha,,,"Daniel C. Javitt,Joshua Kantrowitz",,,1,0,,
18350501,0739152890,"Challenges to the American Founding: Slavery, Historicism, and Progressivism in the Nineteenth Century",9780739152898,,,,ES,2004/12/28,Lexington Books,,true,5,4987612,22,19,4,0,2004/1/1,"Challenges to the American Founding: Slavery, Historicism, and Progressivism in the Nineteenth Century",,3,1,0,0,0,4.75,314,ebook,,0,0,,,,"Ronald J. Pestritto,Thomas G. West",,,17,0,,"history,politics"
18351001,0974518867,Small Packages,9780974518862,,,,ES,2004/4/1,Fishbowl International,,true,1,18351001,0,0,0,0,2004/4/1,,,0,0,0,0,0,0.00,,ebook,,0,0,Sydney Molare',,,,,,,0,,
18351501,,Ingeniería Gastronomica,9789561411616,,,,ES,2010/1/1,Ediciones UC,spa,false,1,18351501,3,0,0,0,2010/1/1,,book,0,0,0,0,0,0.00,328,Paperback,,0,0,José Miguel Aguilera,,,,,,3,0,,
18352001,1433955792,Diggers / Excavadoras,9781433955792,,,,ES,2011/8/1,Gareth Stevens Publishing,,true,7,14455142,3,3,1,0,2011/8/1,,,0,0,1,0,0,3.00,26,ebook,,0,0,Katie Kawa,,,,,,,1,,
18352501,1433987899,Whales / Ballenas,9781433987892,,,,ES,2013/1/1,Gareth Stevens Publishing,,true,7,15945457,0,0,0,0,2012/12/28,,,0,0,0,0,0,0.00,26,ebook,,0,0,Ryan Nagelhout,,,,,,,0,,
18353001,1448854261,A Day in the Life of Colonial Silversmith Paul Revere,9781448854264,,,,ES,2011/8/15,PowerKids Press,,true,6,12897572,11,14,4,1,2011/8/15,,,0,2,2,0,0,3.50,24,ebook,,0,0,Andrea P. Smith,,,,,,4,1,,american-history
18353501,1448895499,Optimism,9781448895496,,,,ES,2013/8/1,Rosen Central,,true,4,17862045,0,0,0,0,2013/1/1,,,0,0,0,0,0,0.00,64,ebook,,0,0,Terry Meyer,,,,,,,0,,
18354001,1467714445,Nicholas Hoult: Beast of the Silver Screen,9781467714440,,,,ES,2014/1/1,Lerner Publications (Tm),,false,4,18354001,1,0,0,0,2014/1/1,,,0,0,0,0,0,0.00,32,Hardcover,,0,0,Nadia Higgins,,,,,,1,0,,
18354501,1480537683,"Conspiracy of Alchemists, A",9781480537682,,,,ES,2013/12/3,Brilliance Audio,,false,17,15849472,7826,5954,1735,406,2013/1/1,A Conspiracy of Alchemists,book,280,577,584,200,94,3.43,,Audio CD,,0,0,Liesel Schwarz,,,,,,5591,45,80,"action,adult,adult-fiction,adventure,fantasy,fiction,historical,historical-fiction,magic,mystery,mythology,paranormal,romance,science-fiction,speculative-fiction,steampunk,supernatural,unfinished,urban-fantasy,vampires,victorian,witches,young-adult"
18355001,1491701684,A Baseball Career That Ended in . . . a Split Second: The Life and Faith of Jim Aldredge,9781491701683,,,,ES,2013/8/15,iUniverse,,true,2,18345304,0,0,0,0,2013/8/15,,,0,0,0,0,0,0.00,,ebook,,0,0,Jerry Guibor,,,,,,,0,,
18355501,1609710061,"ABAT Exam Secrets, Study Guide: ABAT Test Review for the American Board of Applied Toxicology Certification Examination",9781609710064,,,,ES,2016/10/24,Mometrix Media LLC,,false,1,18355501,0,0,0,0,2013/2/14,,,0,0,0,0,0,0.00,131,Paperback,,0,0,,,,,,,,0,,
18356001,1610721322,MTTC History (09) Test Secrets: MTTC Exam Review for the Michigan Test for Teacher Certification,9781610721325,,,,ES,2016/10/24,Mometrix Media LLC,,false,1,18356001,1,0,0,0,2013/2/14,,,0,0,0,0,0,0.00,148,Paperback,,0,0,Mttc Exam Secrets Test Prep Team,,,,,,1,0,,textbooks
18356501,1614037299,SAT Exam Practice Questions: SAT Practice Tests & Review for the SAT Reasoning Test,9781614037293,,,,ES,2016/10/24,Mometrix Media LLC,,false,2,18356501,1,0,0,0,2013/2/14,,,0,0,0,0,0,0.00,132,Paperback,,0,0,,,,,,,1,0,,
18357001,1621200426,CEN Practice Questions: CEN Practice Tests & Review for the Certification for Emergency Nursing Examination,9781621200420,,,,ES,2016/10/24,Mometrix Media LLC,,false,1,18357001,2,9,2,0,2013/2/14,,,1,1,0,0,0,4.50,94,Paperback,,2,0,,,,,,,,0,,
18357501,1627950087,The Cathars: Their Mysteries and History Revealed,9781627950084,,,,ES,2013/10/15,Shelter Harbor Press,,false,25,399533,652,1009,269,33,2004/1/1,The Cathars: The Most Successful Heresy of the Middle Ages,book,42,139,68,19,1,3.75,192,Paperback,,6,3,Sean Martin,,,,,,284,11,16,"christianity,faith,france,history,medieval,non-fiction,philosophy,religion,theology"
18358001,2012558283,"Julie, Ou La Nouvelle H�lo�se Tome 1 (�d.1823)",9782012558281,,,,ES,2012/6/1,Hachette Livre Bnf,,false,8,689610,145,135,42,0,1761/1/1,La nouvelle Héloïse. Tome 1,book,6,11,12,12,1,3.21,414,Unknown Binding,,0,0,Jean-Jacques Rousseau,,,,,,82,3,4,"classic-literature,classics,fiction"
18358501,3834934003,�konomie Der Werbung: Grundlagen - Wirkungsweise - Gesch�ftsmodelle,9783834934000,,,,ES,2013/11/4,Springer Gabler,,false,1,18358501,0,0,0,0,2013/10/31,,,0,0,0,0,0,0.00,178,Paperback,,0,0,Ralf Nocker,,,,,,,0,,
18359001,5518473788,Goethe and Schiller,9785518473782,,,,ES,2013/3/13,Book on Demand Ltd.,,false,22,3510856,12,11,4,1,1867/1/1,Goethe and Schiller: An Historical Romance,book,0,1,1,2,0,2.75,510,Paperback,,0,0,"Chapman Coleman,Luise Mühlbach",,,,,,4,1,1,"fiction,historical-fiction"
18359501,5518479026,Oral Composition,9785518479029,,,,ES,2013/5/8,Book on Demand Ltd.,,false,1,18359501,1,0,0,0,2013/5/8,,,0,0,0,0,0,0.00,432,Paperback,,0,0,Cornelia Carhart Ward,,,,,,1,0,,
18360001,0785188886,"Deadpool by Daniel Way: The Complete Collection, Volume 3",9780785188889,,,,ES,2014/5/20,Marvel,eng,false,1,18360001,1070,2557,606,49,2014/4/22,"Deadpool, by Daniel Way: The Complete Collection, Volume 3",book,263,234,94,9,6,4.22,448,Paperback,Complete Collection,606,49,,,,,,,294,14,13,"adult,adventure,aliens,comedy,comics,crime,dark,fantasy,fiction,graphic-novels,graphic-novels-comics,humor,marvel,science-fiction,speculative-fiction,superheroes"
18360501,SandiMccor,Life Through My Eyes by Sandi McCormick-Scott,,,,,ES,2012/10/30,,eng,false,1,18360501,2,0,0,0,2012/10/30,,book,0,0,0,0,0,0.00,592,Paperback,First,0,0,Charis Applegren,,,,,,2,0,,
18361001,,"Književnost - Liturgija - Katolička akcija - Sabrana djela, svezak 1.",,,,,ES,2011/1/1, Postulatura za kanonizaciju bl. Ivana Merza,,false,1,18361001,1,0,0,0,2011/1/1,,book,0,0,0,0,0,0.00,480,Hardcover,,0,0,Ivan Merz,,,Božidar Nagy,,,1,0,,
18361501,,World of Mirrors,9781613090732,,,,ES,2012/6/1,Wings ePress,eng,true,2,15994842,3,8,2,1,2012/6/1,,book,0,2,0,0,0,4.00,,Kindle Edition,,1,0,Judith Copek,,,,,,1,0,,
18362001,148192530X,Pirate Journey,9781481925303,,,,ES,2013/1/25,CreateSpace Independent Publishing Platform,eng,false,2,18362001,5,20,4,0,2013/1/24,,book,4,0,0,0,0,5.00,164,Paperback,,4,0,Philip  Anderson,,,,,,1,0,,
18363001,8485733754,Flor de Loto,9788485733750,,,,ES,1987/1/1,La Cúpula,spa,false,2,18363001,5,0,0,0,1986/1/1,La Fleur du Lotus d'aprés Jin Ping Mei. Les 110 pilules 2éme partie,book,0,0,0,0,0,0.00,49,Paperback,1st edition Colección X [7],0,0,Georges Pichard,,,,,,2,0,,
18363501,033025443x,Winged Warfare,,,,,ES,1978/1/1,Pan Books,eng,false,36,19238312,376,697,177,16,1918/1/1,,book,56,69,38,13,1,3.94,281,Paperback,,3,0,William A. Bishop,,,,,,61,1,71,"autobiography,biography,history,leadership,memoir,non-fiction,thriller,war"
18364001,,Van bewegen naar bewogenheid.,9789088502705,,,,ES,2011/1/1,Uitgevery SWP/Humanistics University Press,nl,false,1,18364001,2,3,1,0,2011/1/1,,book,0,0,1,0,0,3.00,59,Paperback,,1,0,Andries Baart,,,,,,,0,,philosophy
18364501,,Company Man: Thirty Years of Controversy and Crisis in the CIA,,B00BSB2AQW,,,ES,2014/1/7,Scribner,,true,14,17571659,2293,1834,497,41,2014/1/1,,book,97,207,142,44,7,3.69,320,Kindle Edition,,97,4,John Rizzo,,,,,,1357,13,76,"americana,autobiography,biography,contemporary,history,memoir,non-fiction,politics"
18365001,187869331X,The Secret of Maturity,9781878693310,,,,ES,2012/11/14,FitzMaurice Publishers,eng,true,4,20456494,41,38,9,2,2012/11/13,,book,5,1,3,0,0,4.22,248,ebook,Third Edition,0,0,Kevin FitzMaurice,,,,,,22,0,7,non-fiction
18365501,,"Taking Two Entire Teams (An Entire Team, #3)",,B00EK8KCZ6,,,ES,2013/8/15,Darkest Secrets Publishing,en-US,true,2,18365501,5,2,1,0,2013/8/15,,book,0,0,0,1,0,2.00,26,Kindle Edition,,1,0,Eliza DeGaulle,,,,,,3,0,,
18366001,,Ostinato Rigore,9789723716672,,,,ES,2013/2/1,Assírio & Alvim,por,false,2,18366001,38,95,23,4,1964/1/1,Ostinato Rigore,book,8,10,5,0,0,4.13,54,,,22,4,Eugénio de Andrade,,,,,,8,2,,poetry
18367001,,Ben Ok'im - Sen Ok'sin,9786054054749,,,,ES,2012/4/1,Okuyanus,tur,false,72,134353,26028,55713,14959,360,1967/1/1,I'm OK-You're OK,book,4117,4665,4466,1359,352,3.72,321,Paperback,,28,3,Thomas A. Harris,,,,,,8997,24,727,"american,business,classics,health,inspirational,mental-health,non-fiction,parenting,personal-development,philosophy,psychology,reference,relationships,science,self-help,social"
18367501,,Easy and Delicious Fudge: Traditional and Specialty Fudge Recipes,,B00AHFWPFQ,,,ES,2012/12/1,,en-US,true,1,18367501,143,134,36,2,2012/12/1,,book,8,16,8,2,2,3.72,,Kindle Edition,,36,2,Kathy E. Gary,,,,,,75,1,8,"amazon,cookbooks,cooking,food,non-fiction"
18368001,8371689551,Pozornie niewinne i bezpieczne,,,,,ES,2006/1/1,Edycja Świętego Pawła,pol,false,1,18368001,1,1,1,0,2006/1/1,,book,0,0,0,0,1,1.00,124,Paperback,,1,0,Maria Wolan,,,,,,,0,,
18368501,,Cinco canciones de cuna,9788493821036,,,,ES,2013/1/1,Aristas Martínez,spa,false,1,18368501,18,48,11,1,2013/1/1,,book,4,7,0,0,0,4.36,216,Paperback,,11,1,Francisco Jota-Pérez,,,,,,6,0,,
18369001,9500419726,Venganza de Mujer,,,,,ES,1999/3/1,Emecé,spa,false,1,18369001,1,5,1,0,1999/3/1,,book,1,0,0,0,0,5.00,317,Paperback,,1,0,Sandrine de Montmort,,,,,,,0,,
18369501,0751551074,West End Girls,9780751551075,,,,ES,2013/8/1,Sphere ,en-GB,false,12,1197928,3933,5594,1643,113,2006/7/1,West End Girls,book,258,500,589,241,55,3.40,306,Paperback,,186,23,Jenny Colgan,,,,,,1755,26,35,"adult,adult-fiction,chick-lit,comedy,contemporary,fiction,modern,novels,romance"
18370001,,"Like a Fox (Ridgeville, #8)",,B00F9HQS78,,,ES,2013/9/16,Summerhouse Publishing,eng,true,4,18370001,3011,7050,1848,88,2013/9/16,,book,585,567,502,157,37,3.81,,Kindle Edition,,1827,87,Celia Kyle,,,,,,728,26,51,"adult-fiction,contemporary,erotica,family,fantasy,fiction,funny,love,novella,paranormal,romance,shapeshifters,short-stories,supernatural,urban-fantasy"
18370501,,Prangmere Mess,,,,,ES,1945/1/1,Methuen,,false,1,18370501,0,0,0,0,1945/1/1,,book,0,0,0,0,0,0.00,100,,,0,0,Anthony Armstrong,,,,,,,0,,
18371001,1462513336,The Positive Side of Negative Emotions,9781462513338,,,,ES,2014/1/27,The Guilford Press,,false,3,18371001,40,31,7,1,2014/1/16,,,4,2,1,0,0,4.43,304,Hardcover,,6,1,,,,W. Gerrod Parrott,,,28,3,1,
18371501,8415784406,The Box of Holes,9788415784401,,,,ES,2014/4/15,Cuento de Luz,,false,1,18371501,9,21,6,3,2014/4/8,,,1,1,4,0,0,3.50,40,Hardcover,,6,3,Carmen Gil,,,,,,3,2,,picture-books
18372501,,"Für immer, Dein Dad",9783644201019,,,,ES,2009/10/5,Rowohlt,ger,true,22,3170577,3621,6562,1866,249,2008/1/1,By the Time You Read This,book,377,568,622,240,59,3.52,336,Kindle Edition,,2,0,Lola Jaye,,,,,,1226,30,50,"adult,adult-fiction,chick-lit,contemporary,drama,fiction,humor,inspirational,novels,romance,young-adult"
18373001,9770714135,قلب الإخوان: محاكم تفتيش الجماعة,,,,,ES,2010/1/1,دار الهلال,ara,false,5,13133034,3376,3505,979,146,2010/1/1,قلب الإخوان: محاكم تفتيش الجماعة,book,234,311,273,111,50,3.58,201,Paperback,,10,2,ثروت الخرباوي,,,,,,2033,4,121,"biography,history,non-fiction,politics"
18373501,,Müüdita,,,,,ES,1977/1/1,Eesti Raamat,est,false,1,18373501,3,5,1,0,1977/1/1,,book,1,0,0,0,0,5.00,71,Hardcover,,1,0,Leelo Tungal,Aarne Mesikäpp,,,,,1,0,,
18374001,,Światło mieszane w praktyce. Profesjonalne techniki w fotografii ślubnej i portretowej,9788375791600,,,,ES,2011/1/1,Galaktyka Sp. z o.o.,pol,false,4,2567333,61,98,26,1,2008/1/1,Existing Light Techniques for Wedding and Portrait Photography,book,7,8,9,2,0,3.77,127,Paperback,,1,1,Bill Hurter,,,,Paweł M. Kazimierczak,,26,1,1,
18374501,,A Arte de Não Amargar a Vida,9789896870591,,,,ES,2012/6/1,Pergaminho,por,false,30,12928123,2063,4363,1147,90,2011/9/6,El arte de no amargarse la vida,book,320,444,258,88,37,3.80,236,Paperback,,22,3,Rafael Santandreu,,,,Isabel Haber,,579,10,155,"adult,health,non-fiction,psychology,self-help"
18375001,,Your Happily Ever After,,,,,ES,2012/5/25,Deseret Book Company,,true,3,11874578,3711,9958,2133,257,2011/7/5,,book,1640,346,102,23,22,4.67,,Kindle Edition,,1,1,Dieter F. Uchtdorf,,,,,,1191,19,123,"adult,christian,essays,fairy-tales,faith,inspirational,non-fiction,religion,self-help,short-stories,young-adult"
18375501,,Fate's Fables (Fate's Journey #1),,,,,ES,2013/8/26,Original Mix Media Inc.,eng,true,16,33006224,4282,1547,377,90,2013/1/25,Fate's Fables,book,167,122,58,20,10,4.10,492,Kindle Edition,2nd Edition,6,3,T. Rae Mitchell,,,,,,2748,18,687,"adventure,collections,fairy-tales,fantasy,fiction,magic,romance,urban-fantasy,young-adult"
18376001,,"On Solid Ground (In Too Deep, #2)",9781783012626,,,,ES,2013/11/14,Michelle Kemper Brownlow,eng,true,4,19136447,839,772,180,52,2013/11/14,,book,98,53,17,7,5,4.29,353,ebook,,51,24,Michelle Kemper Brownlow,,,,,,609,10,8,"abuse,contemporary,music,new-adult,realistic-fiction,romance"
18376501,8831764667,La vedova scaltra,9788831764667,,,,ES,2004/1/1,Marsilio,ita,false,1,18376501,34,62,18,1,1748/1/1,La vedova scaltra,book,2,6,9,0,1,3.44,356,Paperback,Letteratura universale Marsilio,14,1,Carlo Goldoni,,,,,,8,0,,"classics,plays"
18377001,,Zázračné rozprávky,9788089250059,,,,ES,2009/1/1,Edition Ryba,slo,false,1,18377001,11,21,5,0,2009/1/1,Zázračné rozprávky,book,2,2,1,0,0,4.20,120,Hardcover,,5,0,Branislav Jobus,Igor Derevenec,,,,,5,0,,"comedy,fiction"
18377501,,Investasi Secara Benar: MENGUNGKAP RAHASIA FOREX (Investasi Secara Benar),9786020219103,,,,ES,2013/8/28,Elex Media Komputindo,ind,false,1,18377501,92,44,11,4,2013/8/28,,book,6,2,1,1,1,4.00,512,Paperback,,11,4,Frento T. Suharto,,,,,,65,0,5,
18378001,0393348776,Archangel,9780393348774,,,,ES,2014/7/7,W. W. Norton  Company,eng,false,6,18378001,2101,2299,620,145,2013/1/1,Archangel,book,121,265,178,44,12,3.71,256,Paperback,,205,51,Andrea Barrett,,,,,,1297,18,33,"american,contemporary,fiction,historical-fiction,history,literary-fiction,nature,science,short-stories"
18378501,0745656641,Feminism Confronts Technology,9780745656649,,,,ES,2013/7/18,Polity Press,,true,9,638918,160,154,37,2,1991/1/1,Feminism Confronts Technology,book,14,15,8,0,0,4.16,196,ebook,,0,0,Judy Wajcman,,,,,,100,2,4,"academic,feminism,non-fiction,school,science,sociology,technology"
18379001,0857144596,A Private Sorrow,9780857144591,,,,ES,2013/11/1,Story Sound,,false,7,21290815,61,142,39,1,2011/1/1,,,11,8,15,5,0,3.64,,Audio Cassette,,0,0,Maureen Reynolds,,,,,,16,0,2,
18379501,1118647092,A Companion to T. S. Eliot,9781118647097,,,,ES,2014/2/3,Wiley-Blackwell,,false,8,6017791,11,14,4,2,2009/6/22,A Companion to Ts Eliot,book,0,2,2,0,0,3.50,504,Paperback,,1,1,,,,David E. Chinitz,,,3,2,1,
18380001,1134113269,"Socially Restorative Urbanism: The Theory, Process and Practice of Experiemics",9781134113262,,,,ES,2013/8/22,Routledge,,true,7,18563130,1,0,0,0,2013/1/1,,,0,0,0,0,0,0.00,246,ebook,,0,0,"Alice Mathers,Ian Simkins,Kevin Thwaites",,,,,,1,0,,
18380501,1135961859,"Technology and Organization (Rle: Organizations): Power, Meaning and Deisgn",9781135961855,,,,ES,2013/8/21,Routledge,,true,3,18549724,2,0,0,0,1992/1/1,,,0,0,0,0,0,0.00,196,ebook,,0,0,"Harry Scarbrough,J Martin Corbett",,,,,,2,0,,
18381001,1285444582,Process Technology: Equipment and Systems,9781285444581,,,,ES,2014/4/16,Cengage Learning,,false,7,15015683,48,41,10,0,2006/8/1,,,6,2,0,1,1,4.10,526,Paperback,,1,0,Charles E. Thomas,,,,,,24,0,1,
18381501,1426779933,Vacation Bible School (Vbs) 2014 Praise Break Older Elementary Bible Leader (Grades 4-6): Celebrating the Works of God!,9781426779930,,,,ES,2014/1/21,Abingdon Press,,false,3,18381501,1,5,1,0,2014/1/21,,,1,0,0,0,0,5.00,,Paperback,,1,0,,,,,,,,0,,
18382001,1448894956,Fishing the Flats,9781448894956,,,,ES,2013/7/15,Rosen Digital,,true,5,17862032,2,0,0,0,2013/1/1,,,0,0,0,0,0,0.00,64,ebook,,0,0,Kristi Lew,,,,,,1,0,,
18382501,1464405093,Be Smart about Shopping: The Critical Consumer and Civic Financial Responsibility,9781464405099,,,,ES,2014/1/1,Enslow Publishers,,false,4,18226343,4,4,2,0,2014/1/1,,,0,0,0,2,0,2.00,48,Paperback,,0,0,Kathiann M. Kowalski,,,,,,2,0,,non-fiction
18383001,1481805533,The Pumpkin Fairy Princess,9781481805537,,,,ES,2013/8/22,Createspace Independent Publishing Platform,,false,1,18383001,0,0,0,0,2013/8/22,,,0,0,0,0,0,0.00,24,Paperback,,0,0,Ansumana Morning,,,,,,,0,,
18383501,1603743243,How to Walk in the Supernatural Power of God,9781603743242,,,,ES,2010/10/26,Whitaker Distribution,,true,7,10807405,1655,996,223,12,2010/10/26,,,151,43,18,4,7,4.47,256,ebook,,0,0,Guillermo Maldonado,,,,,,1177,2,99,supernatural
18384001,1624032125,Mountaineering (Xtreme Adventure),9781624032127,,,,ES,2014/1/1,ABDO & Daughters,,false,3,18384001,1,3,1,0,2014/1/1,,book,0,0,1,0,0,3.00,32,Hardcover,,1,0,Sue L. Hamilton,,,,,,1,0,,
18384501,192212012X,Art from Adversity: A Life with Bipolar,9781922120120,,,,ES,2013/4/1,Glass House,,true,3,17296146,12,19,4,3,2012/12/11,,book,3,1,0,0,0,4.75,208,ebook,,0,0,Anne Therese Naylor,,,,,,6,0,,
18385001,3642218768,Models of Computation in Context,9783642218767,,,,ES,2011/9/20,Springer,,false,3,18992479,0,0,0,0,2011/1/1,,,0,0,0,0,0,0.00,336,Paperback,,0,0,,,Benedikt Löwe,,,,,0,,
18385501,3956103270,Blucher,9783956103278,,,,ES,2013/7/11,Vero Verlag,,false,5,18385501,2,0,0,0,2012/8/15,,,0,0,0,0,0,0.00,428,Paperback,,0,0,Wolfgang Von Unger,,,,,,1,0,,
18386001,,L'errore,9788864291314,,,,ES,2013/1/1,Il maestrale,ita,false,1,18386001,2,6,2,0,2013/1/1,,book,0,0,2,0,0,3.00,224,Paperback,,2,0,Gianni Marilotti,,,,,,,0,,
18386501,,"I Wish, Wish, Wish You Were Dead, Dead, Dead",,,,,ES,2013/8/22,,eng,true,2,18386501,6,22,5,2,2013/8/19,,book,2,3,0,0,0,4.40,214,Kindle Edition,,3,2,Rol Hirst,,,,,,1,0,,
18387001,0985524189,Broken: A Pastor's Wife Shares Her Story,9780985524180,,,,ES,2013/8/25,Olive Press Publisher,,false,2,18387001,15,43,10,4,2013/8/25,,book,6,3,0,0,1,4.30,328,Paperback,,7,4,Carol DuPré,,,,,,5,0,,
18387501,1462688292,Big Sister,9781462688296,,,,ES,2013/8/13,America Star Books,,false,1,18387501,0,0,0,0,2013/8/13,,,0,0,0,0,0,0.00,28,Paperback,,0,0,Arnetta L Lane,,,,,,,0,,
18388001,1484917332,The Orphan of God: A Memoir,9781484917336,,,,ES,2013/8/21,Createspace,,false,1,18388001,12,41,9,2,2013/8/21,,,5,4,0,0,0,4.56,242,Paperback,,9,2,Pip Gordon,,,,,,2,0,,religion
18388501,1492211044,Flamechild: A Children of the Vortex Anthology,9781492211044,,,,ES,2013/8/21,Createspace Independent Publishing Platform,,false,1,18388501,0,0,0,0,2013/8/21,,book,0,0,0,0,0,0.00,304,Paperback,,0,0,"Deleyan Lee,June Dal,Lynn Reeves",,,,,,,0,,
18389001,1783750677,Sinners and Shadows,9781783750672,,,,ES,2013/8/29,Accent Press (UK),,false,12,18189825,137,338,80,3,2004/11/1,Sinners and Shadows,book,41,22,12,4,1,4.22,754,Paperback,,0,0,Catrin Collier,,,Greg Rees,,,36,3,5,historical
18389501,3732603865,Gesetz Betreffend Die Industriekreditbank Aktiengesellschaft,9783732603862,,,,ES,2013/4/29,Outlook Verlag,,false,1,18389501,0,0,0,0,2013/4/29,,,0,0,0,0,0,0.00,8,Paperback,,0,0,Ohne Autor,,,,,,,0,,
18390001,3956102630,Alpenflora,9783956102639,,,,ES,2013/6/6,Vero Verlag,,false,5,18390001,0,0,0,0,2011/9/14,,,0,0,0,0,0,0.00,152,Paperback,,0,0,Gustav Hegi,,,,,,,0,,
18390501,5518483104,The New Egg Farm,9785518483101,,,,ES,2013/3/10,Book on Demand Ltd.,,false,3,18390501,0,0,0,0,2013/3/10,,,0,0,0,0,0,0.00,358,Paperback,,0,0,H. Hudson Stoddard,,,,,,,0,,
18391001,5518488467,Explorations of the Baum Prehistoric Village Site,9785518488465,,,,ES,2013/4/14,Book on Demand Ltd.,,false,3,18391001,1,5,1,0,2013/4/14,,,1,0,0,0,0,5.00,102,Paperback,,1,0,William Corless Mills,,,,,,,0,,
18391501,5518495579,Sewer Gas and Its Influence Upon Health,9785518495579,,,,ES,2013/5/11,Book on Demand Ltd.,,false,8,26662020,0,0,0,0,2013/5/11,,,0,0,0,0,0,0.00,246,Paperback,,0,0,Herman Alfred Roechling,,,,,,,0,,
18392001,,Obra poética completa,,,,,ES,2007/1/1,Ediciones Hiperión,spa,false,24,333310,764,1467,378,22,1961/1/1,Collected Poems in English and French,book,120,131,93,30,4,3.88,313,Paperback,,2,0,Samuel Beckett,,,,,,263,5,14,"classics,english-literature,france,non-fiction,plays,poetry,reference"
18392501,,Hot Coffee,,,,,ES,,,eng,false,2,18392501,1,3,1,0,2013/7/7,,book,0,0,1,0,0,3.00,,,,1,0,Teri Rose,,,,,,,0,,
18393001,8290059124,Frihetens Filosofi,,,,,ES,1978/1/1,Forlaget Antropos,nor,false,1,18393001,4,8,2,0,1978/1/1,Die Philosophie der Freiheit - Grundzüge einer modernen Weltanschauung,book,1,0,1,0,0,4.00,,Hardcover,,2,0,Rudolf Steiner,,,,,,2,0,,
18393501,9739217192,Gaudeamus,9789739217194,,,,ES,2000/1/1,Garamond,rum,false,5,1010714,424,911,233,6,1928/1/1,Gaudeamus,book,74,86,54,16,3,3.91,181,Paperback,,7,1,Mircea Eliade,,,,,,140,2,3,"autobiography,classics,novels"
18394001,,A arte de beber (assim falava Baco),,,,,ES,1967/1/1,Companhia Editora Nacional,por,false,1,18394001,1,0,0,0,1967/1/1,,book,0,0,0,0,0,0.00,208,,,0,0,Marcelino de Carvalho,,,,,,,0,,
18394501,8423945758,"Enciclopedia Universal Ilustrada Europeo Americana, Tomo V (Apéndice)",,,,,ES,1988/1/1,Espasa Calpe,spa,false,1,18394501,1,0,0,0,1988/1/1,,book,0,0,0,0,0,0.00,1603,Hardcover,,0,0,Espasa-Calpe,,,,,,,0,,
18395001,0099559145,Straight Flush,9780099559146,,,,ES,,,,false,13,16065670,2520,4915,1375,148,2013/5/28,,book,247,507,442,147,32,3.57,304,Paperback,,12,1,Ben Mezrich,,,,,,599,19,47,"adult,autobiography,biography,business,fiction,history,humor,non-fiction,novels,true-crime"
18395501,,Aktor,9788308044032,,,,ES,2009/1/1,Wydawnictwo Literackie,pol,false,1,18395501,4,6,2,1,2009/1/1,,book,0,0,2,0,0,3.00,244,Hardcover,,2,1,"Michał Komar,Wojciech Pszoniak",,,,,,1,0,,
18396001,,Billy Budd,,,,,ES,2011/1/1,Yapı Kredi Yayınları,,false,229,15613,21744,41964,13512,806,1924/1/1,"Billy Budd, Sailor",book,1842,3356,4272,2472,1570,3.11,164,,,0,0,Herman Melville,,,,,,5341,152,243,"adult,adult-fiction,adventure,american,americana,classic-literature,classics,college,fiction,gay,high-school,historical,historical-fiction,history,lgbt,literary-fiction,literature,novella,novels,queer,school,short-stories"
18396501,,Cozinha tradicional da ilha de São Miguel,,,,,ES,,Angra do heroismo,por,false,1,18396501,1,0,0,0,,,book,0,0,0,0,0,0.00,294,Paperback,,0,0,Augusto Gomes,,,,,,,0,,
18397001,,Disability Studies,9789044125429,,,,ES,2009/1/1,Garant,nl,false,1,18397001,3,6,2,0,2009/1/1,,book,0,1,0,1,0,3.00,365,Paperback,,2,0,Geert Van Hove,,,,,,1,0,,
18397501,,"MAD SEX (The Further Sexual Adventures of Alonzo Letchworth, Businessman and Moron)",,B00ACOJQMC,,,ES,,,eng,true,1,18397501,1,0,0,0,2013/11/26,,book,0,0,0,0,0,0.00,,,,0,0,James    Black,,,,,,,0,,
18398001,,There are Tyrannosaurs Trying on Pants in My Bedroom (Little Golden Book),,,,,ES,1991/1/1,"Western Publishing Company, Inc.",eng,false,1,18398001,6,2,1,0,1991/1/1,,book,0,0,0,1,0,2.00,25,Hardcover,,1,0,Jim Heartney,,,,,,1,0,,
18398501,,Holocaust F,,,,,ES,2103/8/30,Powergraph,pol,false,3,18428829,145,272,72,6,2013/8/30,Holocaust F,book,18,27,21,5,1,3.78,304,Hardcover,,1,0,Cezary Zbierzchowski,,,,,,63,0,5,science-fiction
18399001,,To Ornament Their Minds: Sarah Pierce's Litchfield Female Academy 1792-1833,,,,,ES,1993/1/1,,,false,1,18399001,5,4,1,0,1993/1/1,,book,0,1,0,0,0,4.00,132,Paperback,,1,0,The Litchfield Historical Society,,,,,,3,0,,non-fiction
18399501,,"The Postman (Kitten's Fantasies, #1)",,B008AQ55BU,,,ES,2013/6/11,Irish Wolf Publishing,en-US,true,3,15701666,28,32,9,4,2012/6/11,,book,2,3,2,2,0,3.56,21,Kindle Edition,,2,1,Bonnie Bliss,,,,,,11,0,,"bdsm,contemporary,fantasy"
18400001,0739430114,Blood Orchid,,,,,ES,,,en-US,false,20,465736,13644,37575,9330,209,2002/10/14,Blood Orchid,book,3196,3611,2171,286,66,4.03,,Hardcover,,0,0,Stuart Woods,,,,,,1906,19,199,"action,adult-fiction,adventure,contemporary,crime,detective,fiction,murder-mystery,mystery,mystery-thriller,romance,suspense,thriller"
18400501,,البديل الإسلامى هل له بديل ؟,,,,,ES,2012/8/30,,ara,true,1,18400501,9,0,0,0,2012/8/30,,book,0,0,0,0,0,0.00,12,ebook,,0,0,رفيق حبيب,,,,,,9,0,,
18401001,,The Timeless Christian,,,,,ES,1969/10/16,,eng,false,2,4784295,27,14,4,0,1969/10/16,The Timeless Christian,,1,2,0,0,1,3.50,220,Hardcover,,0,0,Erik von Kuehnelt-Leddihn,,,,,,21,0,,"history,philosophy,politics,religion"
18401501,,Chasing Second Chances,,,,,ES,2013/8/6,Blue Ribbon Books,eng,true,2,18299380,70,26,9,1,2013/8/6,,book,1,1,4,2,1,2.89,146,Kindle Edition,,0,0,Shelly Logan,,,,,,51,3,2,"new-adult,romance"
18402001,8575034189,"Situações, I",9788575034187,,,,ES,2005/1/1,Cosac Naify,por,false,8,8730569,100,83,22,2,1947/1/1,"Critiques littéraires (Situations, 1)",book,7,7,6,0,2,3.77,312,Hardcover,1,0,0,Jean-Paul Sartre,,,,,,55,0,,school
18402501,,Technical Analysis of Stock Trends,,,,,ES,,,,false,42,474623,2209,2045,494,24,1948/1/1,Technical Analysis of Stock Trends,book,231,150,79,19,15,4.14,,,,2,0,"John Magee,Robert D. Edwards",,,,,,1408,6,100,"business,economics,non-fiction"
18403001,,Betty and Veronica Double Digest #138,,,,,ES,,,,false,1,18403001,18,30,8,0,,,book,2,2,4,0,0,3.75,,,,8,0,Archie Comics,,,,,,6,1,,"comics,fiction,graphic-novels,humor"
18403501,,The Proverbs 31 Woman: One Virtue At A Time,,,,,ES,2011/1/1,www.womenlivingwell.org,eng,true,1,18403501,190,200,48,11,2011/1/1,,book,29,8,4,4,3,4.17,43,ebook,,48,11,Courtney Joseph,,,,,,124,2,7,"christian,christianity,inspirational,non-fiction,religion"
18404001,,Stuck Rubber Baby,9788393207237,,,,ES,2011/1/1,Fundacja Tranzyt / Centrala,pol,false,16,156703,8032,17975,4477,227,1995/1/1,Stuck Rubber Baby,book,1832,1379,872,289,105,4.01,224,Paperback,,12,0,Howard Cruse,,,,,,1737,29,34,"adult,american,american-history,americana,art,autobiography,biography,comics,family,fiction,gay,graphic-novels,graphic-novels-comics,historical,historical-fiction,history,lgbt,literature,memoir,non-fiction,novels,politics,queer,school"
18404501,9772011808,وصول الآلهة,,,,,ES,1976/1/1,الهيئة المصرية العامة للكتاب,,false,2,18404501,12,12,3,1,1976/1/1,,book,0,3,0,0,0,4.00,236,Paperback,مسرحبات مختارة,1,1,"Antonio Buero Vallejo,بويرو باييخو",,,,,,4,1,,
18405001,3899217527,Parallel 03,9783899217520,,,,ES,2004/12/1,Panini Manga,ger,false,2,2182234,23,38,11,1,2004/1/1,Parallel  ,book,2,3,5,0,1,3.45,200,Paperback,,2,0,Toshihiko Kobayashi,,,,,,6,0,,"drama,manga,romance"
18405501,1617690260,The Cocktail Club: A Year of Recipes and Tips for Spirited Tasting Parties,9781617690266,,,,ES,2014/5/13,Harry N. Abrams,,false,3,18405501,319,88,22,2,2014/1/1,,book,8,6,8,0,0,4.00,176,Hardcover,,17,2,Maureen Christian Petrosky,,,,,,283,1,4,"cookbooks,cooking,food"
18406001,1480448192,Running with the Pack,9781480448193,,,,ES,2013/11/5,Pegasus Books,,true,18,16124502,990,1568,439,68,,Running with the Pack,book,90,149,138,46,16,3.57,256,ebook,,4,3,Mark Rowlands,,,,,,423,12,60,"biography,health,non-fiction,philosophy,short-stories,social,sports,unfinished"
18406501,162639069X,Backstrokes,9781626390690,,,,ES,2014/6/17,Bold Strokes Books,,false,3,18406501,264,91,25,12,2014/6/17,,book,6,7,10,1,1,3.64,264,Paperback,,24,12,Dylan Madrid,,,,,,220,8,,"adult,contemporary,fiction,gay,lgbt,romance,young-adult"
18407001,,The Owl Service,,B00DPZN3AQ,,,ES,2013/8/15,Harper Collins Children's Books,eng,true,49,83829,10335,18591,4986,428,1967/1/1,The Owl Service,book,1438,1607,1274,484,183,3.73,224,Kindle Edition,,194,9,Alan Garner,,,,,,4195,28,156,"adventure,animals,childrens,classics,fairy-tales,fantasy,fiction,historical,horror,juvenile,magic,magical-realism,middle-grade,mystery,mythology,novels,romance,speculative-fiction,supernatural,teen,urban-fantasy,young-adult"
18407501,1283673061,The Quiet Professor,9781283673068,,,,ES,2013/3/5,Harlequin Presents,,true,19,1815865,976,2050,512,35,1992/12/1,The Quiet Professor,book,204,154,114,32,8,4.00,,ebook,,0,0,Betty Neels,,,,,,283,7,36,"adult,contemporary,fiction,harlequin,historical-fiction,romance"
18408001,1283696762,Crafts for Kids Who Are Wild about Reptiles,9781283696760,,,,ES,2014/5/9,Millbrook Press,,true,3,8555801,6,5,1,0,2012/1/1,,,1,0,0,0,0,5.00,52,ebook,,0,0,Kathy Ross,,,,,,3,0,,
18408501,1283723271,One in a Million: A Dad for Her Twins,9781283723275,,,,ES,2014/12/23,Harlequin Special Releases,,true,3,12506604,1739,3495,890,46,2003/1/1,,book,273,337,227,48,5,3.93,,ebook,,1,0,"Susan Mallery,Tanya Michaels",,,,,,517,24,13,"adult,anthologies,chick-lit,contemporary,family,fiction,romance"
18409001,1283729180,"Out of Mind (Court of Angels, #2)",9781283729185,,,,ES,2013/3/6,Mira Books,,true,3,7241251,1044,1502,409,39,2010/1/1,,book,101,141,116,34,17,3.67,,ebook,,0,0,Stella Cameron,,,,,,427,17,6,"adult,angels,fantasy,fiction,mystery,mystery-thriller,paranormal,romance,suspense,urban-fantasy"
18409501,1283996332,Seek My Face,9781283996334,,,,ES,2014/5/10,Random House,,true,29,181858,1510,2543,759,90,2002/1/1,Seek My Face,book,95,241,292,97,34,3.35,,ebook,,0,0,John Updike,,,,,,510,9,38,"adult-fiction,american,art,chick-lit,contemporary,drama,fiction,historical-fiction,literary-fiction,literature,modern,novels,realistic-fiction"
18410001,1299002943,Christ the Lord: Out of Egypt: A Novel,9781299002944,,,,ES,2014/6/13,Fawcett Books,,true,57,25347,21680,46626,13051,1230,2005/11/1,Out of Egypt,book,3197,4119,3479,1472,784,3.57,,ebook,,0,0,Anne Rice,,,,,,5477,26,448,"adult,adult-fiction,biography,christian,christian-fiction,christianity,drama,faith,fantasy,fiction,historical,historical-fiction,history,horror,inspirational,literary-fiction,literature,non-fiction,novels,paranormal,religion,spirituality,supernatural,theology,unfinished"
18410501,1299009921,Reality Hunger,9781299009929,,,,ES,2014/5/10,Vintage Books,,true,14,6712580,5683,7820,2157,382,2010/1/1,,book,542,708,566,239,102,3.63,,ebook,,1,1,David Shields,,,,,,609,30,118,"academic,american,americana,art,biography,contemporary,criticism,essays,fiction,grad-school,literature,memoir,non-fiction,philosophy,poetry,politics,psychology,reference,school,society,sociology,unfinished,writing"
18411001,1299016014,Fourth Hand,9781299016019,,,,ES,2010/1/1,Ballantine Books,,true,84,4656,35651,87649,26523,1071,2001/7/3,The Fourth Hand,book,2792,8098,10981,3702,950,3.30,,ebook,,0,0,John Irving,,,,,,4329,23,268,"adult,adult-fiction,american,classics,contemporary,drama,fiction,humor,literary-fiction,literature,novels,realistic-fiction,romance,unfinished"
18411501,1299022197,Under the Glacier,9781299022195,,,,ES,2014/5/10,Vintage Books,,true,33,14265,4046,6341,1768,197,1968/1/1,Kristnihald undir Jökli,book,356,645,509,196,62,3.59,,ebook,,0,0,Halldór Kiljan Laxness,,,,,,665,17,40,"christianity,classics,drama,fantasy,fiction,historical-fiction,humor,international,literary-fiction,literature,magical-realism,mystery,non-fiction,novels,philosophy,religion"
18412001,1299028098,In the Beginning: A New Interpretation of Genesis,9781299028098,,,,ES,2014/5/9,Ballantine Books,,true,13,27307,1475,2290,588,56,1996/1/1,In the Beginning: A New Interpretation of Genesis,book,173,239,130,33,13,3.89,,ebook,,0,0,Karen Armstrong,,,,,,730,10,31,"christian,christianity,history,non-fiction,philosophy,reference,religion,spirituality,theology"
18412501,1299034128,I Remember Nothing,9781299034129,,,,ES,2014/5/10,Vintage Books,,true,30,8242117,32423,68310,18229,2537,2010/11/9,I Remember Nothing: And Other Reflections,book,4328,6868,5413,1339,281,3.75,,ebook,,4,1,Nora Ephron,,,,,,5743,157,255,"adult,american,autobiography,biography,biography-memoir,chick-lit,comedy,essays,feminism,fiction,funny,humor,memoir,non-fiction,relationships,short-stories,unfinished,writing"
18413001,1299040330,Inconvenient Woman,9781299040335,,,,ES,2014/5/9,Ballantine Books,,true,21,352042,3173,7106,1803,103,1990/1/1,An Inconvenient Woman,book,524,764,421,73,21,3.94,,ebook,,0,0,Dominick Dunne,,,,,,681,14,194,"american,chick-lit,crime,fiction,literature,marriage,mystery,novels,realistic-fiction,romance,true-crime"
18413501,1299046606,Coping with Difficult People,9781299046603,,,,ES,2014/6/13,Dell Publishing Company,,true,1,18413501,0,0,0,0,2012/1/1,,,0,0,0,0,0,0.00,,ebook,,0,0,Robert M Bramson,,,,,,,0,,
18414001,1299058744,Darwin: A Life in Poems,9781299058743,,,,ES,2014/5/10,Knopf Publishing Group,,true,9,6139102,198,365,97,23,2009/2/12,Darwin: A Life in Poems,book,23,34,34,6,0,3.76,,ebook,,0,0,Ruth Padel,,,,,,71,5,5,"biography,family,fiction,history,memoir,nature,non-fiction,poetry,religion,science,travel,victorian"
18414501,1299065716,Throwaway Daughter,9781299065710,,,,ES,2010/1/1,Seal Books,,true,7,588327,943,1799,493,54,2003/4/15,Throwaway Daughter,book,97,193,149,41,13,3.65,,ebook,,0,0,Ting-xing Ye,,,,,,310,9,15,"contemporary,fiction,historical-fiction,inspirational,memoir,middle-grade,non-fiction,realistic-fiction,teen,young-adult"
18415501,1299078958,One Helluva Ride: How NASCAR Swept the Nation,9781299078956,,,,ES,2014/5/10,Villard Books,,true,4,1668696,101,240,59,9,2008/1/1,One Helluva Ride: How Nascar Swept the Nation,,21,23,14,0,1,4.07,,ebook,,0,0,Liz Clarke,,,,,,27,3,1,"business,history,non-fiction,sports"
18416001,1299086098,House of Cards: A Tale of Hubris and Wretched Excess on Wall Street,9781299086098,,,,ES,2014/5/10,Anchor Books,eng,true,17,5881889,10641,24242,6172,249,2009/1/1,House of Cards: A Tale of Hubris and Wretched Excess on Wall Street,book,1968,2314,1467,322,101,3.93,,ebook,,0,0,William D. Cohan,,,,,,4020,13,142,"american-history,business,economics,fiction,historical,history,non-fiction,politics,true-crime"
18416501,1299093248,Weapons of Mass Seduction,9781299093249,,,,ES,2014/5/10,Broadway Books,,true,9,350198,112,220,60,11,2007/1/1,Weapons of Mass Seduction,,10,30,13,4,3,3.67,,ebook,,0,0,Lori Bryant-Woolridge,,,,,,35,4,1,"chick-lit,romance"
18417001,1299099904,Magic Words at Work: Powerful Phrases to Help You Conquer the Working World,9781299099906,,,,ES,2014/5/10,Crown Business,,true,7,1266460,21,22,6,0,2004/1/1,Magic Words at Work: Powerful Phrases to Help You Conquer the Working World,,1,2,3,0,0,3.67,,ebook,,0,0,"Alexandra Penney,Howard Kaminsky",,,,,,11,0,2,"inspirational,self-help"
18417501,1299108172,Platoon Leader: A Memoir of Command in Combat (Revised),9781299108172,,,,ES,2014/5/9,Presidio Press,,true,11,1086140,2685,5881,1428,44,1985/1/1,Platoon Leader: A Memoir of Command in Combat,,566,544,252,53,13,4.12,,ebook,,0,0,James R. McDonough,,,,,,1035,10,43,"american,american-history,biography,dark,history,leadership,memoir,non-fiction,war"
18418001,129911606X,Mulch,9781299116061,,,,ES,2013/2/23,Crimeline,,true,8,667624,357,557,168,18,1994/6/1,Mulch (Gardening Mysteries (Paperback)),book,15,58,68,19,8,3.32,,ebook,,0,0,Ann Ripley,,,,,,137,9,2,"cozy-mystery,fiction,mystery,mystery-thriller"
18418501,1299122914,Last Breath: A Novel of Suspense,9781299122918,,,,ES,2014/5/10,Ballantine Books,,true,16,194944,2130,4536,1175,77,2007/7/31,Last Breath: A Novel of Suspense,book,331,441,331,52,20,3.86,,ebook,,0,0,Mariah Stewart,,,,,,472,15,24,"crime,fiction,mystery,mystery-thriller,romance,suspense,thriller"
18419001,1299129706,Buffalo Bill's America,9781299129702,,,,ES,2007/1/1,Vintage,,true,5,767175,267,375,100,16,2005/10/11,Buffalo Bill's America: William Cody and the Wild West Show,book,25,36,30,7,2,3.75,,ebook,,0,0,Louis S. Warren,,,,,,114,8,15,"american,american-history,biography,business,grad-school,history,mythology,non-fiction"
18419501,1299146112,"It's All Love: Black Writers on Soul Mates, Family and Friends",9781299146112,,,,ES,2014/5/10,Broadway Books,,true,8,4907963,104,169,43,11,2009/1/1,"It's All Love: Black Writers on Soul Mates, Family and Friends",book,15,16,7,4,1,3.93,,ebook,,0,0,Marita Golden,,,,,,49,2,3,"biography,biography-memoir,family,fiction,non-fiction,poetry,relationships"
18420001,129916322X,The Essential Crazy Wisdom,9781299163225,,,,ES,2013/2/23,Ten Speed Press,,true,2,19389633,39,73,18,2,2012/1/1,,,8,4,5,1,0,4.06,,ebook,,0,0,Wes Nisker,,,,,,10,0,9,
18420501,1299170897,"The Alpine Obituary (Emma Lord, #15)",9781299170896,,,,ES,2014/5/10,Ballantine Books,,true,5,553559,835,1602,418,12,2002/8/27,The Alpine Obituary,book,106,152,147,10,3,3.83,,ebook,,0,0,Mary Daheim,,,,,,234,14,11,"adult,adult-fiction,cozy-mystery,fiction,mystery,mystery-thriller"
18421001,1299179460,Feels Like Home,9781299179462,,,,ES,2014/6/13,Laurel Leaf Library,,true,6,963372,528,682,190,28,2007/4/10,Feels Like Home,book,49,60,48,20,13,3.59,,ebook,,0,0,E.E. Charlton-Trujillo,,,,,,270,10,6,"adult-fiction,christmas,contemporary,death,fiction,realistic-fiction,romance,young-adult"
18421501,1299205658,Absolute War,9781299205659,,,,ES,2008/1/1,Vintage,,true,12,550529,2522,2627,641,50,2007/11/1,Absolute War: Soviet Russia in the Second World War,book,244,260,103,24,10,4.10,,ebook,,2,0,Christopher Bellamy,,,,,,1695,14,76,"historical,history,non-fiction,politics,war"
18422001,129921150X,L.A. Requiem,9781299211506,,,,ES,2014/5/10,Ballantine Books,,true,43,297186,22399,70008,16417,590,1999/6/1,L.A. Requiem,book,7261,6731,2040,274,111,4.26,,ebook,,1,0,Robert Crais,,,,,,2749,21,811,"action,adult,adult-fiction,adventure,american,contemporary,crime,dark,detective,fiction,mystery,mystery-thriller,suspense,thriller"
18422501,1299218253,Under and Alone: The True Story of the Undercover Agent Who Infiltrated America's Most Violent Outlaw Motorcycle Gang,9781299218253,,,,ES,2014/5/10,Random House,,true,15,104522,6266,15796,3841,357,2005/1/1,Under and Alone: The True Story of the Undercover Agent Who Infiltrated America's Most Violent Outlaw Motorcycle Gang,,1406,1590,735,91,19,4.11,,ebook,,0,0,William Queen,,,,,,1734,10,108,"adult,autobiography,biography,biography-memoir,crime,drama,history,memoir,non-fiction,research,true-crime"
18423001,129923089X,Numerology for Baby Names: Use the Ancient Art of Numerology to Give Your Baby a Head Start in Life,9781299230897,,,,ES,2013/2/28,Dell Publishing Company,,true,3,2911875,4,5,1,0,1998/8/10,Numerology for Baby Names: Use the Ancient Art of Numerology to Give Your Baby a Head Start in Life,,1,0,0,0,0,5.00,,ebook,,0,0,Phyllis Vega,,,,,,2,0,1,
18423501,1299238033,"How to Be Happy, Dammit: A Cynic's Guide to Spiritual Happiness",9781299238039,,,,ES,2013/2/28,Celestial Arts,,true,4,690400,2330,3265,806,82,2001/7/31,"How To Be Happy, Dammit: A Cynic's Guide to Spiritual Happiness",book,331,265,146,48,16,4.05,,ebook,,1,0,Karen Salmansohn,,,,,,1291,17,34,"art,funny,health,humor,inspirational,mental-health,non-fiction,personal-development,philosophy,psychology,self-help,spirituality,unfinished"
18424001,1299249558,Lidia Cooks from the Heart of Italy: A Feast of 175 Regional Recipes,9781299249554,,,,ES,2014/5/9,Knopf Publishing Group,,true,5,8620258,961,1904,453,24,2009/1/1,,book,221,141,65,14,12,4.20,,ebook,,0,0,"Lidia Matticchio Bastianich,Tanya Bastianich Manuali",,,,,,365,9,9,"adult,cookbooks,cooking,cultural,food,history,non-fiction,reference,travel"
18424501,129925831X,Night Fires,9781299258310,,,,ES,2014/5/10,Dell Publishing Company,,true,9,1290608,311,339,100,10,2003/12/2,Night Fires,book,18,26,36,17,3,3.39,,ebook,,0,0,Karen Harbaugh,,,,,,130,15,1,"fantasy,historical,historical-fiction,horror,novels,paranormal,romance,supernatural,vampires"
18425001,1299291953,Sheikh's Betrayal,9781299291959,,,,ES,2013/5/15,Silhouette Desire,,true,13,6648867,159,189,59,5,2009/1/1,Sheikh's Betrayal,book,8,14,24,8,5,3.20,,ebook,,0,0,Alexandra Sellers,,,,,,75,3,2,"fiction,harlequin,new-adult,romance"
18425501,1299297668,"Entangled (Dynasties: the Ashtons, #1)",9781299297661,,,,ES,2013/5/15,Silhouette Desire,,true,8,602125,243,276,80,6,2005/1/1,Entangled ,book,12,21,38,9,0,3.45,,ebook,,0,0,Eileen Wilks,,,,,,121,7,6,"contemporary,harlequin,love,romance,urban-fantasy"
18426001,1299342175,Building a Family,9781299342170,,,,ES,2013/3/16,Steeple Hill,,true,9,11982593,225,268,69,14,2011/1/1,Building a Family,book,21,27,15,4,2,3.88,,ebook,,0,0,Lyn Cote,,,,,,131,6,4,"adult,christian-fiction,fiction,romance"
18426501,1299467687,Good Hair: For Colored Girls Who've Considered Weaves When the Chemicals Became Too Ruff,9781299467682,,,,ES,2014/4/8,Three Rivers Press (CA),,true,5,200661,153,302,79,5,1992/3/1,Good Hair: For Colored Girls Who've Considered Weaves When the Chemicals Became Too Ruff,,20,29,26,4,0,3.82,,ebook,,0,0,Lonnice Brittenum Bonner,,,,,,44,2,1,"humor,non-fiction,self-help,social-issues"
18427001,1299808018,Richard III Quiz Book: 100 Questions on the Controversial King,9781299808010,,,,ES,2014/6/13,Apex Publishing,,true,1,18427001,0,0,0,0,2013/1/1,,,0,0,0,0,0,0.00,34,ebook,,0,0,Nigel Freestone,,,,,,,0,,
18427501,,Моё прекрасное алиби,,,,,ES,,,rus,false,2,17331825,63,133,32,0,,,book,17,7,6,0,2,4.16,,,,4,0,"Chingiz Abdullayev,Чингиз Абдуллаев",,,,,,17,0,1,crime
18428001,,Loving the Earl,,B00CQZ65N8,,,ES,2013/11/11,Loveswept,eng,true,6,17910727,555,868,220,69,2013/1/1,,book,68,86,57,4,5,3.95,,Kindle Edition,,50,3,Sharon Cullen,,,,,,199,13,9,"adult,historical,historical-fiction,history,regency,romance"
18428501,0988893061,Carquinez Straits,9780988893061,,,,ES,2013/7/4,"Patriot Media, Incorporated",,false,2,18428501,1,4,1,0,2013/7/4,,,0,1,0,0,0,4.00,178,Paperback,,1,0,Roger Chaney,,,,,,,0,,
18429001,852542059X,Perversas famílias,9788525420596,,,,ES,2010/1/1,L&PM,por,false,1,18429001,6,4,1,0,2010/1/1,,book,0,1,0,0,0,4.00,328,,,1,0,Luiz Antonio de Assis Brasil,,,,,,3,0,,
18429501,1490707476,Eight Keys to Progressive Spiritual Development,9781490707471,,,,ES,2013/8/28,Trafford Publishing,,false,3,18429501,0,0,0,0,2013/8/28,,,0,0,0,0,0,0.00,190,Paperback,,0,0,Darius M John,,,,,,,0,,
18430001,1492246050,Atomic Quantum Spin: A New Theory of Communication,9781492246053,,,,ES,2013/8/24,Createspace,,false,1,18430001,1,3,1,0,2013/8/24,,,0,0,1,0,0,3.00,50,Paperback,,1,0,J Kinsley,,,,,,,0,,
18430501,1628846739,Diet Diary & Workout and Fitness Planner,9781628846737,,,,ES,2013/8/5,Weight a Bit,,false,1,18430501,1,5,1,0,2013/8/5,,,1,0,0,0,0,5.00,50,Paperback,,1,0,Samantha Michaels,,,,,,,0,,
18431001,,Nameless Builders of the Transcontinental Railroad,,,,,ES,,,,false,2,18431001,3,0,0,0,,,book,0,0,0,0,0,0.00,,,,0,0,William F. Chew,,,,,,3,1,,
18432001,0547861249,Houghton Mifflin Harcourt: On Core Parent Bundle Algebra 2,9780547861241,,,,ES,2011/10/6,Houghton Mifflin,,false,1,18432001,0,0,0,0,2011/10/6,,,0,0,0,0,0,0.00,,Hardcover,,0,0,,,,,,,,0,,
18432501,0985083700,Dear Jack,9780985083700,,,,ES,2013/8/15,Black Radish Books,,false,1,18432501,3,15,3,0,2014/3/8,,book,3,0,0,0,0,5.00,80,Paperback,,3,0,Jill Stengel,,,,,,,0,,
18433001,1299060846,Captive Queen: A Novel of Eleanor of Aquitaine,9781299060845,,,,ES,2014/5/10,Ballantine Books,,true,33,7076074,18000,27048,7272,715,2010/4/1,Captive Queen: A Novel of Eleanor of Aquitaine,book,1950,2553,1861,595,313,3.72,,ebook,,0,0,Alison Weir,,,,,,9285,35,219,"adult,adult-fiction,biography,fiction,france,historical,historical-fiction,history,medieval,non-fiction,politics,romance,unfinished"
18433501,1299305970,Holly and Mistletoe,9781299305977,,,,ES,2013/5/15,Harlequin Reader's Choice,,true,19,601958,2637,5207,1375,71,1996/11/1,"Holly and Mistletoe (Hometown Heartbreakers, #6) (Silhouette Special Edition, #1071)",book,404,428,406,120,17,3.79,,ebook,,0,0,Susan Mallery,,,,,,657,19,128,"adult,chick-lit,christmas,contemporary,family,fiction,harlequin,holiday,romance"
18434001,1299323294,Ghost Moon,9781299323292,,,,ES,2013/3/15,Mira Books,,true,29,7815691,6591,14491,3572,207,2010/8/31,,book,1296,1355,776,118,27,4.06,,ebook,,0,0,Heather Graham,,,,,,1801,35,133,"adult,contemporary,fantasy,fiction,ghosts,horror,murder-mystery,mystery,mystery-thriller,paranormal,romance,supernatural,suspense,thriller"
18434501,1299329616,Sweet Persuasions,9781299329614,,,,ES,2013/3/16,Harlequin Presents,,true,10,10155821,508,1188,279,18,2011/1/1,,book,133,95,43,6,2,4.26,,ebook,,0,0,Rochelle Alers,,,,,,136,4,13,"contemporary,romance"
18435001,1299339964,His Country Cinderella,9781299339965,,,,ES,2013/5/15,Harlequin Special Edition,,true,9,11255608,317,440,113,13,2011/1/1,,book,38,33,35,6,1,3.89,,ebook,,0,0,Karen Rose Smith,,,,,,139,10,7,"contemporary,harlequin,music,romance"
18435501,1299346421,The Groom's Revenge,9781299346420,,,,ES,2014/12/23,Harlequin Treasury-Harlequin Presents 90s,,true,11,617603,126,199,60,10,1999/1/1,"Groom'S Revenge (Harlequin Presents, 2035)",book,13,13,18,12,4,3.32,,ebook,,0,0,Kate Walker,,,,,,32,7,2,"contemporary,fiction,harlequin,romance"
18436001,129935291X,McTavish and Twins,9781299352919,,,,ES,2013/5/15,Harlequin Treasury-Silhouette Romance 90s,,true,11,318958,57,113,28,3,1997/7/1,McTavish and Twins,book,12,8,6,1,1,4.04,,ebook,,0,0,Trisha David,,,,,,13,2,3,"fiction,harlequin,romance"
18436501,1299369820,Husband She Couldn't Remember,9781299369825,,,,ES,2013/5/15,Harlequin Treasury - Silhouette Intimate Moments,,true,6,35352,1720,3890,915,36,1998/4/1,"The Husband She Couldn't Remember (The Texas Brands, #4) (Silhouette Intimate Moments #854)",book,442,303,136,26,8,4.25,,ebook,,1,0,Maggie Shayne,,,,,,308,4,123,"chick-lit,collections,contemporary,family,harlequin,romance,suspense"
18437001,1299376711,Unexpected Addition,9781299376717,,,,ES,2013/5/15,Harlequin Treasury - Silhouette Intimate Moments,,true,4,5897200,35,37,11,3,1997/6/1,Unexpected Addition (Im Extra) ,book,3,1,5,1,1,3.36,,ebook,,0,0,Terese Ramin,,,,,,18,1,,romance
18437501,129938336X,One Mom Too Many,9781299383364,,,,ES,2014/12/23,Heinemann Publishing,,true,5,2888574,149,201,69,5,1997/1/1,Gara-Gara Ibu (One Mum Too Many),book,8,12,22,20,7,2.91,,ebook,,0,0,Vicki Lewis Thompson,,,,,,59,2,1,"chick-lit,fiction,harlequin,romance"
18438001,,"The Keysha Diaries, Volume One: Keysha's Drama / If I Were Your Boyfriend",9781299392069,,,,ES,2013/3/22,Kimani Press,eng,true,7,15858259,277,267,67,7,2013/4/1,,book,31,15,12,7,2,3.99,,ebook,,0,0,Earl Sewell,,,,,,73,3,11,"contemporary,drama,high-school,romance"
18438501,1299471692,When the Cameras Stop Rolling...,9781299471696,,,,ES,2014/1/22,Harlequin Medical Romance,,true,12,17884308,214,45,12,2,2013/1/1,,book,2,5,5,0,0,3.75,,ebook,,0,0,Connie Cox,,,,,,195,2,,
18439001,1299571891,Animal Superstars: And More True Stories of Amazing Animal Talents (National Geographic Kids Chapters),9781299571891,,,,ES,2013/5/15,National Geographic Society,,true,8,15792583,151,224,61,10,2013/1/1,,book,23,9,20,4,5,3.67,,ebook,,1,0,Aline Alexander Newman,,,,,,38,6,21,"animals,non-fiction,science"
18439501,1299583172,US Army 1941-45,9781299583177,,,,ES,2014/5/10,Osprey Publishing (UK),,true,5,2667297,31,37,10,5,1978/3/29,"U.S. Army 1941-45 (Men at Arms Series, 70)",,1,5,4,0,0,3.70,,ebook,,0,0,Philip R.N. Katcher,,,,,,1,1,,"history,non-fiction,war"
18440001,1299596096,Gebirgsjager: German Mountain Trooper 1939-45,9781299596092,,,,ES,2014/5/9,Osprey Publishing (UK),,true,6,3085683,25,25,7,0,2003/7/23,Gebirgsjäger: German Mountain Trooper 1939-45 (Warrior),book,1,2,4,0,0,3.57,,ebook,,0,0,Gordon Williamson,,,,,,11,1,1,"history,non-fiction,war"
18440501,1299606059,How the Turtle Got Its Shell,9781299606050,,,,ES,2013/5/15,Golden Books,,true,6,40841,151,180,57,7,2000/12/1,How the Turtle Got Its Shell (Little Golden Book),book,8,9,25,14,1,3.16,,ebook,,0,0,"Justine Korman Fontes,Ron Fontes",,,,,,31,17,1,"childrens,fiction,non-fiction,picture-books"
18441001,1299679552,Smokescreen,9781299679559,,,,ES,2013/1/1,Tundra Books (NY),,true,4,16085540,458,119,35,14,2013/1/1,,book,8,5,16,5,1,3.40,,ebook,,0,0,Nancy Hartry,,,,,,414,8,1,"action,adventure,crime,fiction,mystery,realistic-fiction,young-adult"
18441501,1299763561,The Shock of the New,9781299763562,,,,ES,2013/9/17,Knopf Publishing Group,,true,15,542639,69023,102466,27768,114,1980/11/1,The Shock of the New,book,9783,7238,5596,2660,2491,3.69,,ebook,,0,0,Robert Hughes,,,,,,42172,21,246,"academic,art,biography,criticism,essays,history,non-fiction,philosophy,reference,school,science,textbooks"
18442001,1410961826,Arctic Tundra,9781410961822,,,,ES,2014/1/1,Raintree,,false,4,18442000,3,9,2,0,2014/1/1,,,1,1,0,0,0,4.50,32,Paperback,,0,0,Ellen Labrecque,,,,,,0,1,,
18442501,1443850276,Colour in Sculpture: A Survey from Ancient Mesopotamia to the Present,9781443850278,,,,ES,2013/10/1,Cambridge Scholars Publishing,,false,2,18442501,2,0,0,0,2013/10/1,,,0,0,0,0,0,0.00,329,Hardcover,,0,0,Hannelore Hagele,,,,,,2,0,,
18443001,1460320913,Christmas in Snowflake Canyon (Hope's Crossing #6),9781460320914,,,,ES,2013/10/29,HQN,eng,true,14,17738244,4828,8421,1986,196,2013/9/1,Christmas in Snowflake Canyon,book,882,753,309,30,12,4.24,384,ebook,,13,1,RaeAnne Thayne,,,,,,1996,39,301,"adult,chick-lit,christmas,contemporary,family,fiction,harlequin,holiday,love-story,romance"
18443501,1483348164,Proposal Writing,9781483348162,,,,ES,,Sage Publications (CA),,true,11,194279,131,199,57,4,1990/11/1,Proposal Writing: Effective Grantsmanship,,8,23,16,9,1,3.49,144,ebook,,0,0,Soraya M. Coley,,,,,,44,4,3,"academic,business,school,textbooks,writing"
18444001,1585366927,L Is for Lincoln: An Illinois Alphabet,9781585366927,,,,ES,2010/10/1,Sleeping Bear Press,,true,6,1364582,69,143,36,8,2000/1/1,L Is For Lincoln: An Illinois Alphabet (Discover America State by State),book,11,13,12,0,0,3.97,40,ebook,,0,0,Kathy-jo Wargin,,,,,,16,5,1,"american-history,childrens,historical-fiction,history,non-fiction,picture-books,poetry"
18444501,9780983999,Setting Us Free: How Jesus Breaks Us Free From Pornography's Prison,,,,,ES,2013/2/1,Pure Desire Ministries International,eng,false,1,18444501,8,15,3,1,2013/2/1,,book,3,0,0,0,0,5.00,228,Paperback,,3,1,Nick J. Stumbo,,,,,,2,0,,
18445001,1909487082,The Gentle Art of Preserving,9781909487086,,,,ES,2014/6/7,Kyle Books,,false,1,18445001,82,101,24,4,2014/5/1,,,10,9,5,0,0,4.21,304,Hardcover,,24,4,"Giancarlo Caldesi,Katie Caldesi",,,,,,49,3,1,"cookbooks,cooking,food,non-fiction"
18445501,3050036435,Heroenkulte in Griechenland Von Der Geometrischen Bis Zur Klassischen Zeit,9783050036434,,,,ES,2015/3/5,de Gruyter,,false,3,18445501,0,0,0,0,2001/1/1,,,0,0,0,0,0,0.00,398,Hardcover,,0,0,David Boehringer,,,,,,,0,,
18446001,3050046066,Die Hessischen Reimpredigten,9783050046068,,,,ES,2009/1/28,de Gruyter,,false,1,18446001,0,0,0,0,2009/1/28,,,0,0,0,0,0,0.00,698,Paperback,,0,0,,,,Barbara Lenz-Kemper,,,,0,,
18446501,3050052813,Deutsch ALS Zweit- Und Fremdsprache,9783050052816,,,,ES,2011/12/5,Walter de Gruyter,,true,2,18445962,1,3,1,0,2011/6/22,,book,0,0,1,0,0,3.00,,ebook,,0,0,Heidi Rosch,,,,,,,0,,non-fiction
18447001,3050061502,Cato Maior. Laelius: Lateinisch - Deutsch,9783050061504,,,,ES,2013/2/27,Walter de Gruyter,,true,88,352613,1028,1636,416,42,-44/1/1,"Cato Maior de Senectute, Laelius de Amicitia",book,119,177,99,15,6,3.93,282,ebook,,0,0,Marcus Tullius Cicero,,,Rainer Nickel,,,388,6,83,"classics,essays,history,literature,non-fiction,philosophy"
18448001,3486253328,Handbuch Airlinemanagement,9783486253320,,,,ES,2018/4/2,Oldenbourg Wissenschaftsverlag,,false,2,18448001,0,0,0,0,1999/10/27,,,0,0,0,0,0,0.00,300,Hardcover,,0,0,G H Eberhard Schmidt,,,,,,,0,,
18449001,3486561316,Alltagskulturen Zwischen Erinnerung Und Geschichte: Beitrage Zur Volkskunde Der Deutschen Im Und Aus Dem Ostlichen Europa,9783486561319,,,,ES,1995/5/30,Walter de Gruyter,,false,1,18449001,0,0,0,0,1995/5/30,,,0,0,0,0,0,0.00,278,Hardcover,,0,0,,,,Kurt Droge,,,,0,,
18449501,3486578561,Steuerliche Auenprufung,9783486578560,,,,ES,2014/9/7,Walter de Gruyter,,false,1,18449501,0,0,0,0,2005/8/17,,,0,0,0,0,0,0.00,456,Hardcover,,0,0,Heinz Mosbauer,,,,,,,0,,
18450001,3486588044,Die Nordatlantische Allianz Und Finnland 1949-1961: Perzeptionsmuster Und Politik Im Kalten Krieg,9783486588040,,,,ES,2009/9/16,Walter de Gruyter,,false,2,18450001,0,0,0,0,2009/1/1,,,0,0,0,0,0,0.00,366,Hardcover,,0,0,Agilolf Kesselring,,,,,,,0,,
18450501,3486595067,Elearning: Einsichten Und Aussichten,9783486595062,,,,ES,2009/1/1,Walter de Gruyter,,true,1,18450501,0,0,0,0,2006/1/1,,,0,0,0,0,0,0.00,368,ebook,,0,0,Rolf Schulmeister,,,,,,,0,,
18451001,3486700839,Taktisches Produktions-Management,9783486700831,,,,ES,2010/10/1,Walter de Gruyter,,true,1,18451001,0,0,0,0,2000/1/1,,,0,0,0,0,0,0.00,309,ebook,,0,0,Gunther Zapfel,,,,,,,0,,
18451501,3486707698,Statistik: Einf�hrung in Die Computergest�tzte Datenanalyse,9783486707694,,,,ES,2012/1/1,Walter de Gruyter,,false,4,18451501,0,0,0,0,2011/10/19,,,0,0,0,0,0,0.00,422,Paperback,,0,0,Karlheinz Zwerenz,,,,,,,0,,
18452001,3486715216,Geschichte Des Dritten Reiches,9783486715217,,,,ES,2012/9/17,Walter de Gruyter,,true,3,18451879,2,0,0,0,2012/1/1,,,0,0,0,0,0,0.00,178,ebook,,0,0,Klaus Hildebrand,,,,,,1,0,,
18452501,3658029811,"Vertriebsarbeit Leicht Gemacht: Die Besten Strategiewerkzeuge, Checklisten Und Losungsmuster",9783658029814,,,,ES,2013/10/15,Springer Gabler,,false,1,18452501,0,0,0,0,2013/10/31,,,0,0,0,0,0,0.00,187,Hardcover,,0,0,Hartmut H Biesel,,,,,,,0,,
18453001,9041149473,Taxation of Cross-Border Services,9789041149473,,,,ES,2014/10/2,Kluwer Law International,,false,1,18453001,0,0,0,0,2014/6/15,,,0,0,0,0,0,0.00,480,Hardcover,,0,0,Rawal,,,,,,,0,,
18454001,,A Segunda Morte de Anna Karénina,9789897410963,,,,ES,2013/9/1,Oficina do Livro,por,false,2,18454001,53,75,22,5,2013/1/1,A Segunda Morte de Anna Karénina,book,2,5,15,0,0,3.41,224,Paperback,,22,5,Ana Cristina Silva,,,,,,26,0,,"lgbt,romance"
18454501,,الأم للإمام الشافعي الجزء الخامس,,,,,ES,2002/1/1,مكتبة الأسرة ,,false,1,18454501,12,15,3,0,2002/1/1,,book,3,0,0,0,0,5.00,296,Mass Market Paperback,الأعمال الدينية,3,0,محمد بن إدريس الشافعي,,,,,,10,0,,
18455001,,"Spy in Chancery (Hugh Corbett, #3)",,,,,ES,,,,true,13,1391345,975,2320,574,18,1988/10/1,Spy in Chancery,book,193,236,122,22,1,4.04,,ebook,,0,0,Paul Doherty,,,,,,224,6,19,"collections,crime,fiction,historical,historical-fiction,history,medieval,murder-mystery,mystery"
18455501,1484830202,"Hell's Belle (Hell's Belle, #1)",9781484830208,,,,ES,2013/7/6,CreateSpace Independent Publishing Platform,eng,false,5,18455501,3289,3838,1035,146,2013/6/14,,book,245,397,277,78,38,3.71,254,Paperback,,421,74,Karen Greco,,,,,,1674,20,279,"action,adult,adventure,amazon,contemporary,demons,fantasy,fiction,funny,ghosts,horror,magic,mystery,mythology,paranormal,romance,science-fiction,supernatural,urban-fantasy,vampires,werewolves,witches"
18456501,,"Kiss & never cry, Vol. 05",,,,,ES,2010/1/1,GP Publishing,ita,false,2,7716698,55,94,24,5,2008/1/1,,book,9,5,9,1,0,3.92,176,Paperback,GP Generation #5,4,3,Yayoi Ogawa,,,,Emilio  Martini,,22,1,1,manga
18457001,,And Then Run,,B00EEIWOFS,,,ES,2013/8/20,Roland Media Distribution,en-US,true,3,18399204,1720,253,71,35,2013/7/31,,book,23,19,13,7,9,3.56,460,Kindle Edition,,1,0,Eric Hublot,,,,,,1619,23,3,"adult-fiction,canon,classics,erotica,fiction,mystery,mystery-thriller"
18457501,,"Hemlock and the Dread Sorceress (The Maker's Fire, #3)",,B00EMHJAK8,,,ES,2013/8/13,,en-US,true,2,18457501,69,102,24,4,2013/8/13,,book,10,11,2,1,0,4.25,211,ebook,1st,24,4,B. Throwsnaill,,,,,,31,2,6,"amazon,fantasy"
18458001,,Melisa 14: Kesempatan Kedua,,,,,ES,1992/1/1,PT Gramedia Pustaka Utama,ind,false,1,18458001,6,13,3,0,1992/1/1,,book,1,2,0,0,0,4.33,,Paperback,,3,0,S. Mara Gd,,,,,,2,0,1,
18458501,,Skok w nowoczesność. Polityka wzrostu w krajach peryferyjnych 1943–1980,,,,,ES,2013/4/25,Krytyka Polityczna,pol,false,1,18458501,50,100,22,2,2013/4/25,,book,13,8,1,0,0,4.55,585,Hardcover,,22,2,Adam Leszczyński,,,,,,24,0,2,non-fiction
18459001,9966889000,"Don't Run Rhino (Sapra Junior Safari Guide, #1)",,,,,ES,1992/1/1,Mount Kenya Sundries Limited,eng,false,1,18459001,0,0,0,0,1992/1/1,,book,0,0,0,0,0,0.00,,Paperback,,0,0,A.A. Romanska,Elaine Mwango,,,,,,0,,
18459501,2290068586,"Elle, et aucune autre (Fitzhugh Trilogy, #2)",9782290068588,,,,ES,2013/10/2,J'ai Lu,fre,false,18,13051602,8187,18057,4599,574,2012/7/1,Ravishing the Heiress,book,1514,1706,1007,270,102,3.93,,Mass Market Paperback,,13,5,Sherry Thomas,,,,,,1583,56,82,"adult,chick-lit,drama,family,fiction,historical,historical-fiction,marriage,regency,romance,victorian"
18460001,9517962347,Toisto,,,,,ES,2001/1/1,Atena,fin,false,28,4699373,925,1163,306,36,1843/1/1,Gentagelsen,book,73,135,71,18,9,3.80,150,Paperback,,8,1,Søren Kierkegaard,,,,Olli Mäkinen,,474,10,24,"fiction,non-fiction,philosophy,psychology,sociology,theology"
18460501,1743643705,Everything You Need To Know,9781743643709,,,,ES,2013/10/1,Cosmo Red Hot Reads from Harlequin,,true,8,18308509,684,1040,294,71,2013/1/1,,book,41,113,108,27,5,3.54,100,ebook,,0,0,HelenKay Dimon,,,,,,306,30,4,"adult,contemporary,erotica,fiction,novella,romance,short-stories"
18461001,,The Death of Noble Godavry and Gottfried Kunstler,,,,,ES,1932/6/1,Ernest Benn Ltd.,eng,false,1,18461001,4,7,2,1,1932/6/1,,book,0,1,1,0,0,3.50,159,Paperback,First Edition,2,1,Vita Sackville-West,,,,,,1,1,,short-stories
18461501,9724139433,"O marsupilami negro (Marsupilami, #3)",9789724139432,,,,ES,2004/8/1,Edições ASA,por,false,11,628733,161,315,89,2,1987/1/1,Mars le noir (Marsupilami #3) ,book,14,30,36,8,1,3.54,48,Hardcover,,8,2,"André Franquin,Batem,Yann",,,,,,26,3,,"comics,fiction,graphic-novels-comics,humor"
18462001,,Children Are People: And Ideal Parents Are Comrades,,,,,ES,1940/1/1,,eng,false,1,18462001,12,3,1,1,1940/1/1,,book,0,0,1,0,0,3.00,383,,,1,1,Emily Post,,,,,,10,0,1,parenting
18462501,0988814927,Iron Bound,9780988814929,,,,ES,2013/9/1,Secret Acres,en-US,false,2,18462501,70,179,46,6,2013/9/1,,book,12,19,13,2,0,3.89,252,Paperback,,45,6,Brendan Leach,,,,,,20,0,,"comics,crime,graphic-novels,graphic-novels-comics"
18463001,,Düşmüş Melekler Şehri,9786054482702,,,,ES,2013/6/1,Artemis Yayınları,tur,false,122,6752378,684652,1748174,421356,20725,2011/4/5,City of Fallen Angels,book,188053,136266,73777,18254,5006,4.15,492,Paperback,,70,9,Cassandra Clare,,,,Zeynep Heyzen Ateş,,153349,2700,8273,"action,adventure,angels,contemporary,demons,fantasy,fiction,lgbt,love,magic,paranormal,romance,supernatural,teen,urban-fantasy,vampires,werewolves,witches,young-adult"
18463501,,Carry Me Home,,B00BMTUG0M,,,ES,2013/2/27,Cynthia C. Rand,en-US,true,1,18463501,4,8,2,1,2013/2/27,,book,1,0,1,0,0,4.00,21,Kindle Edition,,2,1,Cynthia C. Rand,,,,,,1,0,,
18464001,,Soul Journey,9780991943302,,,,ES,2013/8/1,EtherSoul,eng,false,1,18464001,1,0,0,0,2013/8/1,,book,0,0,0,0,0,0.00,196,Paperback,,0,0,Elio Melo,,,,,,,0,,
18464501,,Shingeki no Kyojin dj - 兵長log [Heichou Log],,,,,ES,2013/1/1,Doujinshi,jpn,false,1,18464501,41,55,14,0,2013/1/1,兵長log,book,3,8,2,1,0,3.93,22,Paperback,Shingeki no Kyojin Fanbook 01,14,0,"K2 Company,Kazuma Kodaka",,,,,,19,1,,manga
18465001,1472527666,Fashion and Museums: Theory and Practice,9781472527660,,,,ES,2014/8/14,Bloomsbury Academic,,false,5,18464998,44,43,11,2,2014/1/1,,,4,3,3,1,0,3.91,232,Paperback,,1,0,,,,"Birgitta Svensson,Marie Riegels Melchior",,,27,0,,
18465501,1250050200,The Manor: Three Centuries at a Slave Plantation on Long Island,9781250050205,,,,ES,2014/4/1,Picador,,false,4,16059387,1737,897,277,74,2013/6/18,,book,42,68,98,52,17,3.24,480,Paperback,,8,1,Mac Griswold,,,,,,1362,15,28,"adult,american-history,biography,historical,historical-fiction,history,non-fiction"
18466001,1472807200,Émigré and Foreign Troops in British Service (1): 1793-1802,9781472807205,,,,ES,2013/10/22,Osprey Publishing,,true,5,2105430,20,13,4,1,1999/5/28,"Emigre and Foreign Troops in British Service (1) 1792-1803 (Men-At-Arms Series, 328)",book,0,2,1,1,0,3.25,50,ebook,,0,0,René Chartrand,,,,,,11,1,,"history,non-fiction"
18467001,880437733X,Lettere da Atlantide,9788804377337,,,,ES,1993/9/1,Mondadori,ita,false,18,1705156,369,604,186,23,1990/1/1,Letters from Atlantis,book,18,47,90,25,6,3.25,117,Paperback,SuperJunior,4,0,Robert Silverberg,,,,"Francesca Crisigiovanni,Vittoria Viscardi",,118,11,,"aliens,american,fantasy,fiction,novels,science-fiction,teen,time-travel,young-adult"
18467501,1462514111,Clinical Practice of Pediatric Psychology,9781462514113,,,,ES,2014/3/19,The Guilford Press,,false,6,18467501,8,11,3,0,2014/1/1,,,1,0,2,0,0,3.67,350,Hardcover,,3,0,,,,"Brandon S. Aylward,Michael C. Roberts,Yelena P. Wu",,,2,0,1,
18468001,0373733003,"The Real Thing (The Westmorelands, #28)",9780373733002,,,,ES,2014/3/4,Harlequin,eng,false,13,18468001,2295,4279,968,107,2014/1/1,,book,558,285,106,12,7,4.42,192,Paperback,,531,87,Brenda Jackson,,,,,,1006,13,63,"contemporary,drama,family,fiction,harlequin,romance"
18468501,9789602727,Εισαγωγή στο Δίκαιο της Ευρωπαϊκής Ένωσης,,,,,ES,2010/1/1,Νομική Βιβλιοθήκη,,false,1,18468501,4,3,2,0,2010/1/1,,book,0,0,0,1,1,1.50,244,Hardcover,,2,0,Βασίλειος Α. Χριστιανός,,,,,,,0,,academic
18469001,,Phantom-The Ring (Indrajal Comics No. 010),,,,,ES,1964/12/1,The Times Of India,eng,false,1,18469001,4,12,3,0,1964/12/1,,periodical,1,1,1,0,0,4.00,17,Paperback,,3,0,Lee Falk,,,,,,1,0,,comics
18469501,0764209167,"Stuck Together (Trouble in Texas, #3)",9780764209161,,,,ES,2014/6/3,Bethany House,eng,false,6,18469501,2367,4356,1024,130,2014/1/1,,book,498,341,140,37,8,4.25,352,Paperback,,773,117,Mary Connealy,,,,,,1036,14,38,"adventure,christian,christian-fiction,fiction,historical,historical-fiction,history,inspirational,mystery,romance"
18470001,,Kucaklaşmanın Kitabı,9789755104225,,,,ES,2014/1/1,Can Yayınları,tur,false,47,9490,11511,20758,4841,576,1989/1/1,El libro de los abrazos,book,2439,1601,604,150,47,4.29,296,Paperback,,37,3,Eduardo Galeano,,,,Nihal Yeğinobalı,,5403,18,340,"adult,classics,contemporary,essays,fiction,history,international,literary-fiction,literature,memoir,non-fiction,poetry,short-stories,unfinished"
18470501,,יונה מחצר זרה (רחוק מפנינים #1),,,,,ES,1974/1/1,עם עובד,heb,false,1,18470501,3,3,1,1,1973/1/1,,book,0,0,1,0,0,3.00,303,Hardcover,,1,1,"Moshe Shamir,משה שמיר",,,,,,1,0,,
18471001,1490712097,Flying with Friends,9781490712093,,,,ES,2013/8/30,Trafford Publishing,,false,2,18471001,0,0,0,0,2013/8/30,,,0,0,0,0,0,0.00,36,Paperback,,0,0,Robert L Bolden,,,,,,,0,,
18471501,1595945040,Religion as Reinforcement in Hemingway,9781595945044,,,,ES,2013/8/22,WingSpan Press,,false,1,18471501,0,0,0,0,2013/8/22,,,0,0,0,0,0,0.00,80,Paperback,,0,0,James I. McGovern,,,,,,,0,,
18472001,1939416485,"Arena Two (The Survival Trilogy, #2)",9781939416483,,,,ES,2012/10/11,Morgan Rice,eng,false,21,16079369,3466,6396,1725,137,2012/10/1,Arena Two,book,549,473,434,188,81,3.71,188,Paperback,,1,0,Morgan Rice,,,,,,1159,23,144,"adventure,dystopia,fantasy,fiction,holiday,post-apocalyptic,science-fiction,survival,urban-fantasy,young-adult"
18472501,3639398823,Verschuldungskrisen Und Ratings,9783639398823,,,,ES,2012/4/10,AV Akademikerverlag,,false,1,18472501,0,0,0,0,2012/4/10,,,0,0,0,0,0,0.00,104,Paperback,,0,0,Schunzel Jens Oliver,,,,,,,0,,
18473001,5518590741,An Outline of the Law of Libel,9785518590748,,,,ES,2013/7/14,Book on Demand Ltd.,,false,2,31044650,0,0,0,0,2013/7/14,,,0,0,0,0,0,0.00,248,Paperback,,0,0,William Blake Odgers,,,,,,,0,,
18473501,5518595778,History of Harrison County Iowa,9785518595774,,,,ES,2013/1/4,Book on Demand Ltd.,,false,1,18473501,0,0,0,0,2013/1/4,,,0,0,0,0,0,0.00,498,Paperback,,0,0,Joseph H. Smith,,,,,,,0,,
18474001,A000023670,racconti neri,,,,,ES,1997/1/1,L'argonauta,ita,false,2,5578666,21,30,8,1,1996/10/31,Cuentos negros y románticos,book,1,4,3,0,0,3.75,108,,,0,0,Gustave Flaubert,,,,,,8,0,,fantasy
18474501,0789447193,The Ultimate Bulldozer Sticker Book,9780789447197,,,,ES,1999/9/15,DK Publishing (Dorling Kindersley),eng,false,1,18474501,1,0,0,0,1997/10/1,Bulldozer (Things That Go Board Books),book,0,0,0,0,0,0.00,16,Paperback,,0,0,DK Publishing,,,,,,,0,,
18475001,115912678X,"Kz Mittelbau-Dora: Mittelwerk Gmbh, Nordhausen-Hauptprozess, Dachauer Prozesse, SS-Baubrigade, Liste Der Aussenlager Des Kz Mittelbau, Kohnstein, Helmetalbahn, Kz-Aussenlager Boelcke-Kaserne, Personal Im Kz Mittelbau-Dora",9781159126780,,,,ES,2012/10/13,"Books LLC, Wiki Series",,false,1,18475001,1,0,0,0,2012/10/13,,,0,0,0,0,0,0.00,34,Paperback,,0,0,,,,"Source Wikipedia,Source Wikipedia",,,1,0,,
18475501,1433542404,"Taking God at His Word: Why the Bible Is Knowable, Necessary, and Enough, and What That Means for You and Me",9781433542404,,,,ES,2014/4/30,Crossway Books,eng,false,20,18475501,4685,8875,2079,303,2014/4/7,,book,961,788,274,40,16,4.27,138,Hardcover,,1694,267,Kevin DeYoung,,,,,,2000,37,213,"christian,christianity,faith,non-fiction,religion,spirituality,theology"
18476001,1472904133,Sephy's Story,9781472904133,,,,ES,2013/9/12,A&c Black Childrens & Educational,,true,5,3354397,4,8,2,0,2007/9/1,Sephy's Story (White Wolves),,1,0,1,0,0,4.00,,ebook,,0,0,Julia Green,,,,,,2,0,,
18476501,1491809744,Self-Action Leadership: The Key to Everything,9781491809747,,,,ES,2013/9/4,Authorhouse,,true,3,18471182,0,0,0,0,2013/9/4,,,0,0,0,0,0,0.00,,ebook,,0,0,Jordan R. Jensen,,,,,,,0,,
18477001,1623964016,"Online Learner Competencies: Knowledge, Skills, and Attitudes for Successful Learning in Online and Blended Settings (Hc)",9781623964016,,,,ES,2013/9/5,Information Age Publishing,,false,2,18477000,3,4,1,0,2013/9/5,,,0,1,0,0,0,4.00,178,Hardcover,,0,0,"Gila Kurtz,Insung Jung,Michael Beaudoin",,,,,,1,0,,
18477501,1936128497,The Human Magnet Syndrome: Why We Love People Who Hurt Us,9781936128495,,,,ES,2013/8/30,Pesi Publishing & Media,,true,5,17329398,1840,1924,476,55,2013/3/31,,,190,163,89,21,13,4.04,178,ebook,,0,0,Ross Rossenberg,,,,,,962,6,169,"love,non-fiction,personal-development,psychology,relationships,self-help"
18478001,,One on One Adventures #4: The Forbidden Hills,,,,,ES,2006/1/1,Expeditious Retreat Press,eng,false,1,18478001,1,0,0,0,2006/1/1,,book,0,0,0,0,0,0.00,20,Paperback,,0,0,Suzi Yee,,,,,,,0,,
18478501,,Valnerina in mountain bike,9788885412705,,,,ES,1999/1/1,Era Nuova,ita,false,1,18478501,1,0,0,0,1999/1/1,,book,0,0,0,0,0,0.00,48,,,0,0,Vito  Santamaria,,,,,,,0,,
18479001,,Pohádky pod peřinku,,,,,ES,1986/1/1,Lidové nakladatelství,cze,false,1,18479001,2,7,2,0,1986/1/1,,book,0,1,1,0,0,3.50,248,Hardcover,,2,0,Hana Vrbová,Olga Čechová,,,,,,0,,
18479501,,Among the Forest People,,,,,ES,2011/1/15,Project Gutenberg,,true,33,223088,260,187,44,3,1900/5/9,Among the Forest People,book,23,12,7,1,1,4.25,77,ebook,,0,0,Clara Dillingham Pierson,,,,,,148,19,42,"classics,fiction,nature,religion,science"
18480001,,"Clarkesworld Magazine, Issue 84 (Clarkesworld Magazine, #84)",,B00FK3K7TG,,,ES,2013/9/1,Wyrm Publishing,eng,true,2,18480001,44,72,19,4,2013/9/1,,periodical,3,11,4,0,1,3.79,102,Kindle Edition,,19,4,"Alethea Kontis,Charles Sheffield,Elizabeth Bourne,Greg Mellor,James Patrick Kelly,Jeremy L.C. Jones,Mark Bourne,Mark Cole,Nancy Kress",,,Neil Clarke,,,15,4,1,"fantasy,non-fiction,science-fiction"
18480501,1591333784,The Cassandra,,,,,ES,,Hilliard & Harris,,false,1,18480501,0,0,0,0,,,book,0,0,0,0,0,0.00,296,,,0,0,s. Reilly,,,,,,,0,,
18481001,,Mandrake-The Maze of Hurdles ( Indrajal Comics Vol 24 No 12 ),,,,,ES,1987/3/22,The Times Of India,eng,false,1,18481001,3,7,2,0,1987/3/22,,periodical,1,0,0,1,0,3.50,33,Paperback,,2,0,Lee Falk,,,,,,1,0,,comics
18481501,8700094927,Drømmenes bro,,,,,ES,1987/1/1,Gyldendal,dan,false,1,18481501,2,0,0,0,1987/1/1,,book,0,0,0,0,0,0.00,29,Hardcover,,0,0,"Bjarne Reuter,Elisabeth Nyman",,,,,,1,0,,
18482001,837686193X,Wakacje Fryderyka,9788376861937,,,,ES,2013/4/17,Jaguar,pol,false,19,90610,1263,2840,698,79,1927/1/1,To and Again,book,259,271,137,19,12,4.07,208,Hardcover,,5,0,Walter R. Brooks,Kurt Wiese,,,Stanisław Kroszczyński,,379,41,20,"adventure,animals,chapter-books,childrens,classics,fantasy,fiction,juvenile,middle-grade,mystery,novels,school,young-adult"
18482501,2842285271,Rock Star Vampire,9782842285272,,,,ES,2013/9/12,,fre,false,2,18482501,48,76,24,6,2013/9/12,,book,2,8,8,4,2,3.17,377,Paperback,Le Pré Aux Clercs,21,6,Yves Bulteau,,,,,,15,0,,young-adult
18483001,2070453251,A tombeau ouvert : 5 histoires du corps des Marines,9782070453252,,,,ES,2013/9/12,Gallimard,fre,false,15,7025231,478,728,218,39,2009/1/1,The Suicide Run,book,28,62,89,34,5,3.34,265,Mass Market Paperback,Folio,2,0,William Styron,,,,Clara Mallier,,201,14,8,"adult,american,fiction,historical-fiction,history,literature,memoir,non-fiction,short-stories,war"
18483501,,"Textos do Caribe, vol.1",,,,,ES,1981/1/1,Record,por,false,1,18483501,2,0,0,0,1981/1/1,,book,0,0,0,0,0,0.00,330,Paperback,,0,0,Gabriel García Márquez,,,,,,1,0,,
18484001,,نجم وحيد الأفق,,,,,ES,2001/1/1,,,false,1,18484001,7,5,2,1,2001/1/1,,book,0,0,1,1,0,2.50,,,,2,1,محمد جبريل,,,,,,1,0,1,
18484501,,Dead Man's Walk,,,,,ES,1995/1/1,Pocket Books,eng,false,29,54804,16901,39988,10205,517,1995/1/1,Dead Man's Walk,book,2865,4232,2602,423,83,3.92,518,Mass Market Paperback,,25,5,Larry McMurtry,,,,,,4687,30,426,"action,adult,adult-fiction,adventure,american,classics,drama,fiction,historical,historical-fiction,history,literary-fiction,literature,novels,survival"
18485001,,The Agreement,,B0040JHRK8,,,ES,2010/8/23,,en-US,true,1,18485001,97,100,26,5,2010/4/23,,book,8,9,7,1,1,3.85,401,ebook,,26,5,Sylvia Jefferson,,,,,,50,2,14,"chick-lit,cozy-mystery,fiction,mystery,suspense"
18485501,4396338910,幸福な生活,9784396338916,,,,ES,2013/12/10,Shodensha,jpn,false,3,18485501,27,53,15,0,2011/5/1,幸福な生活,book,2,8,3,0,2,3.53,274,Paperback,,9,0,"Naoki Hyakuta,百田 尚樹",,,,,,5,0,-1,"fiction,mystery"
18486001,,Eça de Queirós e o século XIX,,,,,ES,1966/1/1,Civilização Brasileira,por,false,1,18486001,1,0,0,0,1966/1/1,,book,0,0,0,0,0,0.00,328,Paperback,,0,0,Vianna Moog,,,,,,,0,,
18486501,,Stained,,B00AUZS5VG,,,ES,2013/10/1,HMH Books for Young Readers,,true,9,16158181,3977,3829,968,176,2013/1/1,,book,392,267,208,76,25,3.96,304,Kindle Edition,,30,5,Cheryl Rainfield,,,,,,2726,21,37,"abuse,adventure,contemporary,crime,dark,fiction,mental-health,mystery,mystery-thriller,psychology,realistic-fiction,romance,social-issues,survival,suspense,teen,thriller,young-adult"
18487001,9814516684,Words of Mouse,,,,,ES,,,,false,1,18487001,1,0,0,0,,,book,0,0,0,0,0,0.00,,,,0,0,Marc Ortrofsky,,,,,,,0,,
18487501,,მე ახლაც ოცდაექვსი წლისა ვარ,,,,,ES,1984/1/1,"""ნაკადული""",,false,1,18487501,25,19,4,0,1984/1/1,,book,3,1,0,0,0,4.75,287,,,4,0,ნუგზარ წერეთელი,,,,,,14,0,3,
18488001,,"Cause of Death (Kay Scarpetta, #7)",9788700612679,,,,ES,1998/1/1,Gyldendals Bogklubber,dan,false,107,6541,61620,160423,40777,764,1996/8/1,Cause of Death,book,12204,16025,10521,1713,314,3.93,300,Hardcover,1. bogklub,1,0,Patricia Cornwell,,,,,,7116,40,405,"adult,adult-fiction,american,contemporary,crime,detective,fiction,medical,murder-mystery,mystery,mystery-thriller,novels,romance,suspense,thriller"
18488501,,Evimizin İnsanları,,,,,ES,1985/1/1,Düşün Yayınevi,tur,false,5,4617337,266,544,132,14,1985/1/1,Piano Piano Bacaksız (Evimizin İnsanları) - The People of Our Home,book,51,53,22,5,1,4.12,93,Paperback,,1,1,Kemal Demirel,,,,,,63,0,1,drama
18489001,,"Memoirs of the Empress Josephine, Vol. I: 1802-1805 (Memoirs of the Courts of Europe, #9)",,,,,ES,1910/1/1,P.F. Collier & Son,eng,false,5,18489001,2,3,1,0,1910/1/1,,book,0,0,1,0,0,3.00,406,Hardcover,,1,0,Claire Élisabeth Jeanne Gravier de Vergennes de Rémusat,,,,"Frances Cashel Hoey,John Lillie",,1,0,,
18490001,9601701591,Μια γυναίκα χωρίς σημασία,9789601701592,,,,ES,2004/1/1,Ύψιλον,gre,false,16,122648,20149,35907,9267,475,1894/1/1,A Woman of No Importance ,book,2443,3804,2514,428,78,3.87,102,Paperback,,3,0,Oscar Wilde,,,,Ερρίκος Μπελιές,,8674,63,266,"adult,british-literature,classic-literature,classics,comedy,drama,english-literature,fiction,funny,historical,historical-fiction,humor,literature,modern-classics,novels,plays,romance,school,society,theatre,victorian"
18491001,,فضائل مصر ومزايا أهلها,,,,,ES,2013/5/1,,ara,false,2,18486157,34,28,8,4,2011/1/1,,book,3,1,2,1,1,3.50,289,,,1,1,محمد موسى الشريف,,,,,,24,0,,
18491501,,De spionnenclub,9789045115443,,,,ES,2013/1/1,Querido,nl,false,30,13262061,43777,89122,23400,2427,2012/8/7,Liar & Spy,book,6441,8871,5925,1495,668,3.81,199,Hardcover,,15,3,Rebecca Stead,,,,,,17474,176,590,"adventure,chapter-books,childrens,contemporary,family,fiction,humor,juvenile,middle-grade,mystery,mystery-thriller,realistic-fiction,school,teen,young-adult"
18492001,1624168744,"Jugando con propósito: Béisbol: La vida y la fe de Albert Pujols, Mariano Rivera, Josh Hamilton y los mejores jugadores de las Grandes Ligas de la actualidad",9781624168741,,,,ES,2014/3/1,Casa Promesa,,false,1,18492001,0,0,0,0,2014/3/1,,,0,0,0,0,0,0.00,272,Paperback,,0,0,"Jesse Florea,Josh Cooley,Mike Yorkey",,,,,,,0,,
18492501,0974024317,Permaculture: Finding Our Own Vines and Fig Trees,,,,,ES,2003/8/1,Sor Juana Press,eng,false,1,18492501,3,4,1,0,2003/8/1,,book,0,1,0,0,0,4.00,104,Paperback,,1,0,Carol Coston,,,,,,2,0,,"christian,non-fiction"
18493001,,Joyful Poems for Children,,,,,ES,1946/1/1,The Bobbs-Merrill Company,eng,false,3,18493001,7,13,3,0,1946/1/1,,book,2,0,1,0,0,4.33,138,Hardcover,,1,0,James Whitcomb Riley,,,,,,2,0,,poetry
18493501,9814423335,Crime Scene Asia: Volume 1,9789814423335,,,,ES,2013/11/16,Monsoon Books,eng,false,4,18477980,27,29,11,4,2013/9/1,,book,0,1,5,5,0,2.64,226,Paperback,,5,2,,,"Abha Iyengar,Charlson Ong,D. Biswas,Dawn Farnham,Elka Ray,Jim Algie,Roger Vickery",,,,13,0,1,"crime,short-stories"
18494001,1299453066,Gonadotropins and Gonadal Function,9781299453067,,,,ES,2012/1/1,Academic Press,,true,1,18494001,0,0,0,0,2012/1/1,,,0,0,0,0,0,0.00,588,ebook,,0,0,,,,N Moudgal,,,,0,,
18494501,1299473768,"Biochemical Actions of Hormones, Volume 2",9781299473768,,,,ES,2012/1/1,Academic Press,,true,2,23038936,0,0,0,0,2012/1/1,,,0,0,0,0,0,0.00,557,ebook,,0,0,,,,Gerald Litwack,,,,0,,
18495001,1299531474,NMR of Chemically Exchanging Systems,9781299531475,,,,ES,2012/1/1,Academic Press,,true,1,18495001,0,0,0,0,2012/1/1,,,0,0,0,0,0,0.00,180,ebook,,0,0,Jerome Kaplan,,,,,,,0,,
18495501,1299542239,Auger Electron Spectroscopy,9781299542235,,,,ES,2012/1/1,Academic Press,,true,3,4172552,1,0,0,0,1988/1/1,Auger Electron Spectroscopy (Treatise on Materials Science and Technology),,0,0,0,0,0,0.00,272,ebook,,0,0,,,,C.L. Briant,,,,0,1,
18496001,1299601278,Ozonation in Organic Chemistry V2: Nonolefinic Compounds,9781299601277,,,,ES,2014/5/9,Academic Press,,true,1,18496001,2,6,2,0,1982/1/1,,,0,0,2,0,0,3.00,520,ebook,,2,0,Philip S. Bailey,,,,,,,0,,
18496501,1299708293,Burley: Kentucky Tobacco in a New Century,9781299708297,,,,ES,2013/1/1,University Press of Kentucky,,true,6,17062214,13,25,5,0,2013/1/1,,,5,0,0,0,0,5.00,329,ebook,,0,0,Ann K. Ferrell,,,,,,5,1,1,
18497001,1299818943,"Adam Smith's Pluralism: Rationality, Education, and the Moral Sentiments",9781299818941,,,,ES,2013/10/3,Yale University Press,,true,3,17572994,8,7,2,0,2013/1/1,,,0,1,1,0,0,3.50,360,ebook,,0,0,Jack Russell Weinstein,,,,,,3,0,2,
18497501,1299845215,Kommunikation Im Change: Erfolgreich Kommunizieren in Veranderungsprozessen,9781299845213,,,,ES,2014/6/15,Springer,,true,3,18497501,1,5,1,1,2013/1/1,,,1,0,0,0,0,5.00,181,ebook,,1,1,Gerhild Deutinger,,,,,,,0,,
18498001,1299851088,Kentucky Agate: State Rock and Mineral Treasure of the Commonwealth,9781299851085,,,,ES,2013/1/1,University Press of Kentucky,,true,5,17761953,9,5,1,0,2013/1/1,,,1,0,0,0,0,5.00,225,ebook,,0,0,"Roland L. McIntosh,Warren H. Anderson",,,,,,4,0,,non-fiction
18498501,,Afrika Korps - A Guerra do Deserto,,,,,ES,1978/11/1,Livraria Bertrand,por,false,4,3183749,67,106,26,0,1977/1/1, Afrika Korps: La Guerre du Desert,book,12,8,4,0,2,4.08,46,Hardcover,,4,0,Pierre Dupuis,,,,,,37,0,1,comics
18499001,0080509002,Intercultural Services: A Worldwide Buyer's Guide and Sourcebook,9780080509006,,,,ES,2000/6/28,Butterworth-Heinemann,,true,7,918187,2,6,2,0,2000/6/28,Intercultural Services: A Worldwide Buyer's Guide and Sourcebook,book,0,0,2,0,0,3.00,362,ebook,,0,0,Gary M. Wederspahn,,,,,,,0,,
18499501,0199790701,Beyond the Cold War: Lyndon Johnson and the New Global Challenges of the 1960s,9780199790708,,,,ES,2014/1/16,OUP Us,eng,false,5,18499500,2,0,0,0,2013/1/1,,book,0,0,0,0,0,0.00,301,Paperback,,0,0,,,,"Francis J. Gavin,Mark Atwood Lawrence",,,1,0,,
18500001,0830840362,How Do We Know?: An Introduction to Epistemology,9780830840366,,,,ES,2014/1/31,IVP Academic,,false,1,18500001,281,353,94,18,2014/3/7,,,22,34,32,5,1,3.76,174,Paperback,,94,18,"James K. Dew Jr.,Mark W. Foreman",,,,,,150,7,8,"adult,christian,christianity,new-adult,non-fiction,philosophy,school,theology,young-adult"
18501001,,The Productive Artist's Business Plan,,,,,ES,,,,false,1,18501001,2,5,1,0,,,book,1,0,0,0,0,5.00,,,,1,0,Rebecca Ahn,,,,,,,0,,
18501501,1491213590,Crime Scene/Sex Scene,9781491213599,,,,ES,2013/9/4,Createspace,,false,2,18501501,0,0,0,0,2012/5/21,,book,0,0,0,0,0,0.00,236,Paperback,,0,0,K.O. Johnson,,,,,,,0,,
18502001,,The Life and Times of Miss Jane Marple,,,,,ES,1987/4/1,Berkley Books,eng,false,12,1249218,348,490,141,36,1985/1/1,The Life and Times of Miss Jane Marple,book,22,41,63,12,3,3.48,161,Mass Market Paperback,,6,2,Anne Hart,,,,,,139,14,4,"adult,biography,classics,crime,fiction,murder-mystery,mystery,non-fiction,reference"
18502501,1908552654,The Man of Many Faces: PT. 1 & 2: Uncovering the Truth about Dr. Malachi Z. York,9781908552655,,,,ES,2005/6/9,Iceburg Books,,false,1,18502501,31,5,1,0,2005/6/9,,,1,0,0,0,0,5.00,948,Paperback,,1,0,"Adafa Taharqa Nicol-El,Olafemi Olatula,Yovan Christenson",,,,,,22,1,2,
18503001,5518649991,Lives of the Most Eminent Painters Volume 4,9785518649996,,,,ES,2013/1/2,Book on Demand Ltd.,,false,1,18503001,1,5,1,0,2013/1/2,,,1,0,0,0,0,5.00,454,Paperback,,1,0,"De Vere,Giorgio Vasari",,,,,,,0,,
18503501,5518655320,Kant's Prolegomena,9785518655324,,,,ES,2013/5/2,Book on Demand Ltd.,,false,13,26615893,4,5,1,0,2013/5/2,,,1,0,0,0,0,5.00,400,Paperback,,0,0,Ernest Belfort Bax,,,,,,2,1,,
18504001,5518660634,Lectures on the Prophetical Office of the Church,9785518660632,,,,ES,2013/7/5,Book on Demand Ltd.,,false,9,18504001,2,0,0,0,2013/7/5,,,0,0,0,0,0,0.00,440,Paperback,,0,0,John Henry Newman,,,,,,1,0,,
18504501,5518665911,Dedication Ceremonies December 17 1891,9785518665910,,,,ES,2013/8/14,Book on Demand Ltd.,,false,1,18504501,0,0,0,0,2013/8/14,,,0,0,0,0,0,0.00,58,Paperback,,0,0,Drexel Institute of Technology,,,,,,,0,,
18505001,5518671040,"Horace, Odes and Epodes",9785518671041,,,,ES,2013/2/14,Book on Demand Ltd.,,false,4,13810540,2,4,1,0,1901/1/1,,book,0,1,0,0,0,4.00,470,Paperback,,0,0,Charles Edwin Bennett,,,,,,1,0,,
18505501,5518683537,"North Carolina Conditions Inviting Farming, Trucking, Cattle-Raising and Dairying, Soils and Climate",9785518683532,,,,ES,2013/7/28,Book on Demand Ltd.,,false,5,30606214,0,0,0,0,2013/7/28,,,0,0,0,0,0,0.00,64,Paperback,,0,0,North Carolina Department of Agriculture,,,,,,,0,,
18506001,,The Lobel brothers' meat cookbook,,,,,ES,1971/1/1,"Hawthorn Books, Inc.",,false,1,18506001,2,7,2,2,1971/1/1,,book,0,1,1,0,0,3.50,311,Hardcover,,2,2,Leon Lobel,,,,,,,0,,"cookbooks,cooking"
18506501,0547362145,Houghton Mifflin Reading Medallions California: Medallions Package Level K,9780547362144,,,,ES,2010/6/7,Houghton Mifflin,,false,1,18506501,0,0,0,0,2010/6/7,,,0,0,0,0,0,0.00,,Hardcover,,0,0,,,,,,,,0,,
18507001,061572969X,Al and Teddy,9780615729695,,,,ES,2013/9/13,Dream Yard Press,,false,1,18507001,20,46,13,1,2013/9/13,,,2,4,6,1,0,3.54,,Hardcover,,13,1,Neil Waldman,,,,,,4,0,,"adventure,family,fantasy,picture-books"
18507501,0765709864,"Politics in the Hebrew Bible: God, Man, and Government",9780765709868,,,,ES,2013/9/5,Jason Aronson,,true,4,17890560,6,0,0,1,2013/1/1,,,0,0,0,0,0,0.00,200,ebook,,0,0,"Kalman J. Kaplan,Matthew B. Schwartz",,,,,,5,0,,
18508001,0821888013,3-Manifold Groups Are Virtually Residually P,9780821888018,,,,ES,2013/9/1,American Mathematical Society,,false,1,18508001,0,0,0,0,2013/9/1,,,0,0,0,0,0,0.00,,Paperback,,0,0,Matthias Aschenbrenner,,,,,,,0,,
18508501,1101111623,Legion of the Lost: The True Experience of An American in the French Foreign Legion,9781101111628,,,,ES,2006/8/1,Berkley Books,,true,10,28763766,497,473,143,19,2005/8/2,Legion of the Lost: The True Experience of An American in the French Foreign Legion,book,27,30,55,22,9,3.31,256,ebook,,0,0,Jaime Salazar,,,,,,257,1,18,"biography,france,history,modern,non-fiction"
18509001,1101565470,"Mine to Hold (Wicked Lovers, #6)",9781101565476,,,,ES,2012/6/1,Berkley Books,,true,15,16087848,18752,42726,10010,420,2012/6/5,Mine to Hold,book,4791,3507,1386,259,67,4.27,352,ebook,,0,0,Shayla Black,,,,,,4941,48,124,"action,adult,adult-fiction,bdsm,contemporary,drama,erotica,fiction,menage,mystery,romance,suspense"
18509501,1292000953,"Games, Ideas and Activities for Primary Literacy",9781292000954,,,,ES,2013/8/1,Pearson Education Limited,,false,4,18509501,3,9,2,0,2013/1/1,,,1,1,0,0,0,4.50,400,Paperback,,2,0,Hazel Glynne,,,,,,1,0,,
18510001,142954922X,Death by Chick Lit,9781429549226,,,,ES,2007/6/5,Berkley Books,,true,7,19051,558,770,270,65,2007/1/1,Death By Chick Lit,book,14,56,97,82,21,2.85,256,ebook,,0,0,Lynn Harris,,,,,,206,13,5,"adventure,chick-lit,cozy-mystery,crime,fiction,humor,literary-fiction,mystery,mystery-thriller,relationships,suspense,unfinished"
18510501,1461430011,"Handbook of International Feminisms: Perspectives on Psychology, Women, Culture, and Rights",9781461430018,,,,ES,2013/10/24,Springer,,false,4,10761982,5,0,0,0,2011/1/1,,book,0,0,0,0,0,0.00,354,Paperback,,0,0,,,,"Alexandra Rutherford,Ingrid Palmary,Rose Capdevila,Vindhya Undurti",,,5,0,,
18511001,1477840273,Luke Ashcroft's Woman,9781477840276,,,,ES,2013/9/10,Montlake Romance,,false,1,18511001,0,0,0,0,2013/9/10,,,0,0,0,0,0,0.00,366,Paperback,,0,0,Janet DeWitt,,,,,,,0,,
18511501,1604868988,"Anarchy, Geography, Modernity: Selected Writings of Elisee Reclus",9781604868982,,,,ES,2013/11/1,PM Press,,true,7,17707027,328,194,46,3,2004/3/27,"Anarchy, Geography, Modernity: Selected Writings of Elisée Reclus",book,21,15,9,1,0,4.22,304,ebook,,0,0,Élisée Reclus,,,"Camille Martin,John Clark",,,253,4,13,"feminism,france,history,non-fiction,philosophy,politics,science"
18512001,1625846088,Philadelphia Spiritualism and the Curious Case of Katie King,9781625846082,,,,ES,2013/9/10,History Press (SC),,true,5,18287821,234,29,9,1,2013/9/5,,book,0,4,3,2,0,3.22,128,ebook,,0,0,Stephanie Hoover,,,,,,216,9,3,"historical-fiction,history,non-fiction,paranormal,religion"
18512501,1770863400,Midnight Cab,9781770863408,,,,ES,2013/8/1,Cormorant Books,,false,26,1473977,695,1175,327,33,2002/1/1,Midnight Cab,book,62,106,125,32,2,3.59,304,Paperback,,0,0,James W. Nichol,,,,,,245,11,7,"crime,fiction,mystery,mystery-thriller,novels,thriller"
18513001,3642011799,Globalization 2.0,9783642011795,,,,ES,2009/10/29,Springer,,false,2,18513001,0,0,0,0,2009/10/29,,,0,0,0,0,0,0.00,248,Paperback,,0,0,,,,"Heike Emmerich,Michael Ceyp,Raschid Ijioui",,,,0,,
18513501,1443426601,The Picture Of Dorian Gray,9781443426602,,,,ES,2013/10/15,HarperPerennial Classics,,true,3354,5297,1411649,3280431,806337,24154,1890/6/20,The Picture of Dorian Gray,book,313808,293823,150657,36079,11970,4.07,176,ebook,,1,1,Oscar Wilde,,,,,,459397,3140,45517,"adult,adult-fiction,british-literature,classic-literature,classics,drama,english-literature,fantasy,fiction,gothic,high-school,historical,historical-fiction,horror,lgbt,literary-fiction,literature,magical-realism,mystery,novels,paranormal,philosophy,queer,school,supernatural,unfinished,victorian"
18514001,,Sarangong,9781304324634,,,,ES,2013/9/16,Artema Press Incorporated,eng,false,4,18514000,226,15,3,3,2013/8/13,,book,3,0,0,0,0,5.00,240,Hardcover,,1,1,Crash Froelich,,,,,,222,0,,adventure
18515001,9960418243,بيت العنكبوت,,,,,ES,2003/1/1,دار المقتطف للنشر والتوزيع الرياض,,false,1,18515001,19,10,3,1,2003/1/1,,book,1,0,1,1,0,3.33,92,Paperback,,3,1,أبو المنذر خليل إبراهيم أمين,,,,,,13,0,1,
18515501,,Hidden Battles,9781105417085,,,,ES,2011/12/11,lulu.com,eng,true,2,14143505,697,36,9,2,2011/12/11,,book,2,5,2,0,0,4.00,422,ebook,,0,0,K.L. Burrell,,,,,,672,6,1,"adult,angels,christian,christianity,demons,faith,fiction,religion"
18516001,,The False Prince - Pangeran Palsu,9789792298321,,,,ES,2013/10/1,Gramedia Pustaka Utama,ind,false,41,12432220,140912,265499,62772,8261,2012/4/1,The False Prince,book,29518,21777,8702,1920,855,4.23,392,Paperback,,102,46,Jennifer A. Nielsen,,,,Cindy Kristanto,,68574,449,1225,"action,adventure,childrens,epic-fantasy,fantasy,fiction,funny,high-fantasy,historical,historical-fiction,juvenile,medieval,middle-grade,mystery,romance,suspense,teen,young-adult"
18516501,,"Jukolan Osuuskauppa - Yhdessä yrittäen, vuosisata luottamusta",9789529324613,,,,ES,2013/8/1,Jukolan Osuuskauppa,fin,false,1,18516501,1,3,1,1,2013/8/1,,book,0,0,1,0,0,3.00,287,Hardcover,,1,1,Vilho Tikka,,,,,,,0,,
18517001,9634002668,A Manci,,,,,ES,1990/1/1,Gondolat/Ciceró GMK,hun,false,1,18517001,18,33,7,1,1932/1/1,A Manci,book,5,2,0,0,0,4.71,200,Paperback,,7,1,Bródy Lili,,,,,,10,0,,"history,humor"
18518001,,الموسوعة الذهبية للعلوم الإسلامية المجلد السادس,,,,,ES,,دار الغد العربي,,false,1,18518001,3,0,0,0,,,book,0,0,0,0,0,0.00,640,Hardcover,,0,0,فاطمة محجوب,,,,,,1,0,,
18518501,,सारा आकाश,9788183612531,,,,ES,1951/1/1,Radhakrishna paperbacks,hin,false,4,8048633,188,301,72,9,1951/1/1,प्रेत बोलते हैं,book,27,32,12,1,0,4.18,208,Paperback,,10,1,Rajendra Yadav,,,,,,94,0,5,"classics,contemporary,drama,novels"
18519001,9631112020,"Őrnagy úr, keressen magának ellenséget (Delfin könyvek)",,,,,ES,1978/1/1,Móra,hun,false,1,18519001,2,0,0,0,1978/1/1,,book,0,0,0,0,0,0.00,224,Paperback,,0,0,Bogáti Péter,,,,,,,0,,
18520001,,"Proust, (Vidas Literárias)",,,,,ES,1989/1/1,Zahar,por,false,4,3130494,39,74,19,3,1973/1/1,Proust and His World,book,3,11,5,0,0,3.89,131,Paperback,,1,0,William Sansom,,,,,,14,0,,"biography,france"
18520501,,The ohio guide to firearm laws,9780981961798,,,,ES,2011/10/1,,eng,false,1,18520501,2,3,1,0,2011/10/1,,book,0,0,1,0,0,3.00,179,Paperback,Fourth,1,0,Ken Hanson,,,,,,1,0,,education
18521001,,The God Within: A Testament of Vishnu,,,,,ES,,Threshold Books,eng,false,1,18521001,5,0,0,0,,,book,0,0,0,0,0,0.00,357,Paperback,,0,0,Charles H. Hapgood,,,,,,4,0,,
18521501,,"Indián szív (Comanche, #2)",9789636433253,,,,ES,2011/1/1," General Press, Budapest",hun,false,16,696514,6012,13663,3375,255,1991/1/1,,book,1282,1228,661,154,50,4.05,402,,,1,0,Catherine Anderson,,,,,,1696,22,106,"abuse,adult,fiction,historical,historical-fiction,romance"
18522001,8508045247,Viagem ao Centro da Terra,9788508045242,,,,ES,1994/1/1,Editora Ática,por,false,643,32829,220495,495616,128634,4262,1864/11/25,Voyage au centre de la Terre,book,35425,48963,35571,7251,1424,3.85,230,Paperback,,24,0,Jules Verne,,,,Cid Knipel Moreira,,59696,326,5426,"adult,adult-fiction,adventure,childrens,classic-literature,classics,fantasy,fiction,france,historical,historical-fiction,literature,novels,school,science,science-fiction,science-fiction-fantasy,speculative-fiction,steampunk,travel,victorian,young-adult"
18522501,,Heinrich Himmler: Uma biografia,,,,,ES,2013/1/1,Objetiva,por,false,20,11191214,1676,1963,500,51,2008/1/1,Heinrich Himmler: A Life,book,167,183,107,32,11,3.93,912,,,1,0,Peter Longerich,,,,,,992,2,85,"biography,history,non-fiction,politics,unfinished,war"
18523501,9636434808,A tücskök éneke,9789636434809,,,,ES,2013/1/1,General Press,hun,false,21,241387,27756,62121,14607,2032,2006/1/1,When Crickets Cry,book,7095,4911,1969,463,169,4.25,328,Hardcover,,4,0,Charles Martin,,,,Kiss Annamária,,10265,62,630,"adult,adult-fiction,chick-lit,christian,christian-fiction,contemporary,drama,fiction,historical-fiction,inspirational,literary-fiction,literature,love,medical,novels,religion,romance,spirituality"
18524001,,Sex on Fire (Hot Gay Firefighter Erotica),,B00DLX7470,,,ES,2013/6/24,,eng,true,1,18524001,25,39,11,2,2013/6/24,,book,3,3,3,1,1,3.55,30,Kindle Edition,,11,2,Ethan Haney,,,,,,9,0,,"contemporary,erotica"
18524501,,"Ostrý dráp (Looking Glass, #4)",9788074591597,,,,ES,2013/7/24,Brokilon,cze,false,6,3000862,3473,10976,2649,57,2008/11/1,"Claws That Catch (Looking Glass, #4)",book,1109,961,451,106,22,4.14,466,Paperback,,3,0,"John Ringo,Travis S. Taylor",,,,,,384,11,24,"adult-fiction,adventure,aliens,amazon,fantasy,fiction,humor,science,science-fiction,science-fiction-fantasy,war"
18525001,,Manual de Estratégia Subversiva,9789726183815,,,,ES,2005/1/1,Edições Silabo,,false,1,18525001,3,4,1,0,2005/1/1,,book,0,1,0,0,0,4.00,194,,,1,0,Võ Nguyên Giáp,,,,,,1,0,,
18525501,,Anständig essen: Ein Selbstversuch,9783462300765,,,,ES,2010/12/29,Kiepenheuer&Witsch,ger,true,14,10138026,873,2169,554,54,2010/12/29,Anständig essen: Ein Selbstversuch,book,156,231,134,30,3,3.92,,Kindle Edition,,3,1,Karen Duve,,,,,,202,26,12,"animals,contemporary,cooking,food,non-fiction"
18526001,8385423400,"Czarodziejka ze Świata Czarownic (Świat Czarownic 1: Cykl Estcarp, #5)",9788385423409,,,,ES,1991/1/1,Amber,pol,false,21,462446,1690,3996,1034,19,1968/1/1,"Sorceress of the Witch World (Witch World, Book 6)",book,281,381,332,31,9,3.86,223,Paperback,,11,0,Andre Norton,,,,Ewa Witecka,,382,8,3,"adventure,epic-fantasy,fantasy,fiction,high-fantasy,magic,novels,science,science-fiction,science-fiction-fantasy,speculative-fiction,witches"
18526501,,The User Experience Team of One : A Research and Design Survival Guide,9781457102912,,,,ES,2013/7/1,Rosenfeld Media,eng,true,7,18177290,3461,3150,751,56,2013/1/1,,book,310,296,128,15,2,4.19,,ebook,,0,0,Leah Buley,,,,,,2122,30,269,"art,business,non-fiction,reference,research"
18527001,0857421905,The Call of the Trance,9780857421906,,,,ES,2014/10/15,Seagull Books,,false,3,18527001,30,9,3,0,2011/4/20,,,0,1,1,1,0,3.00,184,Hardcover,,3,0,Catherine Clément,,,,,,23,0,2,non-fiction
18527501,0545551374,The Door,9780545551373,,,,ES,2014/4/29,Scholastic Press,,false,5,18527501,235,269,102,25,2014/4/29,,,13,11,24,34,20,2.64,288,Hardcover,,97,24,Andy Marino,,,,,,101,9,9,"adventure,childrens,fantasy,fiction,gothic,juvenile,magic,middle-grade,mystery,mystery-thriller,paranormal,unfinished,young-adult"
18528001,1623840023,Humana Festival 2013: The Complete Plays,9781623840020,,,,ES,2014/4/15,"Playscripts, Inc.",,false,1,18528001,26,56,16,0,2014/5/13,,,1,8,5,2,0,3.50,400,Paperback,,16,0,,,,"Amy Wegener,Sarah Lunnie",,,7,0,1,plays
18528501,,The Rules of Comedy,,,,,ES,,,,false,1,18528501,7,10,4,0,,,book,0,0,2,2,0,2.50,,,,4,0,Peter Bloedel,,,,,,2,0,1,
18529001,9789647886,جنایت و مکافات,,,,,ES,2011/1/1,انتشارات مهتاب,per,false,2182,7144,1018597,2214695,527105,15292,1866/1/1,Преступление и наказание,book,259258,160185,73458,23087,11117,4.20,775,Hardcover,,4,1,Fyodor Dostoyevsky,,,,,,378963,2280,39799,"adult,adult-fiction,classic-literature,classics,crime,drama,fiction,high-school,historical,historical-fiction,literary-fiction,literature,mystery,novels,philosophy,psychology,school,unfinished"
18529501,,Los Iniciados (Clanes #1),9788494134845,,,,ES,2012/10/25,Ediciones Kiwi,spa,false,4,17279295,117,195,54,24,2010/1/1,,book,13,18,14,7,2,3.61,344,Paperback,,1,1,Lucía Arca Sancho-Arroyo,,,,,,58,2,,vampires
18530001,1280694084,Energy-Resource Maps,9781280694080,,,,ES,2013/5/15,Rosen Publishing Group,,true,5,14500419,0,0,0,0,2012/1/1,,,0,0,0,0,0,0.00,34,ebook,,0,0,"Jack Gillett,Meg Gillett",,,,,,,0,,
18530501,1282273639,Winston's War: A Novel of Conspiracy,9781282273634,,,,ES,2014/5/10,Sourcebooks Landmark,,true,20,870763,3389,5709,1480,137,2002/11/4,Winston's War,book,404,614,351,69,42,3.86,589,ebook,,0,0,Michael Dobbs,,,,,,1569,13,94,"biography,fiction,historical,historical-fiction,history,non-fiction,novels,politics,thriller,unfinished,war"
18531001,1282693085,Crafting a Compiler,9781282693081,,,,ES,2013/5/15,Addison-Wesley Professional,,true,6,6152082,68,78,21,2,1988/1/1,Crafting A Compiler,book,5,9,3,4,0,3.71,712,ebook,,0,0,"Charles N. Fischer,Richard J. LeBlanc Jr.,Ron K Cytron",,,,,,24,1,2,"reference,textbooks"
18531501,1283270188,MR Badger and the Magic Mirror,9781283270182,,,,ES,2013/5/15,Allen & Unwin Australia,,true,4,12447799,26,51,13,5,2011/1/1,,book,4,4,5,0,0,3.92,80,ebook,,0,0,Leigh Hobbs,,,,,,9,0,,middle-grade
18532001,1283659662,The Return of the Prodigal,9781283659666,,,,ES,2013/5/15,Harlequin,,true,20,1217169,679,1139,297,13,2007/1/1,The Return of the Prodigal,book,81,113,79,21,3,3.84,,ebook,,0,0,Kasey Michaels,,,,,,234,8,10,"chick-lit,fiction,harlequin,historical,regency,romance"
18532501,1283668823,Against the Night,9781283668828,,,,ES,2013/5/15,Mira Books,,true,13,12439834,4265,10086,2442,156,2012/1/1,"Against the Night (The Raines of Wind Canyon, #5)",book,938,992,424,68,20,4.13,,ebook,,0,0,Kat Martin,,,,,,1055,13,87,"action,adult,adult-fiction,chick-lit,contemporary,crime,fiction,mystery,mystery-thriller,romance,suspense,thriller"
18533001,128368036X,Week Till the Wedding,9781283680363,,,,ES,2014/12/11,Harlequin Special Edition,,true,8,13546863,99,114,35,7,2012/1/1,,book,3,6,23,3,0,3.26,,ebook,,0,0,Linda Winstead Jones,,,,,,50,5,1,"chick-lit,contemporary,romance"
18533501,1283696622,"The Terror of Black Eagle Tavern (The Paranormalists, #2)",9781283696623,,,,ES,2013/2/21,Lerner Classroom,,true,8,13796792,112,186,53,11,2012/1/1,,book,12,13,20,6,2,3.51,108,ebook,,0,0,Megan Atwood,,,,,,40,5,2,"ghosts,horror,mystery,paranormal,supernatural,teen,young-adult"
18534001,1283957973,Radical Frame Semantics and Biblical Hebrew: Exploring Lexical Semantics,9781283957977,,,,ES,2014/5/10,Brill Academic Publishers,,true,3,18534001,0,0,0,0,2011/1/1,,,0,0,0,0,0,0.00,406,ebook,,0,0,Stephen Shead,,,,,,,0,,
18534501,1299189911,Guide to Project Management: Getting It Right and Achieving Lasting Benefit,9781299189911,,,,ES,2013/1/1,John Wiley & Sons,,true,9,2473873,91,57,17,3,2007/7/26,Guide to Project Management (Economist Books),,4,3,7,1,2,3.35,370,ebook,,0,0,Paul Roberts,,,,,,54,1,1,"business,science"
18535001,,Den bestøvlede Kat,,,,,ES,1979/1/1,Bogklubben Børnenes Bogpakke,dan,false,2,18535001,3,3,1,0,1979/1/1,,book,0,0,1,0,0,3.00,30,Hardcover,,0,0,"Jacob Grimm,Wilhelm Grimm",,,,,,1,0,,
18535501,1299419968,Writing Postcolonial Histories of Intercultural Education,9781299419964,,,,ES,2012/1/1,Peter Lang Publishing,,true,1,18535501,0,0,0,0,2012/1/1,,,0,0,0,0,0,0.00,319,ebook,,0,0,,,,"Christian Ydesen,Heike Niedrig",,,,0,,
18536001,1299427707,Germanistische Sprachwissenschaft Und Deutschunterricht in Chinesisch-Deutscher Perspektive,9781299427709,,,,ES,2011/1/1,Peter Lang Publishing,,true,1,18536001,0,0,0,0,2011/1/1,,,0,0,0,0,0,0.00,458,ebook,,0,0,,,,"Jianhua Zhu,Rudolf Hoberg",,,,0,,
18536501,1299435513,Partizipatorisches Marketing Privater Hochschulen: Corporate Identity ALS Ziel Von Bildungsmarketing,9781299435513,,,,ES,2013/3/30,Peter Lang Publishing,,true,1,18536501,0,0,0,0,2011/1/1,,,0,0,0,0,0,0.00,116,ebook,,0,0,Leonard Wehr,,,,,,,0,,
18537001,1299444482,"War with Iran: Political, Military, and Economic Consequences",9781299444485,,,,ES,2013/5/3,Rowman & Littlefield Publishers,,true,5,17293920,8,0,0,0,2013/1/1,,,0,0,0,0,0,0.00,265,ebook,,0,0,"Geoffrey Kemp,John Allen Gay",,,,,,7,0,,
18537501,1299460038,Research on Classroom Ecologies: Implications for Inclusion of Children with Learning Disabilities,9781299460034,,,,ES,2014/5/19,Routledge,,true,5,18537501,0,0,0,0,2013/1/1,,,0,0,0,0,0,0.00,313,ebook,,0,0,,,,"Barbara K. Keogh,Deborah L. Speece",,,,0,,
18538001,1299471358,The Vincent Kartheiser Handbook - Everything You Need to Know about Vincent Kartheiser,9781299471351,,,,ES,2013/1/1,Emereo Publishing,,true,3,17850341,3,1,1,0,2013/1/1,,,0,0,0,0,1,1.00,134,ebook,,0,0,Emily   Smith,,,,,,2,0,,
18538501,1299483585,Forbidden Music: The Jewish Composers Banned by the Nazis,9781299483583,,,,ES,2013/4/26,Yale University Press,,true,4,16073193,95,112,27,9,2013/1/1,,,11,11,4,0,1,4.15,371,ebook,,0,0,Michael Haas,,,,,,58,0,3,"academic,history,music"
18539001,1299545327,Jquery Game Development Essentials,9781299545328,,,,ES,2014/5/22,Packt Publishing,,true,3,17872138,19,25,6,3,2013/1/1,,book,2,3,1,0,0,4.17,244,ebook,,0,0,Selim Arsever,,,,,,10,1,2,
18539501,1299555845,Shoplifting from American Apparel,9781299555846,,,,ES,2014/5/10,Melville House Publishing,,true,9,6096464,6544,10414,3345,380,2009/7/1,Shoplifting from American Apparel,book,408,847,1133,630,327,3.11,,ebook,,1,0,Tao Lin,,,,,,2548,34,41,"american,autobiography,biography,contemporary,fiction,grad-school,humor,literature,memoir,modern,non-fiction,novella,novels,poetry,short-stories"
18540001,1299565867,Grave Secrets of Dinosaurs: Soft Tissues and Hard Science,9781299565869,,,,ES,2014/5/10,National Geographic Society,,true,10,2200826,468,543,154,31,2008/1/1,Grave Secrets of Dinosaurs: Soft Tissues and Hard Science,,31,47,51,22,3,3.53,,ebook,,0,0,Phillip Manning,,,,,,117,11,21,"animals,history,non-fiction,reference,science,travel"
18540501,1299577806,Law of Return,9781299577800,,,,ES,2014/5/10,Soho Crime,,true,5,248542,324,759,195,30,2004/1/1,Law of Return,book,36,105,52,1,1,3.89,,ebook,,1,0,Rebecca Pawel,,,,,,86,8,4,"crime,fiction,historical,historical-fiction,murder-mystery,mystery,mystery-thriller,politics,thriller,war"
18541001,1299600093,"Welcome to America, Champ",9781299600096,,,,ES,2013/1/1,Sleeping Bear Press,,true,5,16276962,44,96,24,12,2013/1/1,,,9,8,5,2,0,4.00,34,ebook,,0,0,Catherine Stier,,,,,,11,2,,"family,historical-fiction,history,picture-books,school,travel"
18541501,1299613012,Glaciers,9781299613010,,,,ES,2013/5/22,Routledge,,true,6,17988828,1,0,0,0,2013/1/1,,,0,0,0,0,0,0.00,273,ebook,,0,0,Peter Knight,,,,,,1,0,,
18542001,129962345X,Gender and Agrarian Reforms,9781299623453,,,,ES,2014/5/10,Routledge,,true,8,3150185,4,4,1,0,2008/8/1,Gender and Agrarian Reforms (Routledge International Studies of Women & Place),,0,1,0,0,0,4.00,269,ebook,,0,0,Susie Jacobs,,,,,,3,0,,
18542501,1299630448,I've Got 10!: Understanding Addition,9781299630444,,,,ES,2013/6/1,Rosen Classroom,,true,3,18542501,0,0,0,0,2013/1/1,,,0,0,0,0,0,0.00,18,ebook,,0,0,Jaime Guzman,,,,,,,0,,
18543001,1299638341,Engraving Virtue: The Printing History of a Premodern Korean Moral Primer,9781299638341,,,,ES,2013/7/17,Brill Academic Publishers,,true,3,18066491,4,3,1,0,2013/1/1,,,0,0,1,0,0,3.00,309,ebook,,0,0,Young Kyun Oh,,,,,,3,0,,
18543501,1299645798,Florida Studies: Proceedings of the 2006 Annual Meeting of the Florida College English Association (Revised),9781299645790,,,,ES,2014/5/10,Cambridge Scholars Publishing,,true,3,18543501,0,0,0,0,2007/9/1,,,0,0,0,0,0,0.00,234,ebook,,0,0,,,,Claudia Slate,,,,0,,
18544001,1299653839,Syria - Culture Smart!: The Essential Guide to Customs & Culture,9781299653832,,,,ES,2014/5/10,Kuperard,,true,4,9643755,17,30,7,1,2010/1/1,,,2,5,0,0,0,4.29,,ebook,,0,0,Sarah Standish,,,,,,8,0,1,
18544501,1299662595,Basic Methods of Soliton Theory,9781299662599,,,,ES,2014/5/10,World Scientific Publishing Company,,true,1,18544501,0,0,0,0,1996/1/1,,,0,0,0,0,0,0.00,264,ebook,,0,0,Ivan V Cherednik,,,,,,,0,,
18545001,129967092X,Quantum Probability and Related Topics: Qp a Pq (Volume VII),9781299670921,,,,ES,2014/5/10,World Scientific Publishing Company,,true,1,18545001,0,0,0,0,1991/1/1,,,0,0,0,0,0,0.00,394,ebook,,0,0,,,,Luigi Accardi,,,,0,,
18545501,,London Calling (The Wynter Mysteries),,,,,ES,2013/1/1,Lion Publishing,eng,false,3,20349691,30,11,4,0,2013/1/1,,book,0,1,2,0,1,2.75,,,,1,0,Jason Dixon,,,,,,24,0,,
18546001,1299687318,Volcanism and Subduction: The Kamchatka Region,9781299687318,,,,ES,2014/5/19,American Geophysical Union,,true,4,18546001,2,0,0,0,2013/1/1,,,0,0,0,0,0,0.00,379,ebook,,0,0,,,,"Evgenii Gordeev,John Eichelberger,Jonathan  Lees,Minoru Kasahara,Pavel Izbekov",,,2,0,,
18546501,1299697844,Decisions Without Hierarchy: Feminist Interventions in Organization Theory and Practice,9781299697843,,,,ES,2013/6/26,Routledge,,true,5,18546501,1,0,0,0,2013/1/1,,,0,0,0,0,0,0.00,149,ebook,,0,0,Kathleen Iannello,,,,,,1,0,,
18547001,1299740588,"Introduction to Addictive Behaviors, Fourth Edition",9781299740587,,,,ES,2013/12/16,Guilford Publications,,true,12,573711,105,165,45,3,1994/1/10,Introduction to Addictive Behaviors (Guilford Substance Abuse Series),book,9,18,13,4,1,3.67,434,ebook,,0,0,"Cynthia J. Osborn,Dennis L. Thombs",,,,,,28,2,11,"health,psychology,reference"
18547501,1299776272,City Capital and Water,9781299776272,,,,ES,2014/5/19,Routledge,,true,5,18547501,0,0,0,0,1997/1/7,,,0,0,0,0,0,0.00,287,ebook,,0,0,Patrick Malone,,,,,,,0,,
18548001,1299786065,Deconstitutionalization of America: The Forgotten Frailties of Democratic Rule,9781299786066,,,,ES,2014/5/10,Lexington Books,,true,5,7056507,1,5,1,0,2004/1/1,,,1,0,0,0,0,5.00,173,ebook,,0,0,"David E. Marion,James F. Pontuso,John H. Eastby,Joseph H. Lane Jr.,Roger M. Barrus",,,,,,,0,,
18548501,1299794025,Governing European Communications: From Unification to Coordination,9781299794023,,,,ES,2014/5/10,Lexington Books,,true,5,18548501,0,0,0,0,2007/1/1,,,0,0,0,0,0,0.00,367,ebook,,0,0,Maria Michalis,,,,,,,0,,
18549001,129980134X,Paper Crafts,9781299801349,,,,ES,2013/8/20,PowerKids Press,,true,2,18382677,0,0,0,0,2013/1/1,,,0,0,0,0,0,0.00,34,ebook,,0,0,Gini Holland,,,,,,,0,,
18549501,1299810128,Colloquial Turkish: The Complete Course for Beginners,9781299810129,,,,ES,2014/5/20,Routledge,,true,5,18549501,0,0,0,0,2013/1/1,,,0,0,0,0,0,0.00,353,ebook,,0,0,Sinan Bayraktaroglu,,,,,,,0,,
18550001,1299818277,Late Prehistoric Florida: Archaeology at the Edge of the Mississippian World,9781299818279,,,,ES,2013/8/29,University Press of Florida,,true,4,13192841,16,29,7,0,2012/1/1,,book,3,2,2,0,0,4.14,413,ebook,,0,0,,,,"Keith Ashley,Nancy Marie White",,,5,0,,"anthropology,history"
18550501,1299827306,Why the West Fears Islam: An Exploration of Muslims in Liberal Democracies,9781299827301,,,,ES,2013/9/4,Palgrave MacMillan,,true,3,18550501,35,10,3,0,2013/1/1,,,0,1,2,0,0,3.33,405,ebook,,3,0,Jocelyne Cesari,,,,,,29,2,1,"society,sociology"
18551001,1299842364,The Logic of Law Making in Islam,9781299842366,,,,ES,2014/5/9,Cambridge University Press,,true,5,17466979,47,22,5,1,2012/1/1,,,3,1,1,0,0,4.40,242,ebook,,0,0,Behnam Sadeghi,,,,,,29,0,4,"non-fiction,philosophy,religion"
18551501,1299860087,S-Bpm Illustrated: A Storybook about Business Process Modeling and Execution,9781299860087,,,,ES,2013/9/18,Springer,,true,4,19350662,1,0,0,0,2013/1/1,,,0,0,0,0,0,0.00,144,ebook,,0,0,"Albert Fleischmann,Robert Singer",,,,,,,0,,
18552001,1299868304,Composing Social Identity in Written Language,9781299868304,,,,ES,2013/9/17,Routledge,,true,4,18552001,0,0,0,0,2013/1/1,,,0,0,0,0,0,0.00,261,ebook,,0,0,,,,Donald L. Rubin,,,,0,,
18552501,0199608377,Money (Les Rougon-Macquart #18),9780199608379,,,,ES,2014/3/1,Oxford University Press,eng,false,149,115069,3002,5433,1384,94,1891/1/1,L'Argent,book,446,524,306,81,27,3.93,432,Paperback,Oxford World’s Classics,93,20,Émile Zola,,,,Valerie Minogue,,1278,10,40,"adult-fiction,classic-literature,classics,fiction,france,historical-fiction,literary-fiction,literature,novels,poetry"
18553001,0547879490,Math in Focus: Singapore Math: Teacher's Edition Set Grade 3 2013,9780547879499,,,,ES,2012/4/5,Great Source Education Group,,false,1,18553001,0,0,0,0,2012/4/5,,,0,0,0,0,0,0.00,,Hardcover,,0,0,,,,,,,,0,,
18553501,066949044X,Great Source Write Traits: Teacher's Guide Grade 5 2002,9780669490442,,,,ES,2002/1/23,Great Source Education Group,,false,1,18553501,0,0,0,0,2002/1/23,,,0,0,0,0,0,0.00,240,Paperback,,0,0,,,,,,,,0,,
18554001,0669543225,Great Source Summer Success Reading: Teacher Edition Grade 3 2008,9780669543223,,,,ES,2007/3/26,Great Source Education Group,,false,1,18554001,0,0,0,0,2007/3/26,,,0,0,0,0,0,0.00,216,Paperback,,0,0,,,,,,,,0,,
18554501,0769863760,Skills & Values: The First Amendment (2013),9780769863764,,,,ES,,,,false,1,18554501,0,0,0,0,2013/7/1,,,0,0,0,0,0,0.00,,,,0,0,Charles W. Rhodes,,,,,,,0,,
18555001,1107027489,Ennius and the Architecture of the Annales,9781107027480,,,,ES,2015/2/9,Cambridge University Press,,false,5,18555001,6,5,1,0,2013/1/1,,,1,0,0,0,0,5.00,606,Hardcover,,1,0,Jackie  Elliott,,,,,,4,0,,classics
18555501,1118821505,Credit Repair Kit for Dummies,9781118821503,,,,ES,2014/3/13,For Dummies,,true,20,19819157,148,122,35,5,2005/11/14,,book,9,9,11,2,4,3.49,416,ebook,,0,0,Steve Bucci,,,,,,65,2,18,"business,non-fiction,reference"
18556001,1135204357,Why Fairy Tales Stick: The Evolution and Relevance of a Genre,9781135204358,,,,ES,2013/9/13,Routledge,,true,10,207106,482,388,102,9,2006/1/1,Why Fairy Tales Stick: The Evolution and Relevance of a Genre,book,27,40,23,12,0,3.80,352,ebook,,0,0,Jack D. Zipes,,,,,,327,12,4,"fairy-tales,history,mythology,non-fiction,reference,research,teaching,unfinished"
18556501,1135754160,Turkish Immigrants in Western Europe and North America: Immigration and Political Mobilization,9781135754167,,,,ES,2013/9/13,Routledge,,true,6,18556501,2,0,0,0,2012/3/22,,,0,0,0,0,0,0.00,200,ebook,,0,0,,,,Sebnem Koser Akcapar,,,2,0,,
18557001,1136749136,Whose Welfare,9781136749131,,,,ES,2013/9/13,Routledge,,true,5,18557001,0,0,0,0,2013/1/1,,,0,0,0,0,0,0.00,169,ebook,,0,0,Tony Cole,,,,,,,0,,
18557501,1283299976,Digital Condition: Class and Culture in the Information Network,9781283299978,,,,ES,2014/5/10,"Oxford University Press, USA",,true,5,12527796,14,22,6,2,2011/1/1,,book,1,3,1,1,0,3.67,272,ebook,,0,0,Rob Wilkie,,,,,,6,0,2,technology
18558001,1299424058,Die Literatur Der Literaturtheorie,9781299424050,,,,ES,2011/1/1,Heinemann Publishing,,true,3,16257291,0,0,0,0,2010/4/12,,,0,0,0,0,0,0.00,203,ebook,,0,0,,,,Boris Previsic,,,,0,,
18558501,1299449786,"Four British Fantasists: Place and Culture in the Children's Fantasies of Penelope Lively, Alan Garner, Diana Wynne Jones, and Susan Cooper",9781299449787,,,,ES,2014/5/10,Scarecrow Press,,true,4,47566,175,134,31,9,2006/4/28,"Four British Fantasists: Place and Culture in the Children's Fantasies of Penelope Lively, Alan Garner, Diana Wynne Jones, and Susan Cooper",book,16,10,4,1,0,4.32,322,ebook,,1,0,Charles Butler,,,,,,117,2,8,"academic,childrens,criticism,essays,fantasy,historical-fiction,non-fiction,reference,research,writing"
18559001,1299480756,"Gender and Urban Development: Gender in European Towns, 1640-1830",9781299480759,,,,ES,2013/4/30,Routledge,,true,3,16233845,0,0,0,0,2013/1/1,,,0,0,0,0,0,0.00,294,ebook,,0,0,,,,"Anne Montenach,Deborah Simonton",,,,0,,
18559501,1299560385,Timber,9781299560383,,,,ES,2013/1/1,Polity Press,,true,1,18559501,0,0,0,0,2013/1/1,,,0,0,0,0,0,0.00,210,ebook,,0,0,Jane Lister,,,,,,,0,,
18560001,1299591906,Wyvern's Spur,9781299591905,,,,ES,2012/1/1,Wizards of the Coast,,true,11,1262591,2748,6493,1719,39,1990/1/1,The Wyvern's Spur (Finder's Stone #2),book,448,598,522,144,7,3.78,,ebook,,0,0,Kate Novak,,,,,,522,7,13,"adventure,epic,fantasy,fiction,high-fantasy,speculative-fiction,young-adult"
18560501,1299627013,Sociogenetic Perspectives on Internalization,9781299627017,,,,ES,2014/5/19,Psychology Press,,true,6,18560501,0,0,0,0,1997/5/1,,book,0,0,0,0,0,0.00,275,ebook,,0,0,,,,"Brian D. Cox,Cynthia Lightfoot",,,,0,,
18561001,1299648401,Knowledge Translation in Health Care: Moving from Evidence to Practice (Revised),9781299648401,,,,ES,2014/3/19,Bmj Publishing Group,,true,13,6585720,19,11,3,1,2009/4/1,Knowledge Translation in Health Care: Moving from Evidence to Practice,book,1,1,0,1,0,3.67,426,ebook,,0,0,,,,"Ian D. Graham,Jacqueline Tetroe,Sharon E. Straus",,,10,0,2,"non-fiction,science"
18561501,1299673961,"On Freud's ""Analysis Terminable and Interminable'",9781299673960,,,,ES,2013/6/22,Karnac Books,,true,7,2197296,14,19,4,2,1991/6/1,"On Freud's ""Analysis Terminable & Interminable"" (Contemporary Freud Ser.)",book,3,1,0,0,0,4.75,186,ebook,,0,0,,,,Joseph Sandler,,,1,0,,"non-fiction,psychology"
18562001,1299698638,Intentional Forgetting: Interdisciplinary Approaches,9781299698635,,,,ES,2014/5/19,Psychology Press,,true,8,20093568,2,5,1,0,1997/10/1,,,1,0,0,0,0,5.00,513,ebook,,0,0,,,,"Colin M. MacLeod,Jonathan M. Golding",,,1,0,,
18562501,1299785611,Pacific Asia?: Prospects for Security and Cooperation in East Asia,9781299785618,,,,ES,2014/5/10,Rowman & Littlefield Publishers,,true,5,2045904,0,0,0,0,2001/1/1,Pacific Asia: Prospects for Security and Cooperation in East Asia,,0,0,0,0,0,0.00,269,ebook,,0,0,Melvin Gurtov,,,,,,,0,,
18563001,1299808263,The Arabic Influence on Northern Berber,9781299808263,,,,ES,2013/8/27,Brill Academic Publishers,,true,3,18102628,2,0,0,0,2013/1/1,,book,0,0,0,0,0,0.00,473,ebook,,0,0,Maarten Kossmann,,,,,,2,0,,
18563501,129983311X,Building Ideas: An Architectural Guide to the University of Chicago,9781299833111,,,,ES,2013/9/24,University of Chicago Press,,true,3,16143862,17,34,8,0,2013/1/1,,,4,3,0,1,0,4.25,177,ebook,,0,0,Jay Pridmore,,,,,,6,0,,art
18564001,1299868266,"Artificial Hearing, Natural Speech: Cochlear Implants, Speech Production, and the Expectations of a High-Tech Society",9781299868267,,,,ES,2014/5/20,Routledge,,true,7,1548637,0,0,0,0,2007/6/27,"Artificial Hearing, Natural Speech: Cochlear Implants, Speech Production, and the Expectations of a High Tech Society (Studies in Linguistics)",,0,0,0,0,0,0.00,161,ebook,,0,0,Joanna Hart Lowenstein,,,,,,,0,,
18564501,1317922271,Beyond Measure: Neglected Elements of Accountability,9781317922278,,,,ES,2013/9/13,Routledge,,true,6,1267769,1,5,1,0,2004/3/1,Beyond Measure: Neglected Elements of Accountability in Schools,book,1,0,0,0,0,5.00,272,ebook,,0,0,Patricia E. Holland,,,,,,,0,,
18565001,1317992490,Community Organizing Against Homophobia and Heterosexism: The World Through Rainbow-Colored Glasses,9781317992493,,,,ES,2013/9/13,Routledge,,true,3,18565000,1,0,0,0,2013/9/13,,,0,0,0,0,0,0.00,128,ebook,,0,0,Samantha Wehbi,,,,,,1,0,,
18565501,1447110560,Practical Biometrics: From Aspiration to Implementation,9781447110569,,,,ES,2013/10/3,Springer,,false,6,2621452,1,3,1,0,2003/11/18,Practical Biometrics: From Aspiration to Implementation,,0,0,1,0,0,3.00,159,Paperback,,0,0,Julian Ashbourn,,,,,,,0,,
18566001,146126703X,Integrable Systems: The Verdier Memorial Conference Actes Du Colloque International de Luminy,9781461267034,,,,ES,2012/11/1,Birkhauser,,false,1,18566001,0,0,0,0,2012/11/1,,,0,0,0,0,0,0.00,370,Paperback,,0,0,,,,"P Cartier,V Babelon,Y Kosmann-Schwarzbach",,,,0,,
18566501,1461351561,"Economic Studies on Food, Agriculture, and the Environment",9781461351566,,,,ES,2013/3/22,Springer,,false,3,18566501,1,0,0,0,2002/1/1,,,0,0,0,0,0,0.00,369,Paperback,,0,0,,,,"K. William Easter,Maurizio Canavari,Paolo Caggiati",,,1,0,,
18567001,1461378842,The Practice of Quality Management,9781461378846,,,,ES,2012/11/1,Springer,,false,2,19676151,0,0,0,0,1997/2/28,,,0,0,0,0,0,0.00,320,Paperback,,0,0,,,,"Phillip J. Lederer,Uday Karmarkar",,,,0,,
18567501,1468498908,Real and Abstract Analysis: A Modern Treatment of the Theory of Functions of a Real Variable,9781468498905,,,,ES,2013/4/26,Springer,,false,8,3992197,23,44,9,0,1965/1/1,Real and Abstract Analysis (Graduate Texts in Mathematics),,8,1,0,0,0,4.89,478,Paperback,,0,0,"Edwin Hewitt,Karl Stromberg",,,,,,10,0,1,textbooks
18568001,1475779194,Content-Based Analysis of Digital Video,9781475779196,,,,ES,2013/4/23,Springer,,false,3,6915905,1,0,0,0,2004/1/1,,,0,0,0,0,0,0.00,193,Paperback,,0,0,Alan Hanjalic,,,,,,,0,,
18568501,1480576468,A Princess of Mars,9781480576469,,,,ES,2014/3/11,Speculative!,,false,792,40395,84627,177883,46775,3285,1912/2/7,A Princess of Mars,book,12685,17090,13021,3056,923,3.80,7,Audio CD,,2,0,Edgar Rice Burroughs,,,,,,29256,101,3139,"action,adult,adult-fiction,adventure,aliens,american,classic-literature,classics,fantasy,fiction,literature,novels,romance,science,science-fiction,science-fiction-fantasy,speculative-fiction,unfinished,young-adult"
18569001,149238822X,What Should I Be on Halloween?,9781492388227,,,,ES,2013/9/14,Createspace Independent Publishing Platform,,false,1,18569001,0,0,0,0,2013/9/14,,,0,0,0,0,0,0.00,28,Paperback,,0,0,Dr Julia,,,,,,,0,,
18569501,161921878X,"Protecting His Assets (Deuces Wild, #1)",9781619218789,,,,ES,2014/1/14,Samhain Publishing,,true,4,18528771,656,637,177,25,2014/1/14,Protecting His Assets,book,32,68,58,12,7,3.60,244,ebook,,7,0,Cari Quinn,,,,,,392,15,2,"adult,contemporary,erotica,love-story,music,romance,sports"
18570001,1628392851,With Trust Comes Hope,9781628392852,,,,ES,2013/9/6,Xulon Press,,false,1,18570001,0,0,0,0,2013/9/6,,,0,0,0,0,0,0.00,72,Paperback,,0,0,Verna McKelvin,,,,,,,0,,
18570501,3034871309,"Progress in Drug Research, Volume 34",9783034871303,,,,ES,2013/10/3,Birkhauser,,false,3,18570501,0,0,0,0,1990/1/1,,,0,0,0,0,0,0.00,547,Paperback,,0,0,Ernst Jucker,,,,,,,0,,
18571001,3527332278,"Advances in Electrochemical Science and Engineering, Volume 14: Electrocatalysis: Theoretical Foundations and Model Experiments",9783527332274,,,,ES,2014/1/13,Wiley-VCH Verlag GmbH,,false,5,18571001,0,0,0,0,2013/1/1,,book,0,0,0,0,0,0.00,303,Hardcover,,0,0,,,,"Dieter M. Kolb,Jacek Lipkowski,Richard C. Alkire",,,,0,,
18571501,3642624685,"Perspectives on Web Services: Applying Soap, Wsdl and UDDI to Real-World Projects",9783642624681,,,,ES,2013/10/3,Springer,,false,1,18571501,1,0,0,0,2013/12/31,,,0,0,0,0,0,0.00,648,Paperback,,0,0,"Mark Tomlinson,Olaf Zimmermann,Stefan Peuser",,,,,,1,0,,
18572001,364264631X,Pharmacological Aspects of Drug Dependence: Toward an Integrated Neurobehavioral Approach,9783642646317,,,,ES,2011/9/16,Springer,,false,2,18572001,0,0,0,0,1996/2/16,,,0,0,0,0,0,0.00,658,Paperback,,0,0,,,,"Charles R. Schuster,Michael J. Kuhar",,,,0,,
18572501,3642881823,Sichtbares Und Unsichtbares Licht,9783642881824,,,,ES,2012/3/15,Springer,,false,2,18572501,0,0,0,0,1952/1/1,,,0,0,0,0,0,0.00,168,Paperback,,0,0,E. Ruchardt,,,,,,,0,,
18573001,3662141752,"Black Holes: Theory and Observation: Proceedings of the 179th W.E. Heraeus Seminar Held at Bad Honnef, Germany, 18-22 August 1997",9783662141755,,,,ES,2013/10/3,Springer,,false,3,206503,4,0,0,0,1998/1/1,"Black Holes: Theory and Observation: Proceedings of the 179th W.E. Heraeus Seminar Held at Bad Honnef, Germany, 18-22 August 1997 (Lecture Notes in Physics)",book,0,0,0,0,0,0.00,519,Paperback,,0,0,,,,"Claus Kiefer,Friedrich W. Hehl,Ralph J K Metzler",,,3,0,,
18573501,3709151015,Wirtschaftsgeologie Der Erze,9783709151013,,,,ES,2012/2/12,Springer,,false,2,18573501,0,0,0,0,1967/1/1,,,0,0,0,0,0,0.00,348,Paperback,,0,0,Slobodan Jankovic,,,,,,,0,,
18574001,3709194784,Sprachloses Leid: Wege Zu Einer Kommunikativen Medizin. Die Heilsame Kraft Des Wortes,9783709194782,,,,ES,2012/1/10,Springer,,false,2,18574001,0,0,0,0,1998/6/25,,,0,0,0,0,0,0.00,193,Paperback,,0,0,Maximilian Gottschlich,,,,,,,0,,
18574501,3824490080,Mediengestutztes Bildungsmanagement: Virtuelle Lernwelten Fur Unternehmen,9783824490080,,,,ES,1999/5/21,Deutscher Universitatsverlag,,false,1,18574501,0,0,0,0,1999/5/21,,,0,0,0,0,0,0.00,224,Paperback,,0,0,Jörg Sander,,,,,,,0,,
18575001,9400963742,"Double Stars, Physical Properties and Generic Relations: Proceeding of Iau Colloquium No. 80 Held at Lembang, Java 3 7 June 1983",9789400963740,,,,ES,2011/12/21,Springer,,false,3,176054,2,0,0,0,1899/5/1,"Double Stars, Physical Properties and Generic Relations (I a U Colloquium//Proceedings)",,0,0,0,0,0,0.00,416,Paperback,,0,0,,,,"B. Hidayat,Jürgen H. Rahe,Zdenek Kopal",,,2,0,,
18575501,9400982038,Apriori and World: European Contributions to Husserlian Phenomenology,9789400982031,,,,ES,2011/10/13,Springer,,false,1,18575501,0,0,0,0,2011/10/13,,,0,0,0,0,0,0.00,244,Paperback,,0,0,,,,"L E Winters,R M Harlan",,,,0,,
18576001,9401014922,"Renormalization Theory: Proceedings of the NATO Advanced Study Institute Held at the International School of Mathematical Physics at the Ettore Majorana Centre for Scientific Culture in Erice (Sicily) Italy, 17 31 August, 1975",9789401014922,,,,ES,2011/10/12,Springer,,false,1,18576001,0,0,0,0,2011/10/12,,book,0,0,0,0,0,0.00,482,Paperback,,0,0,,,,"Arthur S. Wightman,Giorgio Velo",,,,0,,
18576501,9401039674,Encephalopathy and Nitrogen Metabolism in Liver Failure,9789401039673,,,,ES,2012/11/22,Springer,,false,3,1730474,1,0,0,0,2003/5/31,Encephalopathy and Nitrogen Metabolism in Liver Failure,book,0,0,0,0,0,0.00,437,Paperback,,0,0,,,,"Alfred J. Meijer,E. Anthony Jones,Robert A.F.M. Chamuleau",,,1,0,,
18577001,9401065357,Mexican Studies in the History and Philosophy of Science,9789401065351,,,,ES,2011/12/10,Springer,eng,false,2,3888475,1,0,0,0,1995/11/30,Mexican Studies in the History and Philosophy of Science (Boston Studies in the Philosophy of Science),,0,0,0,0,0,0.00,292,Paperback,,0,0,,,,"Robert S. Cohen,Santiago Ramírez",,,,0,,
18577501,9401073457,Acid Waters in Wales,9789401073455,,,,ES,2011/11/5,Springer,,false,1,18577501,0,0,0,0,2011/11/5,,,0,0,0,0,0,0.00,338,Paperback,,0,0,"A.S. Gee,J H Stoner,R W Edwards",,,,,,,0,,
18578001,9401079412,Ischaemic Heart Disease,9789401079419,,,,ES,2011/10/28,Springer,,false,2,18578001,0,0,0,0,1987/1/31,,book,0,0,0,0,0,0.00,320,Paperback,,0,0,,,,K.M. Fox,,,,0,,
18578501,940108551X,Recent Developments in the Foundations of Utility and Risk Theory,9789401085519,,,,ES,2011/9/26,Springer,,false,1,18578501,1,0,0,0,2011/9/26,,,0,0,0,0,0,0.00,406,Paperback,,0,0,,,,"Aldo M Montesano,L Daboni,M Lines",,,1,0,,
18579001,9401163693,Commonsense Paediatrics,9789401163699,,,,ES,2012/2/12,Springer,,false,2,4894775,1,5,1,0,1986/5/31,Commonsense Paediatrics,book,1,0,0,0,0,5.00,288,Paperback,,0,0,"John   Fry,Margaret Pollak",,,,,,1,0,,
18579501,,"A Vault of Sins (Chaos Theory, #2)",,B00IDD9V7Y,,,ES,2014/9/16,Penguin/InterMix,,true,1,18579501,658,704,178,40,2014/9/16,,book,54,76,38,6,4,3.96,257,Kindle Edition,,178,40,Sarah Harian,,,,,,426,23,4,"chick-lit,dystopia,fiction,new-adult,romance,science-fiction,suspense"
18580001,0985727950,The Other Side of 30,9780985727956,,,,ES,2013/9/16,"New Renaissance Ink, LLC",,false,3,18580001,8,14,3,1,2013/9/16,,,2,1,0,0,0,4.67,342,Hardcover,,1,1,R y Swint,,,,,,4,0,2,
18580501,1463364970,Munequit,9781463364977,,,,ES,2013/9/18,Palibrio,,false,2,18580501,0,0,0,0,2013/9/18,,,0,0,0,0,0,0.00,106,Hardcover,,0,0,E.S. Aguirre,,,,,,,0,,
18581001,,Aeneid VI,,,,,ES,1948/1/1,Clarendon Press,lat,false,1,18581001,0,0,0,0,1948/1/1,,book,0,0,0,0,0,0.00,148,Hardcover,1948 Reprint,0,0,,,,Frank   Fletcher,,,,0,,
18581501,149270105X,Beneath the Rainbow,9781492701057,,,,ES,2013/9/18,Last Krystallos Publishing ,eng,false,5,18581501,81,166,35,22,2011/1/1,,book,28,5,2,0,0,4.74,176,Paperback,,21,16,Lisa Shambrook,,,,,,40,2,,"death,literary-fiction,paranormal,young-adult"
18582001,178217110X,Learning Aws Opsworks,9781782171102,,,,ES,2013/9/10,Packt Publishing,,false,3,18582001,22,40,11,3,2013/9/1,,book,4,2,3,1,1,3.64,126,Paperback,,11,3,Todd Rosner,,,,,,8,1,1,
18582501,3943233200,Meister Fur Veranstaltungstechnik - 300 PR Fungsfragen Zum 1. PR Fungsteil,9783943233209,,,,ES,2011/10/8,Sarastro Gmbh,,false,1,18582501,0,0,0,0,2011/10/8,,,0,0,0,0,0,0.00,248,Paperback,,0,0,,,,Sarastro Gmbh,,,,0,,
18583001,3426638185,"Ewige Verdammnis (The Demonata, #6)",9783426638187,,,,ES,2008/6/1,Knaur,ger,false,31,2164409,14495,37901,8913,253,2007/5/1,Demon Apocalypse,book,4357,2850,1369,272,65,4.25,272,Paperback,,5,0,Darren Shan,,,,Sabine Reinhardus,,1321,5,81,"action,adult,adventure,childrens,contemporary,demons,fantasy,fiction,horror,juvenile,magic,mystery,novels,paranormal,science-fiction,shapeshifters,supernatural,teen,thriller,time-travel,urban-fantasy,werewolves,young-adult"
18583501,1401382509,Down Came the Rain: My Journey Through Postpartum Depression,9781401382506,,,,ES,2005/5/3,Hyperion,,true,27,782614,5340,11801,3208,479,2005/5/3,Down Came the Rain: My Journey Through Postpartum Depression,book,720,1143,993,298,54,3.68,,ebook,,0,0,Brooke Shields,,,,,,902,19,53,"adult,autobiography,biography,biography-memoir,health,medical,memoir,mental-health,mental-illness,non-fiction,parenting,psychology,self-help"
18584001,,Stalingrado: o princípio do fim,,,,,ES,1974/1/1,Renes,por,false,7,1050696,87,156,46,6,1968/1/1,Stalingrad: The Turning Point,book,6,12,22,6,0,3.39,,Paperback,,1,0,Geoffrey Jukes,,,,,,23,2,,"history,non-fiction,war"
18584501,,"I. Die Ankunft (Whaligoe, #1)",9783941279933,,,,ES,2013/8/30,Piredda Verlag,ger,false,3,17451521,37,95,28,4,2013/1/1,,book,2,10,13,3,0,3.39,48,Hardcover,,2,0,"Virginie Augustin,Yann",,,,,,6,0,,"france,graphic-novels"
18585001,,Ruuhkataidot: iloa vanhemmuuteen,9789516564688,,,,ES,2013/1/1,Duodecim,fin,false,1,18585001,8,7,2,0,2013/1/1,,book,1,0,0,1,0,3.50,237,Paperback,,2,0,"Kaisla Joutsenniemi,Veera Mustonen",,,,,,4,0,,unfinished
18585501,,"Encontros com a civilização brasileira, 9",,,,,ES,1979/1/1,Civilização Brasileira,por,false,1,18585501,2,0,0,0,1979/1/1,,book,0,0,0,0,0,0.00,288,,,0,0,,,,,,,1,0,,
18586001,,Don't Stay Up So Late,9780982729304,,,,ES,2010/1/1,Blotch Books & 826Michigan,eng,false,1,18586001,15,9,2,2,2010/1/1,,book,1,1,0,0,0,4.50,203,Hardcover,,2,2,Thaddeus Blotch,,,,,,9,2,1,fiction
18586501,0099590336,Bridget Jones: Mad About the Boy,9780099590330,,,,ES,2014/4/3,Vintage,eng,false,95,17262155,75360,145403,43523,5777,2013/10/15,Mad About the Boy,book,6533,13012,15131,6450,2397,3.34,400,Paperback,,120,14,Helen Fielding,,,,,,22856,450,1316,"adult,adult-fiction,british-literature,chick-lit,comedy,contemporary,family,fiction,funny,humor,love,novels,realistic-fiction,relationships,romance,unfinished"
18587001,,Funcionario Público,,,,,ES,1956/1/1,Destino,spa,false,2,18587001,8,12,4,1,1956/1/1,,book,1,0,1,2,0,3.00,,,,2,0,Dolores Medio,,,,,,2,1,,
18587501,,אליפים,,,,,ES,,,,false,2,18729991,84,249,55,2,1982/1/1,אליפים,book,36,12,7,0,0,4.53,,,,4,0,"Esther Streit-Wurzel,אסתר שטרייט-וורצל",,,,,,3,0,,young-adult
18588001,5710777986,Детство,,,,,ES,2003/1/1,,rus,false,172,2359878,1518,2696,709,50,1852/1/1,,book,170,277,222,32,8,3.80,174,Hardcover,2,2,0,Leo Tolstoy,,,,,,529,8,37,"autobiography,biography,classic-literature,classics,fiction,literature,non-fiction,novella,novels"
18588501,3941657615,Der Bote: Ein Science-Fiction-Krimi aus der guten alten Zeit,9783941657618,,,,ES,2012/3/1,Conte,ger,false,1,18588501,8,21,5,1,2012/3/1,,book,1,4,0,0,0,4.20,169,Paperback,,5,1,Dieter Paul Rudolph,,,,,,2,1,,
18589501,,Nélküled,9789633101216,,,,ES,2012/1/1,Libri,hun,false,1,18589501,1,0,0,0,2012/1/1,,book,0,0,0,0,0,0.00,460,Paperback,,0,0,Singer Magdolna,,,,,,1,0,,
18590001,,"The Tavern-Keeper's Victims, or Six Nights with the Washingtonians",,,,,ES,1860/1/1,"Leary, Getz & Co.",eng,false,2,23380406,3,6,2,0,1848/1/1,,book,1,0,0,0,1,3.00,301,Leather Bound,,1,0,T.S. Arthur,,,,,,,0,,
18590501,,Thomas Ken:  Bishop and Non-Juror,,,,,ES,1964/1/1,SPCK,,false,1,18590501,1,3,1,1,1958/1/1,,book,0,0,1,0,0,3.00,238,Paperback,Great Anglicans Series,1,1,Hugh A. L. Rice,,,,,,,0,,"biography,christian,spirituality"
18591001,,The Boss's Office,,B00FD7P6IQ,,,ES,2013/9/21,,en-US,true,1,18591001,6,5,2,0,2013/9/21,The Boss's Office,book,0,0,1,1,0,2.50,18,Kindle Edition,,2,0,Megan West,,,,,,4,0,,
18591501,9171335501,Fantastiska uppfinningar,9789171335500,,,,ES,1999/1/1,Bra böcker,swe,false,4,3778406,30,15,4,0,1995/1/1,Great Inventions (Nature Company Discoveries Libraries),,0,3,1,0,0,3.75,64,Hardcover,,1,0,Richard Wood,,,,,,8,0,,"adult,history,juvenile,literature,science,young-adult"
18592501,3862652637,"111 Gründe, Borussia Dortmund zu lieben: Eine Liebeserklärung an den großartigsten Fußballverein der Welt",9783862652631,,,,ES,2013/9/2,Schwarzkopf & Schwarzkopf,ger,false,3,18592501,9,18,4,0,2013/9/2,,book,3,0,1,0,0,4.50,240,Paperback,,4,0,Daniel-C. Schmidt,,,,,,3,0,1,
18593501,,Devuélveme mi noche rota,9788415521044,,,,ES,2013/9/27,Sinerrata ediciones,spa,true,3,18593501,15,27,8,3,2013/9/27,,book,2,2,1,3,0,3.38,204,ebook,,7,3,José Morand,,,,,,6,1,,"autobiography,non-fiction"
18594001,,เปิดตำนานฮันนิบาล,9789748822563,,,,ES,2007/4/1,นานมีบุ๊คส์,tha,false,106,32416,60276,102801,29633,1523,2006/12/5,Hannibal Rising,book,6452,8301,9163,4131,1586,3.47,368,Paperback,,0,0,Thomas  Harris,,,,นันทพร ปีเลย์,,23359,88,617,"adult,adult-fiction,american,classics,contemporary,crime,dark,drama,fiction,historical-fiction,horror,mystery,mystery-thriller,novels,psychology,suspense,thriller"
18594501,1619633671,"Take Back the Skies (Tellus, #1)",9781619633674,,,,ES,2014/6/3,Bloomsbury USA Childrens,,false,8,18594501,4361,3168,909,267,2014/5/28,,book,229,235,251,136,58,3.49,384,Hardcover,,779,218,Lucy Saxon,,,,,,3093,46,29,"action,adventure,dystopia,fantasy,fiction,mystery,romance,science-fiction,steampunk,teen,young-adult"
18595001,8573025298,O castelo de Llyr (As aventuras de Prydain #3),9788573025293,,,,ES,2003/1/1,Objetiva,por,false,3,24779,42992,126818,31103,837,1966/3/3,The Castle of Llyr,book,11277,12115,6752,758,201,4.08,195,Paperback,,4,1,Lloyd Alexander,,,,Marta Miranda O'Shea,,1258,87,96,"action,adult,adventure,childrens,classics,epic-fantasy,fantasy,fiction,high-fantasy,juvenile,magic,middle-grade,mythology,novels,romance,science-fiction-fantasy,speculative-fiction,young-adult"
18595501,0755365860,The New 80 Minute MBA: Everything You'll Never Learn at Business School,9780755365869,,,,ES,2014/4/1,Headline Book Publishing,,false,1,18595501,52,54,17,2,2014/4/1,,,2,5,5,4,1,3.18,160,Paperback,,17,2,"John Knell,Richard Reeves",,,,,,26,0,5,
18596001,0749575018,Glovebox Atlas Britain,9780749575014,,,,ES,2013/12/1,Aa Publishing,,false,5,18596001,0,0,0,0,,,,0,0,0,0,0,0.00,96,Paperback,,0,0,A.A. Publishing,,,,,,,0,,
18596501,3802592603,"Ein Lord mit besten Absichten (Noble, #1)",9783802592607,,,,ES,2013/11/14,Egmont LYX,ger,false,22,50751,6406,13285,3480,322,2002/2/1,Noble Intentions,book,1023,1242,880,227,108,3.82,402,Klappenbroschur,,20,6,Katie MacAlister,,,,,,2115,26,65,"adult,chick-lit,comedy,family,fiction,funny,historical,historical-fiction,history,humor,love,mystery,regency,romance,unfinished"
18597001,0425188809,Watchers,,,,,ES,2003/1/1,The Berkley Publishing Group,en-US,false,110,32423,183427,540505,129624,3270,1987/2/2,Watchers,book,58060,42815,22962,4272,1515,4.17,483,Paperback,,277,48,Dean Koontz,,,,,,40420,379,2010,"adult,adult-fiction,adventure,american,animals,contemporary,crime,criticism,drama,fantasy,fiction,horror,mystery,mystery-thriller,novels,paranormal,romance,science-fiction,supernatural,suspense,thriller"
18597501,,"Petit, monstret",9789150116090,,,,ES,2013/1/1,Alfabeta Bokförlag,swe,false,4,7872780,202,486,139,25,2007/1/1,,book,23,45,53,14,4,3.50,,Hardcover,,7,2,Isol,,,,,,43,14,,"childrens,fiction,humor,international,juvenile,picture-books"
18598001,,Les philosophes du XVIII Siècle,,,,,ES,1953/1/1,Librairie Aristide Quillet,fre,false,1,18598001,3,0,0,0,1953/1/1,,book,0,0,0,0,0,0.00,462,Hardcover,,0,0,"Denis Diderot,Georges-Louis Leclerc, Comte de Buffon,Jean-Jacques Rousseau,Montesquieu,Voltaire",,,,,,2,0,,
18598501,,Teknologi Informasi Dan Komunikasi untuk SMP/MTs kelas VIII,,,,,ES,2010/1/1,Pusat Perbukuan Depdiknas,,false,1,18598501,0,0,0,0,2010/1/1,,book,0,0,0,0,0,0.00,,,,0,0,"Purnama Wijaya,Tati Ermawati",,,,,,,0,,
18599001,1299731511,Public Services Issues with Rare and Archival Law Materials,9781299731516,,,,ES,2014/5/19,Routledge,,true,7,18599001,0,0,0,0,2001/1/28,,,0,0,0,0,0,0.00,205,ebook,,0,0,Michael Widener,,,,,,,0,,
18600001,,غاية المنوة في آداب الصحبة وحقوق الأخوة,,,,,ES,,,ara,false,1,18600001,2,0,0,0,,,book,0,0,0,0,0,0.00,112,,,0,0,حازم خنفر,,,,,,2,0,,
18600501,,Dagar utan hunger,9789186480875,,,,ES,2013/1/1,Sekwa förlag,swe,false,17,6419162,1979,3710,1028,87,2009/1/1,Jours sans faim,book,174,416,317,104,17,3.61,184,Paperback,,9,1,Delphine de Vigan,,,,,,699,29,32,"autobiography,biography,contemporary,fiction,france,memoir,mental-health,mental-illness,non-fiction"
18601001,0669475378,"Daily Oral Language, Grade 3",9780669475371,,,,ES,2000/7/21,Great Source Education Group,,false,1,18601001,0,0,0,0,2000/7/21,,,0,0,0,0,0,0.00,64,Spiral-bound,,0,0,"Joseph F. Papenfuss,Neil J Vail",,,,,,,0,,
18601501,0984557199,Vagabonds,9780984557196,,,,ES,2013/9/12,Same Old Story Productions,,false,2,18601501,11,23,6,3,2013/9/12,,,2,2,1,1,0,3.83,164,Paperback,,6,3,Robert Midgett,,,,,,4,0,,science-fiction
18602001,1410464857,The Good Lord Bird,9781410464859,,,,ES,2014/1/8,Thorndike Press,,false,30,16171272,44172,70534,18737,2594,2013/8/20,The Good Lord Bird,book,4880,7132,4706,1469,550,3.76,641,Hardcover,,5,1,James McBride,,,,,,22320,155,870,"adult,adult-fiction,adventure,american,american-history,americana,contemporary,fiction,funny,historical,historical-fiction,history,humor,literary-fiction,literature,novels,unfinished,war"
18602501,1466956615,The Children of Nataar,9781466956612,,,,ES,2012/11/5,Trafford Publishing,,false,1,18602501,0,0,0,0,2012/11/5,,,0,0,0,0,0,0.00,284,Paperback,,0,0,Diaz Germaine Coleman,,,,,,,0,,
18603001,1482811596,Reckless with the Heart,9781482811599,,,,ES,2013/9/26,Partridge Publishing,,false,4,18165124,7,5,1,0,2013/6/20,,book,1,0,0,0,0,5.00,336,Paperback,,1,0,Suparna Verma,,,,,,4,0,,
18603501,148852386X,"Pot Roast Greats: Delicious Pot Roast Recipes, the Top 47 Pot Roast Recipes",9781488523861,,,,ES,2013/9/23,Emereo Publishing,,false,3,18603501,0,0,0,0,2013/1/1,,,0,0,0,0,0,0.00,54,Paperback,,0,0,Jo Franks,,,,,,,0,,
18604001,149271013X,"It's All in Your Mind: Secrets to Attracting Money, Love and Happiness",9781492710134,,,,ES,2013/9/21,Createspace,,false,1,18604001,0,0,0,0,2013/9/21,,,0,0,0,0,0,0.00,150,Paperback,,0,0,Mrs Lindsey K Sharratt,,,,,,,0,,
18604501,1622874048,Mistress of the Two Lands: A Novel of the Female Pharaoh,9781622874040,,,,ES,2013/9/23,First Edition Design Publishing,,false,4,21391973,6,8,2,0,2013/9/23,,,1,0,1,0,0,4.00,290,Paperback,,0,0,Edith Fiore,,,,,,3,0,,historical-fiction
18605001,1909192341,Hoping for Rain,9781909192348,,,,ES,2013/10/1,Beaten Track Publishing,,false,3,19200441,75,141,37,5,2010/12/23,,,11,14,8,2,2,3.81,302,Paperback,,10,1,Catherine Kerr-Phillips,,,,,,25,1,11,"inspirational,mental-health,psychology"
18605501,3732279251,Erwachen in die Weiblichkeit: Erwachen in die Männlichkeit,9783732279258,,,,ES,2013/9/25,Books on Demand,,false,1,18605501,0,0,0,0,2013/9/25,,,0,0,0,0,0,0.00,156,Paperback,,0,0,Arimea Ashanti,,,Tatjana Zinkiewicz,,,,0,,
18606001,3852515947,Der Feind H Rt Mit,9783852515946,,,,ES,2011/7/25,Novum Publishing,,false,1,18606001,0,0,0,0,2011/7/25,,,0,0,0,0,0,0.00,132,Paperback,,0,0,Ute Mair,,,,,,,0,,
18606501,3990261819,Unser Anderes Kind,9783990261811,,,,ES,2012/1/10,Novum Publishing,,false,2,17224038,1,4,1,0,2012/1/10,,book,0,1,0,0,0,4.00,176,Paperback,,0,0,Sabine Roy,,,,,,,0,,
18607001,,Tuanku Puteri Bunga Seroja,9789674301194,,,,ES,2013/1/1,Institut Terjemahan & Buku Malaysia,msa,false,1,18607001,1,0,0,0,2013/1/1,,book,0,0,0,0,0,0.00,132,,,0,0,Mohamad Shahidan,,,,,,1,0,,
18607501,0415727421,Australian Aboriginal Grammar (Rle Linguistics F: World Linguistics),9780415727426,,,,ES,2013/11/21,Routledge,,false,6,18607501,2,0,0,0,2013/12/6,,,0,0,0,0,0,0.00,220,Hardcover,,0,0,Barry Blake,,,,,,1,0,,
18608001,0803639627,Guide to Culturally Competent Health Care,9780803639621,,,,ES,2014/5/19,F. A. Davis Company,,false,9,6464043,71,90,25,2,2004/9/30,Guide to Culturally Competent Health Care,book,7,9,4,2,3,3.60,466,Paperback,,5,1,Larry D. Purnell,,,,,,37,0,1,school
18608501,1107699878,The Public International Law Theory of Hans Kelsen,9781107699878,,,,ES,2013/7/10,Cambridge University Press,,false,6,10399394,6,5,1,1,2010/10/31,,,1,0,0,0,0,5.00,344,Paperback,,1,1,Jochen von Bernstorff,,,,,,3,0,2,
18609001,1299579698,Boy in the Suitcase (Nina Borg #1),9781299579699,,,,ES,2011/1/1,Soho Crime,,true,61,10776592,71534,108589,30126,3149,2008/1/1,Drengen i kufferten,book,5126,11854,10009,2379,758,3.60,,ebook,,1,1,"Agnete Friis,Lene Kaaberbøl",,,,,,36440,198,1285,"adult,adult-fiction,contemporary,crime,drama,fiction,international,mystery,mystery-thriller,suspense,thriller"
18609501,1299721400,"Truth: Its Nature, Criteria and Conditions",9781299721401,,,,ES,2011/1/1,Walter de Gruyter,,true,4,18609501,0,0,0,0,2011/1/1,,,0,0,0,0,0,0.00,126,ebook,,0,0,Haig Khatchadourian,,,,,,,0,,
18610001,129974138X,"Semiclassical Analysis, Witten Laplacians, and Statistical Mechanics",9781299741386,,,,ES,2014/5/10,World Scientific Publishing Company,,true,2,18610001,0,0,0,0,2002/1/1,,,0,0,0,0,0,0.00,190,ebook,,0,0,Bernard Helffer,,,,,,,0,,
18610501,1299874827,Textiles for Industrial Applications,9781299874824,,,,ES,2014/1/15,CRC Press,,true,2,18610501,2,0,0,0,2013/1/1,,,0,0,0,0,0,0.00,393,ebook,,0,0,R Senthil Kumar,,,,,,2,0,,
18611001,1299880002,One Human Minute,9781299880009,,,,ES,2012/1/1,Mariner Books,,true,12,28771,844,1560,407,34,1986/11/24,One Human Minute,book,112,154,106,31,4,3.83,,ebook,,2,0,Stanisław Lem,,,,,,308,11,18,"amazon,essays,fiction,non-fiction,philosophy,politics,science,science-fiction,short-stories"
18611501,1299885063,Total Recall,9781299885066,,,,ES,2014/5/9,Houghton Mifflin,,true,28,6561374,9460,21883,5531,325,1966/4/1,We Can Remember It for You Wholesale,book,1493,2545,1273,199,21,3.96,,ebook,,4,1,Philip K. Dick,,,,,,2802,29,127,"action,adult,adult-fiction,adventure,american,classics,dystopia,fantasy,fiction,mystery,novella,novels,science,science-fiction,science-fiction-fantasy,short-stories,speculative-fiction,thriller"
18612001,1299890105,Crazy,9781299890107,,,,ES,2010/1/1,Harcourt Brace and Company,,true,8,6376527,9606,11641,2900,400,2010/9/13,Crazy Music,book,1065,1074,567,125,69,4.01,200,ebook,,0,0,Han Nolan,,,,,,5992,46,128,"contemporary,death,drama,family,fiction,high-school,mental-health,mental-illness,psychology,realistic-fiction,romance,teen,young-adult"
18612501,1299895298,Bourbon: 50 Rousing Recipes for a Classic American Spirit,9781299895294,,,,ES,2013/9/26,Harvard Common Press,,true,4,7646299,29,64,16,5,2009/1/1,,,3,11,1,1,0,4.00,103,ebook,,0,0,Fred Thompson,,,,,,10,0,,"cookbooks,cooking,fiction"
18613001,1299900402,Dead Man's Hand,9781299900400,,,,ES,2007/1/1,Houghton Mifflin,,true,12,790209,210,177,55,16,2007/1/1,Dead Man's Hand: Crime Fiction at the Poker Table,book,5,16,23,8,3,3.22,150,ebook,,0,0,Otto Penzler,,,,,,99,7,11,"anthologies,crime,fiction,mystery,short-stories,thriller"
18613501,1299905544,"1,000 Vegan Recipes",9781299905542,,,,ES,2011/1/1,Houghton Mifflin,,true,13,6657635,1691,3171,751,22,2009/1/1,"1,000 Vegan Recipes",book,379,216,110,36,10,4.22,1083,ebook,,0,0,Robin G. Robertson,,,,,,843,5,29,"cookbooks,cooking,food,health,non-fiction,reference"
18614001,1299911463,Untimely Beggar: Poverty and Power from Baudelaire to Benjamin,9781299911468,,,,ES,2013/9/25,University of Minnesota Press,,true,3,2544279,14,9,2,0,2007/1/1,Untimely Beggar: Poverty and Power from Baudelaire to Benjamin,book,1,1,0,0,0,4.50,253,ebook,,0,0,Patrick Greaney,,,,,,12,0,,"france,non-fiction"
18614501,9522336920,The Walking Dead – Neljäs kirja,9789522336927,,,,ES,2013/10/1,Egmont Kustannus Oy,fin,false,4,4008489,13595,38248,8680,371,2008/1/1," The Walking Dead, Book Four (The Walking Dead #37-48)",book,4681,3001,868,105,25,4.41,276,Paperback,,24,5,,"Charlie Adlard,Cliff Rathburn",,,Antti Koivumäki,,134,113,57,"adult,adult-fiction,adventure,comics,dark,dystopia,fantasy,fiction,graphic-novels,graphic-novels-comics,horror,paranormal,post-apocalyptic,science-fiction,speculative-fiction,supernatural,survival,thriller,war,zombies"
18615001,1304231496,A Closer Relationship with God,9781304231499,,,,ES,2013/7/14,Lulu.com,,false,3,18615001,0,0,0,0,2013/7/14,,,0,0,0,0,0,0.00,102,Paperback,,0,0,Bill Vincent,,,,,,,0,,
18615501,1449692222,"Computer Forensics: Cybercriminals, Laws, and Evidence",9781449692223,,,,ES,2014/2/17,Jones & Bartlett Publishers,,false,6,10891083,41,45,13,1,2011/2/1,,,0,7,5,1,0,3.46,408,Paperback,,6,0,Marie-Helen Maras,,,,,,10,0,1,school
18616001,1477840788,Purgatoire,9781477840788,,,,ES,2013/9/26,AmazonEncore,,false,5,4855077,22,59,15,3,2003/12/1,Purgatoire (Leisure Western),book,6,3,5,1,0,3.93,236,Paperback,,0,0,Johnny D. Boggs,,,,,,3,0,2,
18616501,1492821268,Searching for the Enemy,9781492821267,,,,ES,2013/9/27,Createspace,,false,1,18616501,1,0,0,0,2013/9/27,,,0,0,0,0,0,0.00,226,Paperback,,0,0,Ethel R McMilin,,,,,,1,0,,
18617001,1612891284,"Hispanic Tele-Visions in the United States: Eleven Essays on Television, Discourse, and the Cultural Construction of Ethnicity",9781612891286,,,,ES,2013/8/1,Hampton Press,,false,2,18617001,0,0,0,0,2013/8/1,,,0,0,0,0,0,0.00,,Hardcover,,0,0,Elizabeth Lozano,,,,,,,0,,
18617501,1847659829,Tales from the Dead of Night: Thirteen Classic Ghost Stories: Thirteen Classic Ghost Stories,9781847659828,,,,ES,2013/9/26,Profile Books(GB),,true,5,20702468,482,555,155,25,2013/9/26,,,22,62,57,12,2,3.58,282,ebook,,18,8,,,,Cecily Gayford,,,263,15,28,"anthologies,classics,fiction,gothic,horror,mystery,paranormal,short-stories,supernatural"
18618001,3642136168,(Endo)Symbiotic Methanogenic Archaea,9783642136160,,,,ES,2011/7/11,Springer,,false,5,20866110,2,1,1,0,2010/9/8,,,0,0,0,0,1,1.00,252,Paperback,,0,0,,,Johannes H.P. Hackstein,,,,2,0,,
18619001,,A maffia ágyában,9786155252211,,,,ES,2013/10/21,Álomgyár Kiadó,hun,false,2,18619001,102,228,58,2,2013/10/21,,book,22,15,17,3,1,3.93,312,Paperback,,55,2,Borsa Brown,,,,,,27,2,3,"drama,european-literature,romance"
18619501,1492860220,Xandra,9781492860228,,,,ES,2013/10/1,Snow Flower Enterprises,eng,false,3,38478649,2,9,2,0,2013/10/1,,book,1,1,0,0,0,4.50,26,Paperback,1,2,0,Ann Snizek,,,,,,,0,,
18620001,846790691X,Revolver,9788467906912,,,,ES,2012/3/1,Editorial Norma S.A.,spa,false,6,6954421,1463,3445,929,113,2010/7/20,,book,198,356,294,68,13,3.71,192,Hardcover,,2,1,Matt Kindt,,,,,,416,24,,"adult,adventure,comics,dystopia,fantasy,fiction,graphic-novels,graphic-novels-comics,mystery,post-apocalyptic,science-fiction"
18620501,,"Eat This, Not That! 2013: The No-Diet Weight Loss Solution",9781609618254,,,,ES,,,,true,20,2188829,6170,14859,4002,477,2007/12/10,"Eat This Not That: Thousands of Simple Food Swaps That Can Save You 10, 20, 30 Pounds—or More!",book,1008,1364,1189,355,86,3.71,,,,53,0,"David Zinczenko,Goulding, Matt",,,,,,448,19,8,"adult,amazon,cookbooks,cooking,food,health,non-fiction,reference,science,sports"
18621001,187624366X,Making Waves in Art,9781876243661,,,,ES,2005/1/1,Creative School Supply Company,eng,false,1,18621001,1,0,0,0,2005/1/1,,book,0,0,0,0,0,0.00,64,Paperback,,0,0,Kate  Hart,,,,,,,0,,
18621501,,Dwa tygodnie na miłość,9788376742106,,,,ES,2012/1/1,Replika,pol,false,1,18621501,6,2,1,0,2012/1/1,,book,0,0,0,1,0,2.00,220,Paperback,,1,0,Ewa Sitarek,,,,,,2,0,1,
18623001,,Os segredos do FBI,9789722527095,,,,ES,2013/9/1,Bertrand Editora,por,false,13,11104934,3060,4960,1449,185,2011/1/1,,book,199,479,552,174,45,3.42,268,Paperback,,11,1,Ronald Kessler,,,,,,1135,16,154,"american-history,biography,business,crime,historical,history,non-fiction,politics,reference,science,social,true-crime"
18623501,1492801569,Someplace North of Here,9781492801566,,,,ES,2013/10/3, CreateSpace,eng,false,5,18621036,65,47,17,8,2013/4/26,Geordie Boyo ,book,3,2,3,6,3,2.76,196,Paperback,,1,0,C.H. Lowe,,,,,,36,5,,"adventure,amazon,contemporary,novels,romance"
18624001,,"Incognito Series Megabook, Volume II (Incognito Series, #4-6)",,,,,ES,2014/1/1,Whiskey Creek Press,eng,true,2,18624001,3,5,1,0,2009/6/1,,book,1,0,0,0,0,5.00,,ebook,Second Edition,0,0,Karen Wiesner,,,,,,1,0,,
18624501,,Eat Vegan on $4.00 a Day: A Game Plan for the Budget Conscious Cook,,B006IS83W0,,,ES,,,,true,4,10696347,948,1462,381,31,2011/1/1,,book,135,109,87,40,10,3.84,,,,37,1,Ellen Jaffe Jones,,,,,,486,11,26,"cookbooks,cooking,food,health,non-fiction"
18625001,,My Facebook Boyfriend... For Real!!?,,,,,ES,2013/1/1,PSICOM,fil,false,1,18625001,7740,11412,2581,64,2013/1/1,"My Facebook Boyfriend... For Real!!? ""Posted - Connected - Busted!"" Vol. 1",book,1851,288,225,113,104,4.42,144,Mass Market Paperback,Gold,2581,64,Anne Bernadette Castueras,,,,,,5267,6,368,"fiction,love,romance,teen"
18625501,,Alice's Adventures In Wonderland,,B007JL8VPO,,,ES,,,,true,4841,6324090,159367,641403,160175,7348,1865/11/26,Alice's Adventures in Wonderland,book,63601,50896,32385,9366,3927,4.00,,,,19,0,Lewis Carroll,,,,,,66092,1408,7938,"adventure,art,british-literature,childrens,classic-literature,classics,english-literature,fairy-tales,fantasy,fiction,humor,juvenile,literature,magic,middle-grade,novels,school,victorian,young-adult"
18626001,8589344673,Reflexões sobre a era Vargas: da vida para a história,,,,,ES,2005/1/1,,por,false,1,18626001,1,0,0,0,2005/1/1,,book,0,0,0,0,0,0.00,244,Paperback,,0,0,"Gunter Axt,Omar L. de Barros Filho,Ricardo Vaz Seeling,Sylvia Bojunga",,,,,,,0,,
18626501,,"What Once Was Perfect (Wardham, #1)",,,,,ES,2013/10/4,Zoe York,eng,true,13,26132059,7571,10819,2979,291,2013/6/15,,book,661,995,968,275,80,3.63,165,ebook,,460,65,Zoe York,,,,,,265,62,269,"adult,adult-fiction,amazon,chick-lit,christmas,contemporary,drama,erotica,fiction,holiday,new-adult,novella,romance,short-stories"
18627001,,LIFE OF SIR RICHARD BURTON V I,,,,,ES,1893/1/1,APPLETON,eng,false,8,18627001,1,4,1,0,1893/7/11,"The Life of Captain Sir Richard F. Burton, KCMG, FRGS, Volume I",book,0,1,0,0,0,4.00,606,Hardcover,,1,0,Isabel Burton,,,,,,,0,,
18627501,,Foundation HTML5 Canvas: For Games and Entertainment,,B005PZ5D1Q,,,ES,,,,true,3,9321431,55,82,22,5,2011/1/31,,book,6,7,7,1,1,3.73,,,,0,0,Rob Hawkes,,,,,,16,0,4,"non-fiction,reference,technology"
18628001,,狼さん探偵物語,9784778112608,,,,ES,,,jpn,false,1,18628001,2,4,1,1,,,book,0,1,0,0,0,4.00,,,,1,1,石原 ひな子,,,,,,,0,1,
18628501,,Die vampiere van Londen,9780798157582,,,,ES,,NB uitgewers,,true,2,18628501,16,28,7,2,,,book,2,3,2,0,0,4.00,,ebook,,6,2,François Bloemhof,,,,,,8,0,1,
18629001,,Deep Furrows,,,,,ES,1918/1/1,"George J. McLeod, Limited",eng,false,11,6730959,3,0,0,0,1918/1/1,,book,0,0,0,0,0,0.00,299,Hardcover,,0,0,Hopkins Moorhouse,,,,,,,0,,
18629501,,United Nations at a Glance,9789211012521,,,,ES,2013/1/1,United Nations Publications,en-US,false,2,18629501,39,48,12,2,2012/9/18,,book,4,5,2,1,0,4.00,218,Paperback,,9,2,United Nations,,,,,,16,2,6,
18630001,1472524985,Samuel Beckett and Cinema,9781472524980,,,,ES,2017/2/23,Bloomsbury Academic,,false,4,18630001,8,0,0,0,2016/4/1,,,0,0,0,0,0,0.00,224,Hardcover,,0,0,Anthony Paraskeva,,,,,,5,0,1,
18630501,0765369524,Storm Riders,9780765369529,,,,ES,2014/7/29,Tor Fantasy,,false,6,16059418,1362,1259,300,38,2013/7/16,The Dragon Brigade 2：Storm Riders,book,120,125,49,6,0,4.20,716,Paperback,,10,1,"Margaret Weis,Robert Krammes",,,,,,944,19,23,"demons,epic-fantasy,fantasy,fiction,high-fantasy,magic,novels,science,steampunk,young-adult"
18631001,,Blood of the Gods Trilogy Box Set,,B00AZMUJS6,,,ES,,Marie Symeou,en-GB,true,1,18631001,10,6,2,0,2014/1/3,,book,1,0,0,0,1,3.00,,Kindle Edition,,2,0,Marie Symeou,,,,,,7,0,,
18631501,,مهلاً .. لا تعتدوا على الله,,,,,ES,2013/1/1,هيئة الشام الإسلامية,ara,false,1,18631501,5,7,2,1,2013/1/1,,book,0,1,1,0,0,3.50,52,Hardcover,,2,1,مرهف عبد الجبار السقا,,,,,,3,0,,
18632001,,"Drifters Vol. 01 (Drifters, # 1)",9786020222295,,,,ES,2013/10/9,PT Elex Media Komputindo,ind,false,8,11080437,751,1442,382,38,2010/7/7,ドリフターズ,book,102,131,116,27,6,3.77,211,Paperback,,5,2,Kohta Hirano,,,,,,269,17,9,"comics,dark,fantasy,fiction,graphic-novels,historical,history,humor,magic,manga,science-fiction,supernatural,war"
18632501,,Sambas de Enredo 2004,,,,,ES,2004/1/1,BMG Brasil Ltda.,por,false,1,18632501,1,0,0,0,2004/1/1,,not a book,0,0,0,0,0,0.00,,Audio CD,,0,0,Zacarias Siqueira de Oliveira,,,,,,,0,,
18633001,,Tajno oružje : 5 priča za sviranje i fantaziranje,9789533200170,,,,ES,2011/1/1,Šareni dućan,scr,false,51,1272422,1722,11554,2743,116,1959/1/1,Las armas secretas,book,1186,1055,417,68,17,4.21,190,Paperback,,1,0,Julio Cortázar,,,,Tanja Tarbuk,,1479,6,74,"classics,contemporary,fantasy,fiction,literature,magical-realism,short-stories"
18633501,0965877302,West! Sail West Man,,,,,ES,1997/1/1,Windjammer Books,,false,1,18633501,3,5,1,0,1997/1/1,,book,1,0,0,0,0,5.00,328,Paperback,,1,0,Hein Zenker,,,,,,2,0,,
18634001,,Route 66: A survey of the whole bible,,,,,ES,,,,false,1,18634001,0,0,0,0,,,book,0,0,0,0,0,0.00,170,,,0,0,"Gretchen Riedel,Margo Cook",,,,,,,0,,
18634501,,What the Most Successful People Do Before Breakfast: A Short Guide to Making Over Your Mornings--and Life,,B007K3E2YK,,,ES,,,eng,true,7,18634501,11810,19353,5718,722,2012/6/12,What the Most Succesful People Do Before Breakfast,book,827,1730,2144,849,168,3.38,,,,5519,683,,,,,,,4506,85,264,"business,health,leadership,non-fiction,personal-development,psychology,self-help"
18635001,006199264X,A Piece of Cake,9780061992643,,,,ES,2014/5/27,Balzer + Bray,,false,2,18635001,697,1707,431,110,2014/5/27,,,114,202,100,14,1,3.96,40,Hardcover,,429,110,LeUyen Pham,,,,,,155,20,2,"animals,childrens,cooking,fiction,food,humor,juvenile,picture-books"
18635501,0323263828,"Acute Management of Autism Spectrum Disorders, an Issue of Child and Adolescent Psychiatric Clinics of North America",9780323263825,,,,ES,2013/11/20,Elsevier,,false,2,18635501,1,4,1,0,2013/11/20,,book,0,1,0,0,0,4.00,,Hardcover,,1,0,"Bryan H. King,Matthew  Siegel",,,,,,,0,,
18636001,0415753449,Essays on Political Education,9780415753449,,,,ES,2014/12/1,Routledge,,false,11,17578936,2,0,0,0,1977/1/1,,book,0,0,0,0,0,0.00,216,Paperback,,0,0,"Bernard Crick,Derek Heater",,,,,,2,0,,
18636501,0415758793,Leopards and Leaders: Constitutional Politics Among a Cross River People,9780415758796,,,,ES,2014/4/26,Routledge,,false,3,18636501,0,0,0,0,2004/3/26,,,0,0,0,0,0,0.00,384,Paperback,,0,0,Malcolm Ruel,,,,,,,0,,
18637001,9782253149,Micromégas,,,,,ES,2000/1/1,Le Livre De Poche,fre,false,121,1156110,5372,10568,2864,202,1752/5/25,Micromégas,book,649,1059,841,249,66,3.69,66,Mass Market Paperback,Libretti,6,0,Voltaire,,,,,,1644,25,42,"adult,classic-literature,classics,european-literature,fantasy,fiction,france,funny,history,humor,literature,philosophy,plays,politics,school,science-fiction,short-stories"
18637501,0977232956,El Libro de Juegos Para Padres,9780977232956,,,,ES,2013/6/3,Engage Press LLC,,false,1,18637501,0,0,0,0,2013/6/3,,,0,0,0,0,0,0.00,150,Paperback,,0,0,Joni Kay Samples,,,,,,,0,,
18638001,1134575351,"Religious Pluralism, State and Society in Asia",9781134575350,,,,ES,2013/10/1,Routledge,,true,7,18638001,0,0,0,0,2013/1/1,,,0,0,0,0,0,0.00,280,ebook,,0,0,,,,Chiara Formichi,,,,0,,
18638501,1138008222,Towards Successful Schooling (Rle Edu L Sociology of Education),9781138008229,,,,ES,2014/7/4,Routledge,,false,10,18638501,2,0,0,0,1990/2/1,,,0,0,0,0,0,0.00,256,Paperback,,0,0,,,,"Cathy Wylie,Hugh Lauder",,,2,0,,
18639001,1317924401,"Planning, Instruction, and Assessment: Effective Teaching Practices",9781317924401,,,,ES,2013/10/2,Routledge,,true,4,18639001,0,0,0,0,2013/10/2,,,0,0,0,0,0,0.00,160,ebook,,0,0,"James H. Stronge,Jennifer Hindman,Leslie Grant",,,,,,,0,,
18639501,141449081X,Alternative Energy,9781414490816,,,,ES,2012/6/15,UXL,,true,4,14924500,3,12,3,0,2012/6/1,,,0,3,0,0,0,4.00,558,ebook,,0,0,,,,K. Lee Lerner,,,,0,,
18640001,,Slam Dunk n. 59,,,,,ES,2000/5/11,Panini Comics - Planet Manga,ita,false,1,18640001,12,30,7,0,2000/5/11,,book,4,2,0,1,0,4.29,96,Paperback,,7,0,Takehiko Inoue,,,,,,4,0,,manga
18640501,1466571098,Using the Narcotrafico Threat to Build Public Administration Capacity Between the Us and Mexico,9781466571099,,,,ES,2014/2/25,Routledge,,false,2,18640501,0,0,0,0,2014/1/1,,,0,0,0,0,0,0.00,280,Hardcover,,0,0,,,,"Donald E. Klingner,Roberto Moreno Espinosa",,,,0,,
18641001,148193807X,For the Love of Horses: An Animal Communicator's Guide to Helping Our Horses and Healing Our Lives,9781481938075,,,,ES,2013/9/28,Createspace,,false,2,18641001,3,0,0,0,2013/9/28,,,0,0,0,0,0,0.00,270,Paperback,,0,0,Heather Green,,,,,,2,0,1,
18641501,1491819138,The Animal Alphabet,9781491819135,,,,ES,2013/9/30,Authorhouse,,true,3,18641500,0,0,0,0,2013/9/30,,,0,0,0,0,0,0.00,,ebook,,0,0,Terry-Ann Powell,,,,,,,0,,
18642001,1598886983,National Five-Digit Zip Code and Post Office Directory 2014,9781598886986,,,,ES,2014/2/28,Bernan Press,eng,false,1,18642001,0,0,0,0,2014/2/28,,book,0,0,0,0,0,0.00,4215,Paperback,,0,0,,,United States Postal Service,,,,,0,,
18642501,162740502X,Trained in Blood [Lords of the Expanse 2],9781627405027,,,,ES,2013/10/4,Siren Publishing,,false,4,18304653,42,44,11,0,2013/7/3,,book,5,2,3,1,0,4.00,184,Paperback,,0,0,Honor James,,,,,,24,0,,"erotica,paranormal,shapeshifters,vampires"
18643501,1851966730,Barriers to Competition: The Evolution of the Debate,9781851966738,,,,ES,2009/11/1,Pickering & Chatto Publishers,,true,7,18642781,0,0,0,0,2009/10/21,,,0,0,0,0,0,0.00,239,ebook,,0,0,Ana Rosado Cubero,,,,,,,0,,
18644001,2251002553,"Plutarque, Vies: Tome VII: Cimon-Lucullus. Nicias-Crassus.",9782251002552,,,,ES,2003/1/1,Les Belles Lettres,,false,1,18644001,0,0,0,0,2003/1/1,,,0,0,0,0,0,0.00,508,Paperback,,0,0,"Robert Flacelière,Émile Chambry",,,,,,,0,,
18644501,2251326812,La Vie de L'Empereur Julien,9782251326818,,,,ES,2012/2/16,Les Belles Lettres,,false,4,18644501,11,13,3,1,2012/2/28,,,1,2,0,0,0,4.33,422,Paperback,,1,1,Joseph Bidez,,,,,,4,0,,biography
18645001,2503531598,"Cursor 12 the Political and Social Vocabulary of John the Deacon's 'Istoria Veneticorum', Berto",9782503531595,,,,ES,2013/6/25,Brepols Publishers,,false,1,18645001,0,0,0,0,2013/6/25,,,0,0,0,0,0,0.00,264,Hardcover,,0,0,Luigi A. Berto,,,,,,,0,,
18645501,2711613356,Edmund Husserl: Introduction a la Logique Et a la Theorie de La Connaissance Cours (1906/07),9782711613359,,,,ES,1998/1/1,Librarie Philosophique J. Vrin,,false,1,18645501,1,0,0,0,1998/1/1,,,0,0,0,0,0,0.00,440,Paperback,,0,0,J English,,,,,,1,0,,
18646001,3161523458,Der Schutz Der Schwacheren Partei in Der Mediation,9783161523458,,,,ES,2013/3/1,Mohr Siebeck,,false,1,18646001,0,0,0,0,2013/3/1,,,0,0,0,0,0,0.00,413,Paperback,,0,0,Felix Wendenburg,,,,,,,0,,
18646501,3170220721,Beitrage Zur Kirchengeschichte Sudwestdeutschlands,9783170220720,,,,ES,2012/7/19,Kohlhammer,,false,1,18646501,0,0,0,0,2012/7/19,,,0,0,0,0,0,0.00,470,Paperback,,0,0,Heinz Scheible,,,,,,,0,,
18647001,3447068922,Agypten Und Sein Umfeld in Der Spatantike: Vom Regierungsantritt Diokletions 284/285 Bis Zur Arabischen Eroberung Des Vorderen Orients Um 635-646 Akten Der Tagung Vom 7.-9.7.2011 in Munster,9783447068925,,,,ES,2013/6/5,Harrassowitz,,false,1,18647001,1,0,0,0,2013/6/1,,,0,0,0,0,0,0.00,324,Paperback,,0,0,,,,"Angelika Lohwasser,Frank Feder",,,1,0,,
18647501,3527639896,Modeling and Simulation of Heterogeneous Catalytic Reactions: From the Molecular Process to the Technical System,9783527639892,,,,ES,2013/9/23,Wiley-Vch,,true,7,18855492,0,0,0,0,2011/12/12,,,0,0,0,0,0,0.00,370,ebook,,0,0,,,,Olaf Deutschmann,,,,0,,
18648001,3847101056,"Racher Und Gerachte: Konzeptionen, Praktiken Und Loyalitaten Der Rache Im Spiegel Der Attischen Tragodie",9783847101055,,,,ES,2013/4/10,V&r Unipress,,false,2,18648001,0,0,0,0,2013/1/1,,,0,0,0,0,0,0.00,296,Hardcover,,0,0,Bernadette Descharmes,,,,,,,0,,
18648501,8771240578,Living Political Biography,9788771240573,,,,ES,2012/12/19,Aarhus Universitetsforlag,,false,1,18648501,2,2,1,0,2012/12/19,,,0,0,0,1,0,2.00,270,Paperback,,1,0,"Ann-Christina L Knudsen,Karen Gram-Skjoldager",,,,,,1,0,,
18649001,9462361002,Obstructionist Behavior in International Commercial Arbitration: Legal Analysis and Measures Available to the Arbitral Tribunal,9789462361003,,,,ES,2014/5/19,Eleven International Publishing,,false,1,18649001,0,0,0,0,2013/12/15,,,0,0,0,0,0,0.00,318,Hardcover,,0,0,Alain Hosang,,,,,,,0,,
18649501,,Tào Lao Gà,,,,,ES,2010/1/1,Nhà xuất bản Hội nhà văn,,false,1,18649501,3,5,2,0,2010/1/1,,book,0,0,1,1,0,2.50,218,Paperback,,2,0,Đỗ Huân,,,,,,1,0,,"humor,short-stories"
18650001,1475603010,Burial at Sea,9781475603019,,,,ES,,,eng,true,2,18650001,88,94,25,1,2013/12/1,Burial at Sea,book,7,8,8,1,1,3.76,32,ebook,1,9,0,Larry Bond,,,,,,46,1,3,fiction
18650501,1299724620,John R. Searle: Thinking about the Real World,9781299724624,,,,ES,2010/1/1,Walter de Gruyter,,true,3,18064513,5,0,0,0,2010/1/1,,,0,0,0,0,0,0.00,236,ebook,,0,0,,,,"Attila Karakus,Dirk Franken,Michel Jan Michel",,,4,0,,
18651001,1299739938,Diapers Are Not Forever,9781299739932,,,,ES,2013/8/13,Free Spirit Publishing,,true,6,3067569,313,677,179,17,2008/1/1,Diapers Are Not Forever,book,48,63,52,13,3,3.78,14,ebook,,0,0,Elizabeth Verdick,,,,,,37,24,2,"childrens,parenting,picture-books"
18651501,,Morning Glories #1,,,,,ES,,,eng,false,8,10088114,15519,33893,8988,803,2011/2/16,"Morning Glories, Vol. 1: For a Better Future",book,2458,3275,2276,696,283,3.77,,,,9,0,Nick Spencer,,,,,,5915,221,44,"action,adult,adventure,comics,dark,drama,dystopia,fantasy,fiction,graphic-novels,graphic-novels-comics,high-school,horror,mystery,paranormal,school,science-fiction,supernatural,suspense,teen,thriller,urban-fantasy,young-adult"
18652001,0062331051,The Cabinet of Curiosities: 36 Tales Brief & Sinister,9780062331052,,,,ES,2014/5/27,Greenwillow Books,,false,4,18599852,3379,3319,841,166,2014/5/27,,book,282,317,176,47,19,3.95,488,Hardcover,,69,22,"Claire Legrand,Emma Trevayne,Katherine Catmull,Stefan Bachmann",,,,,,2205,10,76,"adventure,anthologies,chapter-books,childrens,dark,fantasy,fiction,ghosts,horror,juvenile,magic,middle-grade,mystery,paranormal,short-stories,steampunk,supernatural,suspense,thriller,young-adult"
18652501,,Peter Arno's Man in the Shower,,,,,ES,,,,false,2,605433,20,64,14,1,1944/1/1,Peter Arno's Man in the shower,book,9,4,1,0,0,4.57,,Hardcover,,3,0,Peter Arno,,,,,,5,0,1,"art,graphic-novels,humor"
18653001,081443455X,Why Some Companies Emerge Stronger and Better from a Crisis: 7 Essential Lessons for Surviving Disaster,9780814434550,,,,ES,2005/3/11,Amacom,,false,1,18653001,2,0,0,0,2005/3/11,,,0,0,0,0,0,0.00,256,Hardcover,,0,0,Ian I Mitrof,,,,,,2,0,,
18654001,1491705779,Nepos: Judean Adventure,9781491705773,,,,ES,2013/9/28,iUniverse,,false,4,18641398,0,0,0,0,2013/9/28,,,0,0,0,0,0,0.00,308,Paperback,,0,0,Evangelist Don Curtis,,,,,,,0,,
18654501,1601526261,Thinking Critically: Illegal Immigration,9781601526267,,,,ES,2014/2/15,Referencepoint Press,,false,1,18654501,1,0,0,0,2013/12/1,,book,0,0,0,0,0,0.00,,Hardcover,,0,0,"Bonnie Szumski,Jill Karson",,,,,,1,0,,
18655001,271164071X,La Source de La Vie: Livre III de La Demonstration de L'Existence Des Substances Simples,9782711640713,,,,ES,1950/7/1,Librarie Philosophique J. Vrin,,false,1,18655001,1,5,1,0,1950/7/1,,,1,0,0,0,0,5.00,192,Paperback,,1,0,Solomon ibn Gabirol,,,,,,1,0,,
18655501,,Dunkles Feuer (German Edition),9783730912539,,,,ES,,,,true,3,7697804,27,36,13,1,2007/1/1,,book,0,1,8,4,0,2.77,,,,5,0,Elvira Zeißler,,,,,,7,2,1,
18656001,1927264103,"Changels: Into Darkness (Changels, #2 - Part Two)",9781927264102,,,,ES,2013/6/30,Peter King Publishing,eng,false,4,29371861,5,0,0,0,2013/6/1,,book,0,0,0,0,0,0.00,298,Paperback,,0,0,Peter     King,,,,,,1,0,1,
18656501,,Como se advoga no Supremo Tribunal Federal,,,,,ES,1977/1/1,Editora Rio,por,false,1,18656501,1,0,0,0,1977/1/1,,book,0,0,0,0,0,0.00,214,Paperback,,0,0,José de Aguiar Dias,,,,,,,0,,
18657001,,Homespun Christmas,,B00D4MWF0A,,,ES,2013/11/1,Harlequin Heartwarming ,eng,true,7,18657001,81,88,23,6,2013/1/1,Homespun Christmas,book,6,10,5,1,1,3.83,194,Kindle Edition,,16,5,Aimée Thurlo,,,,,,44,0,-1,"american,christmas,contemporary,love-story,mystery,romance"
18657501,8540505584,Exploradores do abismo,9788540505582,,,,ES,2013/10/17,Cosac Naify,por,false,11,2425553,634,1091,293,24,2007/1/1,Exploradores Del Abismo,book,54,134,80,20,5,3.72,320,Paperback,1ª,27,2,Enrique Vila-Matas,,,,,,259,5,18,"fiction,romance,short-stories"
18658001,,Cienioryt,9788308052495,,,,ES,2013/10/10,Wydawnictwo Literackie,pol,true,3,18244750,428,930,255,17,2013/10/10,,book,42,115,71,20,7,3.65,,ebook,,9,0,Krzysztof Piskorski,,,,,,141,12,7,"adventure,fantasy,fiction,paranormal,speculative-fiction"
18658501,9187331322,Bullerbyboken,9789187331329,,,,ES,2013/7/1,Astrid Lindgren/Saltkråkan AB,swe,false,78,19311,12868,34511,8081,265,1946/1/1,Alla vi barn i Bullerbyn,book,4107,2445,1217,233,79,4.27,,Audiobook,,14,0,Astrid Lindgren,,,,,,2846,124,57,"adventure,chapter-books,childrens,classics,family,fiction,funny,historical-fiction,humor,juvenile,middle-grade,realistic-fiction,school,young-adult"
18659001,,Serrote 2,,,,,ES,2009/1/1,Instituto Moreira Salles,por,false,1,18659001,3,3,1,0,2009/1/1,,book,0,0,1,0,0,3.00,224,,,1,0,Instituto Moreira Salles,,,,,,,0,,
18659501,,"Red Kit Tek Kollu Haydut (Red Kit, #7)",,,,,ES,1985/4/1,Milliyet Yayınları,tur,false,20,508866,342,854,233,10,1981/1/1,Le Bandit Manchot,book,43,87,88,12,3,3.67,,Hardcover,,0,0,"Bob de Groot,Morris",,,,,,32,5,,"adventure,comics,graphic-novels,graphic-novels-comics,humor"
18660001,,Make Money Online Entrepreneur Series: Book 4 - Affiliate Marketing 101,,B00EUMA2L6,,,ES,2013/8/27,Kip Piper Books,en-US,true,1,18660001,5,7,2,0,2013/8/27,,book,1,0,0,1,0,3.50,75,Kindle Edition,,2,0,Kip Piper,,,,,,3,0,,
18660501,,Crooked Lines,9780989449816,,,,ES,2013/7/23,Richard Krieger,eng,true,3,24691607,4,2,1,0,2013/7/23,Crooked Lines,book,0,0,0,1,0,2.00,752,ebook,Nook edition,0,0,Richard Krieger,,,,,,3,0,,
18661001,,จักรวาลมหัศจรรย์ 1,,,,,ES,2005/11/1,เรนนี ซีซั่น,tha,false,1,18661001,6,4,1,0,2005/11/1,,book,0,1,0,0,0,4.00,176,Paperback,,1,0,,,,ชัยวัฒน์ คุประตกุล,,,4,0,,
18662001,9022913317,De naakte aap: een zoölogische studie van het menselijk dier,9789022913314,,,,ES,1980/1/1,A. W. Bruna & Zoon,nl,false,92,33297,17427,31741,8038,452,1967/1/1,The Naked Ape: A Zoologist's Study of the Human Animal,book,2544,3169,1818,384,123,3.95,252,Paperback,,3,0,Desmond Morris,,,,,,7333,28,426,"animals,anthropology,classics,essays,history,nature,non-fiction,philosophy,politics,psychology,reference,research,science,social,society,sociology,unfinished"
18662501,,Stalins hämnd: Röda armén i Tyskland 1944-1945,9789189442627,,,,ES,2003/1/1,Historiska Media,swe,false,3,18662501,30,31,9,0,2001/1/1,Stalins hämnd: Röda armén i Tyskland 1944-1945,book,1,3,4,1,0,3.44,413,Paperback,,8,0,Niclas Sennerteg,,,,,,15,2,,"history,non-fiction,war"
18663001,1492332240,Running with Vince,9781492332244,,,,ES,2013/10/13,CreateSpace Independent Publishing Platform,en-US,false,3,12379031,300,124,27,5,2011/7/6,,book,20,4,2,1,0,4.59,148,Paperback,2,0,0,Jonathan Kuiper,,,,,,266,2,8,"amazon,family,fiction,non-fiction"
18663501,,"Der stählerne Wald (Luc Orient, #5)",,,,,ES,1977/1/1,Koralle Verlag,ger,false,3,18006013,15,35,10,0,1973/1/1,La forêt d'acier,book,0,6,3,1,0,3.50,46,Paperback,,1,0,"Eddy Paape,Greg",,,,,,1,0,,comics
18664001,,רמונה בת 8,,,,,ES,1987/1/1,Keter Publishing,heb,false,78,91253,81469,265567,64999,1375,1981/1/1,"Ramona Quimby, Age 8",book,26466,22035,13100,2399,999,4.09,126,Hardcover,,2,0,"Beverly Cleary,בברלי קלירי",,,,,,7321,285,409,"chapter-books,childrens,classics,contemporary,family,fiction,funny,humor,juvenile,middle-grade,novels,realistic-fiction,school,young-adult"
18664501,8574026158,Instinto de repórter,9788574026152,,,,ES,2005/1/1,Publifolha,por,false,1,18664501,8,19,5,0,2005/1/1,,book,1,2,2,0,0,3.80,288,,,5,0,Elvira Lobato,,,,,,2,0,,
18665001,,Tungkung Langit at Alunsina,,,,,ES,1997/1/1,"Anvil Publishing, Inc.",fil,false,1,18665001,77,28,8,0,1997/1/1,Tungkung Langit at Alunsina,book,4,0,1,2,1,3.50,32,Paperback,,8,0,Rene O. Villanueva,,,,,,55,0,4,childrens
18665501,1472523555,"The Development of Austro-Hungarian Sarajevo, 1878-1918: An Urban History",9781472523556,,,,ES,2014/11/20,Bloomsbury Academic,,false,3,18665501,3,4,1,0,2014/8/28,,,0,1,0,0,0,4.00,272,Hardcover,,1,0,Mary Sparks,,,,,,2,0,,
18666001,,"Deti búrky (Rád temnoty, #2)",9788081421983,,,,ES,2013/1/1,Fortuna Libri,slo,false,7,16074895,8396,8533,2455,264,2013/1/1,Stormbringers,book,409,781,910,279,76,3.48,288,Hardcover,,13,4,Philippa Gregory,,,,,,4951,53,150,"adventure,british-literature,fantasy,fiction,historical,historical-fiction,history,magic,medieval,mystery,paranormal,romance,supernatural,teen,young-adult"
18666501,,معاني القرآن الجزء السابع من سورة المعارج إلى سورة الناس,,,,,ES,2010/1/1,دار نوبليس بيروت,,false,1,18666501,4,2,1,0,2010/1/1,,book,0,0,0,1,0,2.00,152,Hardcover,,1,0,أبو زكريا يحيى بن زيد بن عبد الله الفراء,,,,,,2,0,,
18667501,,โรงงานช็อคโกแล็ตมหัศจรรย์,9789741404100,,,,ES,2012/4/1,ผีเสื้อ,tha,false,113,6310,784549,2344368,568706,10145,1964/1/1,Charlie and the Chocolate Factory,book,236399,200914,103885,19554,7954,4.12,248,Paperback,,10,1,Roald Dahl,Quentin Blake,,,สาลินี คำฉันท์,,138577,1525,3769,"adventure,chapter-books,childrens,classics,comedy,family,fantasy,fiction,funny,humor,juvenile,literature,middle-grade,movies,novels,school,young-adult"
18668001,0670024899,The Histories,9780670024896,,,,ES,2014/5/15,Viking,eng,false,504,1362,99751,145315,36526,1025,-450/1/1,Ἰστορίαι,book,13976,11933,7558,1970,1089,3.98,880,Hardcover,,88,18,Herodotus,,,,Tom Holland,,58500,129,2109,"adult,anthropology,classic-literature,classics,college,fiction,historical,historical-fiction,history,literature,mythology,non-fiction,philosophy,politics,reference,school,travel,unfinished,war"
18668501,,Searching Questions on Healing - A Christian Perspective,9780908460304,,,,ES,2005/1/1,Order of St Luke,,false,1,18668501,0,0,0,0,2005/1/1,,book,0,0,0,0,0,0.00,84,Paperback,,0,0,Owen Dowling,,,,,,,0,,
18669001,,"The Army Doctor's Christmas Baby (Army Doctor's Baby, #3)",,B00FN2PPQE,,,ES,2013/1/1,,en-US,true,2,18669001,608,1433,367,31,2013/1/1,,book,111,139,90,25,2,3.90,,Kindle Edition,,367,31,Helen Scott Taylor,,,,,,148,11,11,"christmas,contemporary,fiction,holiday,novella,romance"
18669501,0062309951,"Eat to Live Cookbook: 200 Delicious Nutrient-Rich Recipes for Fast and Sustained Weight Loss, Reversing Disease, and Lifelong Health",9780062309952,,,,ES,2013/10/8,HarperOne,,false,6,17384002,4541,5200,1260,54,2013/10/8,,book,555,398,239,48,20,4.13,336,Paperback,,26,0,Joel Fuhrman,,,,,,2533,10,411,"cookbooks,cooking,food,health,medical,non-fiction,reference"
18670001,,أشعة الظلام,,,,,ES,,المؤسسة العربية الحديثة,ara,false,1,18670001,14,17,6,0,,أشعة الظلام,book,0,1,3,2,0,2.83,,Paperback,,6,0,شريف شوقي,,,,,,4,0,1,
18670501,8282200360,Russland er sitt eget sted,9788282200363,,,,ES,2012/1/10,Arneberg forlag,nor,false,2,18670501,56,88,20,0,2012/1/1,Russland er sitt eget sted,book,8,12,0,0,0,4.40,620,Hardcover,,20,0,Peter Normann Waage,,,,,,21,1,8,"historical,history,non-fiction,politics"
18671001,1461261228,Membrane Fluidity: Biophysical Techniques and Cellular Regulation,9781461261223,,,,ES,2011/10/17,Humana Press,,false,2,18671001,0,0,0,0,1980/3/1,,,0,0,0,0,0,0.00,446,Paperback,,0,0,"Arnisa Kuksis,Morris Kates",,,,,,,0,,
18671501,146129066X,Cell-To-Cell Communication,9781461290667,,,,ES,2011/11/1,Springer,,false,1,18671501,0,0,0,0,2011/11/1,,,0,0,0,0,0,0.00,388,Paperback,,0,0,,,,Walmor C de Mello,,,,0,,
18672001,1461337984,From Catastrophe to Chaos: A General Theory of Economic Discontinuities,9781461337980,,,,ES,2011/11/24,Springer,,false,5,558039,6,5,2,0,1991/6/30,"From Catastrophe to Chaos: A General Theory of Economic Discontinuities: Mathematics, Microeconomics, Macroeconomics, and Finance (Volume I) (Mathematics, Microeconomics and Finance)",book,0,0,1,1,0,2.50,402,Paperback,,0,0,J. Barkley Rosser Jr.,,,,,,4,0,,
18672501,1462731716,The Walking Wounded,9781462731718,,,,ES,2013/10/7,CrossBooks Publishing,,false,3,18672501,1,0,0,0,2013/10/7,,,0,0,0,0,0,0.00,94,Paperback,,0,0,Debbie Vanderslice,,,,,,,0,1,
18673001,1468442678,Thermal Conductivity 16,9781468442670,,,,ES,2012/4/3,Springer,,false,1,18673001,0,0,0,0,2012/4/3,,,0,0,0,0,0,0.00,624,Paperback,,0,0,,,,David C. Larsen,,,,0,,
18673501,1475773137,Principles of Verifiable Rtl Design: A Functional Coding Style Supporting Verification Processes in Verilog,9781475773132,,,,ES,2013/4/12,Springer,,false,9,16757943,4,0,0,0,2000/1/1,,,0,0,0,0,0,0.00,253,Paperback,,0,0,"Harry D. Foster,Lionel Bening",,,,,,2,0,,
18674001,1491257504,Sea of Troubles,9781491257500,,,,ES,2013/10/8,Createspace,,false,2,23016623,1,5,1,0,2013/10/8,,,1,0,0,0,0,5.00,280,Paperback,,0,0,Dixon Long,,,,,,,0,,
18674501,1492948217,Timecaster Supersymmetry,9781492948216,,,,ES,2013/10/10,Createspace Independent Publishing Platform,,false,13,15767851,645,1138,319,30,2011/12/1,,book,69,111,86,38,15,3.57,280,Paperback,,2,0,"J.A. Konrath,Joe Kimball",,,,,,216,22,30,"action,adventure,comedy,crime,dystopia,fantasy,fiction,horror,humor,paranormal,science-fiction,survival,suspense,thriller,time-travel"
18675001,1628380861,The National Assembly Federal Republic of Nigeria,9781628380866,,,,ES,2013/9/26,"Page Publishing, Inc.",,false,2,18675001,1,5,1,0,2013/9/26,,,1,0,0,0,0,5.00,122,Paperback,,1,0,Kemdi Chino Opara,,,,,,,0,,
18675501,3528040777,Einfuhrung in Die Pll-Technik,9783528040772,,,,ES,1978/1/1,Vieweg+teubner Verlag,,false,2,18675501,0,0,0,0,1978/1/1,,,0,0,0,0,0,0.00,117,Paperback,,0,0,Horst Geschwinde,,,,,,,0,,
18676001,3642888895,Der Smekal-Raman-Effekt: Band 12,9783642888892,,,,ES,1931/1/1,Springer,,false,1,18676001,0,0,0,0,1931/1/1,,,0,0,0,0,0,0.00,392,Paperback,,0,0,K.W.F. Kohlrausch,,,"J. Franck,M. Born",,,,0,,
18676501,364289755X,Materialprufung Mit Rontgenstrahlen: Unter Besonderer Berucksichtigung Der Rontgenmetallographie,9783642897559,,,,ES,1927/1/1,Springer,,false,1,18676501,0,0,0,0,1927/1/1,,,0,0,0,0,0,0.00,384,Paperback,,0,0,Richard Glocker,,,,,,,0,,
18677001,364290484X,Klinik Der Lungentuberkulose,9783642904844,,,,ES,1944/1/1,Springer,,false,1,18677001,0,0,0,0,1944/1/1,,,0,0,0,0,0,0.00,510,Paperback,,0,0,Hermann Ulrici,,,,,,,0,,
18677501,3642983448,Taschenbuch Fur Schnitt- Und Stanzwerkzeuge,9783642983443,,,,ES,1938/1/1,Springer,,false,2,18677501,0,0,0,0,1933/1/1,,,0,0,0,0,0,0.00,138,Paperback,,0,0,Gerhard W. Oehler,,,,,,,0,,
18678001,366303481X,Die Verflussigung Von Montmorillonitschlammen,9783663034810,,,,ES,1958/1/1,Vs Verlag Fur Sozialwissenschaften,,false,1,18678001,0,0,0,0,1958/1/1,,,0,0,0,0,0,0.00,80,Paperback,,0,0,Hans-Ernst Schwiete,,,,,,,0,,
18678501,4431659374,"Advances in Mathematical Economics, Volume 3",9784431659372,,,,ES,2013/10/3,Springer,,false,2,18678501,0,0,0,0,,,,0,0,0,0,0,0.00,128,Paperback,,0,0,,,,Shigeo Kusuoka,,,,0,,
18679001,,The 12 Days of Dennis,9781620042984,,,,ES,2013/12/18,Less Than Three Press LLC,eng,true,2,18679001,84,98,35,22,2013/12/17,The 12 Days of Dennis,book,0,8,15,9,3,2.80,,ebook,,33,21,Jude Dunn,,,,,,33,13,,"christmas,contemporary,fiction,funny,historical,holiday,queer,romance,short-stories"
18679501,,人间词话,,B009FRHR14,,,ES,,,zho,true,8,18679501,434,506,115,3,2009/5/1,人間詞話,book,74,21,14,4,2,4.40,,,,101,2,王国维,,,,,,61,0,234,"classics,non-fiction"
18680001,,Чеченская марионетка или Продажные твари,9785170502578,,,,ES,2008/1/1,,rus,false,1,18680001,9,12,3,0,2008/1/1,,book,0,3,0,0,0,4.00,384,Paperback,,3,0,"Polina Dashkova,Полина Дашкова",,,,,,3,0,,
18680501,,Echoes of Yesterday on Fox Island,,,,,ES,2000/2/21,self published,eng,false,1,18680501,1,5,1,0,2000/2/21,,book,1,0,0,0,0,5.00,69,Paperback,,1,0,Chaunce W. Wight,,,,,,,0,,
18681501,,Voler (French Edition),,B00FINX9S4,,,ES,,,,true,1,18681501,5,0,0,0,2013/9/28,,,0,0,0,0,0,0.00,,,,0,0,Sigal Magen,Tom Magen,,,Aviva Scher-Maayani,,,0,3,
18682001,3943481050,Facetten der Lust,9783943481051,,,,ES,2012/1/1,,ger,false,3,18682001,10,21,5,0,2012/1/1,,book,3,1,0,1,0,4.20,,Paperback,,5,0,Kat Marcuse,,,,,,3,0,,bdsm
18682501,,เกาหลี กุ๊กกิ๊ก ไกด์,9786169051176,,,,ES,2010/3/1,Polkadot,tha,false,1,18682501,12,19,5,1,2010/3/1,,book,1,2,2,0,0,3.80,203,Paperback,,5,1,พนิดา เอี่ยมศิรินพกุล,,,,,,5,0,,travel
18683501,9978801065,Teatro: Trilogía del mar,,,,,ES,1991/7/1,Libresa,spa,false,1,18683501,1,0,0,0,1991/7/1,,book,0,0,0,0,0,0.00,340,Paperback,First edition,0,0,Francisco Tobar García,,,,,,1,0,,"collections,plays"
18684001,,The Orthodox Worldview and Contemporary Natural Sciences,,,,,ES,1998/1/1,Palomnik,rus,false,1,18684001,0,0,0,0,1998/1/1,The Orthodox Worldview and Contemporary Natural Sciences: The Creation Classes in the Ordinary High School,book,0,0,0,0,0,0.00,,,,0,0,Timothy Alferov,,,,,,,0,,"christian,christianity"
18684501,,Oh non! Jano a perdu son râteau! (Collection - Histoire d'un soir) (French Edition),9782923592893,,,,ES,,,,true,1,18684501,3,9,2,0,2013/10/6,,,1,1,0,0,0,4.50,,,,2,0,Julie Fortin,Sylvie Laflamme,,,,,,0,,
18685001,,The Iliad,,,,,ES,2003/1/1,Wordsworth Classics,eng,false,2172,1371,550671,1201821,312416,5864,-720/1/1,Ἰλιάς,book,101693,101984,76723,23235,8781,3.85,448,Mass Market Paperback,,2,1,Homer,,,,George Chapman,,174940,1208,10536,"adult,adult-fiction,adventure,classic-literature,classics,college,epic,fantasy,fiction,high-school,historical,historical-fiction,history,literature,mythology,non-fiction,novels,philosophy,plays,poetry,school,unfinished,war"
18686001,0175550972,Practice tests for First Certificate English. Book 1,,,,,ES,1982/1/1,Thomas Nelson and Sons Ltd.,eng,false,1,18686001,2,0,0,0,1982/1/1,,book,0,0,0,0,0,0.00,63,Paperback,,0,0,"Margaret Archer, Enid Nolan-Woods",,,,,,1,0,,
18687001,1492912417,Everything I Know About Teaching,9781492912415,,,,ES,2013/10/7,CreateSpace,eng,false,2,18687001,38,116,25,2,2013/10/7,,book,21,2,0,1,1,4.64,90,Paperback,,25,2,,,,,,,11,0,,"non-fiction,teaching"
18687501,,The Pledge,,B00FYYXP40,,,ES,2013/10/16,,en-GB,true,5,20549171,73,129,29,3,2013/10/16,,book,19,4,6,0,0,4.45,,Kindle Edition,,24,3,S.R. Booth,,,,,,18,0,20,"christian,health"
18688001,8807812932,Baby Boom,9788807812934,,,,ES,1994/1/1,Feltrinelli,ita,false,6,18688001,28,35,11,5,1985/1/1,Baby boom,book,2,2,3,4,0,3.18,192,Paperback,,6,2,Jean Vautrin,,,,,,1,0,,short-stories
18688501,,Oeuvres de Molière (Oeuvres de Molière #1),,,,,ES,1862/1/1,Édition Variorum,fre,false,3,18688501,5,0,0,0,1862/1/1,,,0,0,0,0,0,0.00,610,Hardcover,,0,0,Molière,,,,,,3,0,,
18689001,1846685133,"The Society of Timid Souls: or, How To Be Brave",9781846685132,,,,ES,2013/1/1,Profile Books,,false,1,16085444,961,524,152,37,2013/7/9,"The Society of Timid Souls: or, How To Be Brave",book,23,51,54,19,5,3.45,312,Paperback,,1,1,Polly Morland,,,,,,746,15,18,"essays,health,non-fiction,personal-development,philosophy,psychology,self-help,society"
18689501,144237053X,The Descent: Book Three of the Taker Trilogy,9781442370531,,,,ES,2014/1/7,Simon  Schuster Audio,,false,11,15802137,4219,5518,1464,236,2013/5/21,The Descent,book,429,488,369,136,42,3.77,352,Audiobook,,2,0,Alma Katsu,,,,,,2420,25,40,"adult,adult-fiction,dark,demons,fantasy,fiction,historical,historical-fiction,horror,love,magic,mystery,mythology,paranormal,romance,science-fiction,speculative-fiction,supernatural,teen,thriller,time-travel,urban-fantasy,vampires,young-adult"
18690001,,Great Halibut Recipes For The Busy Home Cook,,B00FGHKUF2,,,ES,2013/9/26,,en-US,true,1,18690001,5,7,2,0,2013/9/26,,book,0,1,1,0,0,3.50,,Kindle Edition,,2,0,,,,T.J. Mercer,,,1,0,,cooking
18690501,3518393480,Der Prinz von Theben,,,,,ES,1998/1/1,Suhrkamp,ger,false,2,1927861,16,29,8,2,1959/1/1,Der Prinz von Theben. Ein Geschichtenbuch,book,2,2,3,1,0,3.62,628,Paperback,Gesammelte Werke Band 2,1,1,Else Lasker-Schüler,,,,,,7,2,,"fiction,novels"
18691001,,Narwalzahn und Alte Meister: Aus dem Leben einer Kunsthändlerdynastie,9783455502800,,,,ES,2013/1/1,Hoffmann und Campe,ger,false,1,18691001,6,20,5,1,2013/1/1,,book,2,1,2,0,0,4.00,382,Hardcover,,5,1,Konrad O. Bernheimer,,,,,,,1,,
18691501,,What Are You Wearing?,,B008OYM3H2,,,ES,2012/1/1,,en-GB,true,1,18691501,2,2,1,0,2012/1/1,,book,0,0,0,1,0,2.00,19,Kindle Edition,,1,0,Audra Red,,,,,,1,0,,
18692001,,من صفات الرسول,,,,,ES,1980/1/1,دار المسلم,,false,1,18692001,19,0,0,0,1980/1/1,,book,0,0,0,0,0,0.00,48,Paperback,,0,0,محمد متولي الشعراوي,,,,,,18,0,,
18692501,,The Brothers Karamazov (卡拉玛佐夫兄弟) (免费公版书),,B00A72VV1I,,,ES,,,jpn,true,1357,4934,506940,880332,203870,9074,1879/11/18,Братья Карамазовы,book,111238,58129,25278,6567,2658,4.32,,,,2,0,"(陀思妥耶夫斯基 ),Fyodor Dostoyevsky",,,,,,253747,1042,23058,"adult,adult-fiction,christianity,classic-literature,classics,crime,drama,family,fiction,historical,historical-fiction,history,literary-fiction,literature,mystery,novels,philosophy,psychology,religion,romance,school,unfinished"
18693001,9986950078,Amžinasis karas,,,,,ES,1998/1/1,Eridanas,lit,false,106,21611,198948,499572,120284,5182,1974/12/1,The Forever War,book,49423,46017,19831,3883,1130,4.15,213,Paperback,,10,2,Joe Haldeman,,,,Irmina Domeikienė,,65223,188,3784,"adult,adventure,aliens,american,classics,dystopia,fantasy,fiction,literature,novels,science,science-fiction,science-fiction-fantasy,speculative-fiction,time-travel,war"
18693501,1491946962,BioCoder,9781491946961,,,,ES,2013/11/4,O'Reilly Media,,false,1,18693501,3,0,0,0,2013/11/22,,,0,0,0,0,0,0.00,42,Paperback,,0,0,O'Reilly Media Inc.,,,,,,2,0,,
18694001,,"Allio,you are free",,,,,ES,,,eng,false,1,18694001,1,1,1,0,,,book,0,0,0,0,1,1.00,,Paperback,,1,0,Rosemary Jeffrey,,,,,,,0,,
18694501,0674289757,"The Letters and Private Papers of William Makepeace Thackeray, Volume IV, (1857-1863)",9780674289758,,,,ES,2014/4/12,Harvard University Press,,false,1,18694501,1,0,0,0,1946/1/1,,,0,0,0,0,0,0.00,642,Hardcover,,0,0,,,,"Gordon N. Ray,William Makepeace Thackeray",,,1,0,,
18695001,0674730380,Nietzsche,9780674730380,,,,ES,2014/4/13,Harvard University Press,,false,5,7922054,43,33,10,1,1941/1/1,Nietzsche (Harper torchbooks),book,1,3,4,2,0,3.30,283,Hardcover,,0,0,Crane Brinton,,,,,,26,0,1,"biography,philosophy"
18695501,,"Derechos de autor: 1981/72, 69",,,,,ES,1981/1/1,Autoedición,spa,false,1,18695501,0,5,1,0,1981/1/1,,book,1,0,0,0,0,5.00,,,,1,0,Enrique Lihn,,,,,,,0,,
18696001,0674188454,Politics in Rhodesia,9780674188457,,,,ES,2014/5/15,Harvard University Press,,false,2,4795478,5,3,1,0,1973/1/1,Politics in Rhodesia: White Power in an African State,,0,0,1,0,0,3.00,214,Hardcover,,0,0,Larry W. Bowman,,,,,,1,0,,non-fiction
18696501,0674422279,College Choice in America,9780674422278,,,,ES,2014/5/20,Harvard University Press,,false,2,4187140,2,4,1,0,1983/3/24,College Choice in America,,0,1,0,0,0,4.00,236,Hardcover,,0,0,"Charles F. Manski,David A. Wise",,,,,,1,1,,
18697001,0674493826,The Regulation of Railroad Abandonments,9780674493827,,,,ES,2013/10/1,Harvard University Press,,false,3,18697001,0,0,0,0,2013/10/1,,,0,0,0,0,0,0.00,287,Hardcover,,0,0,Charles Richards Cherington,,,,,,,0,,
18697501,0674865642,Ancient Society,9780674865648,,,,ES,2014/4/5,Harvard University Press,,false,53,6164507,261,178,56,3,1877/1/1,Ancient Society for Researches in the Lines of Human Progress from Savagery through Barbarism to Civilization,,5,16,22,10,3,3.18,516,Hardcover,,1,0,Lewis Henry Morgan,,,Leslie A White,,,162,4,11,"anthropology,college,history,non-fiction,reference,school,science,sociology,unfinished"
18698001,0988180006,Physics of Multidimensional Time,9780988180000,,,,ES,2013/10/15,Wisdom Cornerstone,,false,1,18698001,3,5,1,0,2013/10/15,,,1,0,0,0,0,5.00,150,Paperback,,1,0,Jose Santiago Flores,,,,,,2,0,,
18698501,,免费:商业的未来（精编图文版）（中信商业经典） (Chinese Edition),,B008CV0R5W,,,ES,,,,true,1,18698501,8,10,3,0,2009/9/1,,,1,0,1,1,0,3.33,,,,3,0,克里斯•安德森,,,,"冯斌,璩静,蒋旭峰",,4,0,,
18699001,1478283688,It's All about Kate: A Sketch about Retirement,9781478283683,,,,ES,2013/10/16,Createspace,,false,1,18699001,0,0,0,0,2013/10/16,,,0,0,0,0,0,0.00,80,Paperback,,0,0,Ellen Shaffer Meyer,,,,,,,0,,
18699501,0321955048,Prealgebra,9780321955043,,,,ES,2014/2/3,Pearson,,false,53,8293985,145,150,42,2,1992/12/1,,book,16,6,10,6,4,3.57,888,Paperback,,1,0,K. Elayn Martin-Gay,,,,,,21,1,5,textbooks
18700001,0333749669,Confucianism and Modernisation,9780333749661,,,,ES,1999/5/19,Palgrave MacMillan,eng,false,4,1307931,2,0,0,0,1999/5/19,Confucianism And Modernization : Industrialization And Democratize,,0,0,0,0,0,0.00,229,Hardcover,,0,0,Wei-Bin Zhang,,,,,,2,0,,sociology
18700501,149229618X,Hugo: How Two Boys Learned of Life from a Killer Shark,9781492296188,,,,ES,2013/8/29,Createspace Independent Publishing Platform,,false,2,18890733,272,405,103,17,2013/8/29,,book,42,28,20,10,3,3.93,166,Paperback,,0,0,Michael McEachern,22MediaLab.com,,,,,130,9,15,"adventure,animals,drama,fiction,historical-fiction,memoir,non-fiction,novella,young-adult"
18701001,050077093X,The True History of Chocolate,9780500770931,,,,ES,2013/6/28,Thames  Hudson,,true,14,88456,7686,4249,1118,102,1996/1/1,The True History of Chocolate,book,332,361,315,90,20,3.80,280,ebook,,0,0,"Michael D. Coe,Sophie D Coe",,,,,,6211,28,78,"anthropology,cookbooks,cooking,fiction,food,historical,history,nature,non-fiction,research,school"
18701501,0763667161,"Living with Jackie Chan (Jumping Off Swings, #2)",9780763667160,,,,ES,,Candlewick Press (MA),eng,true,5,17262306,4679,4130,1043,152,2013/9/10,,book,364,374,227,55,23,3.96,,ebook,,0,0,Jo Knowles,,,,,,3405,25,25,"contemporary,family,fiction,high-school,realistic-fiction,relationships,romance,school,sports,teen,young-adult"
18702001,1781486174,The Unforgettable Night,9781781486177,,,,ES,2013/10/2,Grosvenor House Publishing Limited,,false,1,18702001,0,0,0,0,2013/10/2,,,0,0,0,0,0,0.00,70,Paperback,,0,0,Annie Hamilton,,,,,,,0,,
18702501,1909254703,On History,9781909254701,,,,ES,2013/10/9,Open Book Publishers,,false,3,25614060,1,0,0,0,2013/10/9,,,0,0,0,0,0,0.00,174,Paperback,,0,0,Jules Michelet,,,Lionel Gossman,,,1,0,,
18703001,1134385099,Women at a Crossroads,9781134385096,,,,ES,2013/10/11,Routledge,,true,4,18703000,1,0,0,0,2013/10/11,,,0,0,0,0,0,0.00,192,ebook,,0,0,M Lewis Renaud,,,,,,1,0,,
18703501,1135303177,Managing Local Services: From Cct to Best Value,9781135303174,,,,ES,2013/10/14,Routledge,,true,7,19614877,0,0,0,0,1999/1/1,,,0,0,0,0,0,0.00,144,ebook,,0,0,,,,George A. Boyne,,,,0,,
18704001,1136278257,Towards a Measure of Man: The Frontiers of Normal Adjustment,9781136278259,,,,ES,2013/10/15,Routledge,,true,7,13709104,1,0,0,0,2003/1/31,,,0,0,0,0,0,0.00,258,ebook,,0,0,Paul Halmos,,,,,,,0,,sociology
18704501,1285852753,C++ Programming: Program Design Including Data Structures,9781285852751,,,,ES,2014/3/26,Cengage Learning,,false,15,2093740,176,260,67,1,2002/4/11,C++ Programming: Program Design Including Data Structures,book,25,18,17,5,2,3.88,1680,Paperback,,9,0,D.S. Malik,,,,,,75,1,12,"collections,non-fiction,reference,school,science,textbooks"
18705001,1408185881,Postdramatic Theatre and the Political: International Perspectives on Contemporary Performance,9781408185889,,,,ES,2013/12/19,Methuen Publishing,,true,6,18374198,8,12,3,0,2013/1/1,,,1,1,1,0,0,4.00,256,ebook,,0,0,,,,Jerome Carroll,,,4,0,,theatre
18705501,1449682529,Advanced Engineering Mathematics,9781449682521,,,,ES,2015/1/5,Jones & Bartlett Publishers,,true,19,241441,724,449,115,11,1992/1/1,Advanced Engineering Mathematics,book,46,34,18,12,5,3.90,608,ebook,,0,0,"Dennis G. Zill,Warren S Wright",,,,,,431,5,34,"college,non-fiction,science,textbooks"
18706001,1477730923,Smartphone Safety,9781477730928,,,,ES,2014/8/1,PowerKids Press,,false,2,18706001,0,0,0,0,2013/12/15,,,0,0,0,0,0,0.00,,Hardcover,,0,0,Eric Minton,,,,,,,0,,
18706501,1493101943,Why They Fight,9781493101948,,,,ES,2013/10/16,Xlibris Corporation,,false,1,18706501,0,0,0,0,2013/10/16,,,0,0,0,0,0,0.00,280,Paperback,,0,0,T M Howell,,,,,,,0,,
18707001,1574822586,Developmental Assets: A Synthesis of the Scientific Research on Adolescent Development,9781574822588,,,,ES,2004/12/1,Search Institute,,true,3,1763420,17,34,9,1,2004/1/1,Developmental Assets: A Synthesis of the Scientific Research on Adolescent Development,book,1,6,1,1,0,3.78,306,ebook,,0,0,"Nancy Leffert,Peter C. Scales",,,,,,4,0,,non-fiction
18707501,160753469X,Stonehenge,9781607534693,,,,ES,2014/9/1,Amicus High Interest,,false,2,18707501,7,12,3,0,2014/9/1,,,1,1,1,0,0,4.00,32,Hardcover,,3,0,Elizabeth Raum,,,,,,2,0,,juvenile
18708001,1626170533,Monster Bulldozers,9781626170537,,,,ES,2014/1/1,Bellwether Media,,false,1,18708001,13,18,4,1,2014/1/1,,,3,0,1,0,0,4.50,24,Hardcover,,4,1,Chris Bowman,,,,,,1,3,,"childrens,juvenile,picture-books"
18708501,1921867620,"Theories, Practices and Examples for Community and Social Informatics",9781921867620,,,,ES,2014/4/30,Monash University Publishing,,false,1,18708501,1,4,1,0,2014/2/10,,,0,1,0,0,0,4.00,168,Paperback,,1,0,,,,"Larry Stillman,Mauro Sarrica,Tom Denison",,,,0,,
18709001,9004258299,Church and School in Early Modern Protestantism: Studies in Honor of Richard A. Muller on the Maturation of a Theological Tradition,9789004258297,,,,ES,2013/10/10,Brill,eng,true,3,21452809,11,14,3,1,2013/10/1,,book,2,1,0,0,0,4.67,830,ebook,,0,0,,,,"David Sytsma,Jason Zuidema,Jordan J. Ballor",,,7,0,,"christian,education,history,philosophy,theology"
18709501,,English - Russian Dictionary of most common words,,B00EW1N3TS,,,ES,,,,true,1,18709501,10,29,8,0,2013/8/29,,,2,1,5,0,0,3.62,,,,8,0,Natalia Stepanova,,,,,,1,0,1,
18710001,,Trys Beno Baksterio Mirtys,,,,,ES,1968/1/1,Vaga,lit,false,2,18710001,24,52,13,0,1968/1/1,,book,5,4,3,1,0,4.00,406,Hardcover,,11,0,"Robert Sheckley,Robertas Šeklis",,,,"A. Krištopas,D. Meciūnaitė,V. Miliūnaitė",,5,0,,science-fiction
18710501,2207116131,Le Chemin des dieux,9782207116135,,,,ES,2013/4/26,Lunes d'Encre,fre,false,3,18710501,21,23,7,1,2013/4/26,Le Chemin des dieux,book,3,0,1,2,1,3.29,480,Paperback,,4,0,Jean-Philippe Depotte,,,,,,9,0,1,"fantasy,science-fiction"
18711001,,"Ember Lane, A Winter's Tale",,,,,ES,1940/1/1,Harper & Brothers Publishers,eng,false,1,18711001,3,3,1,0,1940/1/1,,book,0,0,1,0,0,3.00,363,Hardcover,,1,0,Sheila Kaye-Smith,,,,,,2,0,,
18711501,,Kuća svile,9789533131900,,,,ES,2013/1/1,Profil knjiga,scr,false,100,11093329,71652,142148,35866,3946,2011/11/1,The House of Silk,book,10924,15414,7433,1478,617,3.96,277,Paperback,,31,5,Anthony Horowitz,,,,Giga Gračan,,30658,237,1278,"adult,adult-fiction,adventure,classics,contemporary,crime,detective,fiction,historical,historical-fiction,history,murder-mystery,mystery,mystery-thriller,novels,retellings,suspense,thriller,victorian,young-adult"
18712001,,Jahú - Sonho com asas,9788588948815,,,,ES,2009/1/1,Panda Books,,false,1,18712001,3,6,2,0,2009/1/1,,book,0,0,2,0,0,3.00,,,,2,0,Ivan Jaf,,,,,,,0,,historical-fiction
18712501,8577990745,"Os Relógios (Hercule Poirot, #34)",9788577990740,,,,ES,2009/1/1,Edições BestBolso,por,false,183,388018,33937,70430,18964,893,1963/11/7,The Clocks,book,4046,7087,6376,1269,186,3.71,280,Paperback,,18,1,Agatha Christie,,,,Carmem Prudente,,8357,70,398,"adult,adult-fiction,british-literature,classics,cozy-mystery,crime,detective,fiction,historical,historical-fiction,murder-mystery,mystery,mystery-thriller,novels,suspense,thriller"
18713001,,Себастьян Бах,,,,,ES,1963/1/1,Государственное музыкальное издательство,rus,false,3,18712987,4,0,0,0,1953/1/1,Себастьян Бах,book,0,0,0,0,0,0.00,448,Hardcover,4-е издание,0,0,Георгий Хубов,,,,,,2,0,,
18713501,,One Pink Line,,B00CRKNKM6,,,ES,2013/5/28,Brilliance Audio,eng,false,3,13108849,12985,23595,6030,767,2011/10/20,One Pink Line,book,1802,2431,1358,348,91,3.91,259,Audible Audio,"Digital Download, Unabridged",13,4,Dina Silver,,,,,"Amy McFadden,Cristina Panfilio",5579,95,292,"adult,adult-fiction,chick-lit,college,contemporary,drama,family,fiction,new-adult,realistic-fiction,romance,young-adult"
18714001,,Dicionário Priberam da Língua Portuguesa,,B0050BXW8Q,,,ES,,,,true,3,18714001,672,150,39,0,2012/9/27,,,18,10,3,3,5,3.85,,,,33,0,Priberam,,,,,,120,1,496,reference
18714501,,?????? (????????) (Chinese Edition),,B007K5HTK2,,,ES,,,,true,1,18714501,0,0,0,0,,,,0,0,0,0,0,0.00,,,,0,0,???,,,,,,,0,,
18715001,,"Random (Going the Distance, #1)",,B00G4CN1HM,,,ES,2013/11/12,Barbara Samuel,eng,true,4,21857992,2659,3220,890,104,2013/11/12,Random: A Going the Distance Novel,book,221,277,261,93,38,3.62,300,Kindle Edition,,341,47,Lark O'Neal,,,,,,1401,28,65,"amazon,contemporary,new-adult,romance,young-adult"
18715501,,Antología Lírica,,,,,ES,1968/1/1,Editorial COCULSA,spa,false,46,261890,504,1053,260,16,1968/1/1,Antologia poetica,book,99,91,56,12,2,4.05,48,Paperback,Colección Primera Biblioteca Literatura Española,3,0,Federico García Lorca,,,,,,144,6,15,"anthologies,classics,fiction,lgbt,literature,poetry,queer"
18716001,,Техника личной работы,,,,,ES,1979/1/1,Современная Россия,rus,false,1,18716001,2,3,1,1,1979/1/1,,book,0,0,1,0,0,3.00,192,Hardcover,Букинистическое издание,1,1,Гавриил Попов,,,,,,1,0,,
18716501,,Double Masque - tome 2 - Fourmi (French Edition),9782505028956,,,,ES,,,,true,1,18716501,1,5,1,0,2013/6/14,,,1,0,0,0,0,5.00,,,,1,0,Jean Duffaux,Martin Jamar,,,,,,0,,
18717001,8564406616,Um Plano Quase Perfeito,9788564406612,,,,ES,2013/10/1,Tordesilhas,por,false,6,7411981,91,160,51,5,2009/1/1,,book,8,12,13,15,3,3.14,424,Paperback,1ª,2,0,Petra Hammesfahr,,,,Petê Rissatti,,20,2,1,"crime,thriller"
18717501,,"Entre Dos Amores (Entre Dos Amores, #1)",,,,,ES,2013/2/17,,spa,true,2,18717501,1,3,1,0,2013/2/17,Entre Dos Amores,not a book,0,0,1,0,0,3.00,133,ebook,,1,0,Carmen Esther,,,,,,,0,,
18718001,,العروة الوثقى,,,,,ES,,دار ناشري للنشر الالكتروني,ara,true,1,18718001,7,3,1,1,,,book,0,0,1,0,0,3.00,,ebook,,1,1,رواء محمود حسين,,,,,,4,0,,
18718501,,Hood Rich,,B00G79L9LC,,,ES,2013/10/25,Seven Publishing,eng,true,2,18718501,7,5,1,1,2012/12/21,,book,1,0,0,0,0,5.00,104,Kindle Edition,1st,1,1,Corie Allen,,,,,,6,0,,
18719001,,Book Summary of Shred: The Revolutionary Diet Guide Book That Teaches You How to Lose Weight Fast,,B00BB3ONIK,,,ES,2013/2/4,,en-US,true,1,18719001,4,3,1,0,2013/2/4,,book,0,0,1,0,0,3.00,54,ebook,,1,0,Brock Bumgarner,,,,,,3,0,,health
18719501,,Passion and Deceit V,,,,,ES,2013/1/1,,,false,1,18719501,80,188,44,3,2013/1/1,,book,22,13,8,1,0,4.27,,,,44,3,Leela Atherton,,,,,,30,3,,"bdsm,new-adult"
18720001,000749307X,The Scent of Death,9780007493074,,,,ES,2013/2/28,HarperCollins,en-US,true,17,16156099,2395,2646,733,142,2013/10/10,,book,119,304,232,61,17,3.61,480,Kindle Edition,,80,5,Andrew  Taylor,,,,,,1479,21,46,"adult-fiction,american-history,crime,european-literature,fiction,historical,historical-fiction,history,murder-mystery,mystery,mystery-thriller,suspense,thriller,war"
18720501,3423105275,Die Erzählungen. 1949 - 1984: 3 Bände,,,,,ES,1986/1/1,DTV,ger,false,2,18720501,8,8,2,0,1986/1/1,,book,0,2,0,0,0,4.00,998,Paperback,,2,0,Siegfried Lenz,,,,,,3,0,1,
18721001,951313170X,Ilmassa,,,,,ES,2004/1/1,Tammi,fin,false,28,96352,4147,8143,2307,263,2004/1/1,Aloft,book,358,850,819,216,64,3.53,399,Hardcover,Keltainen kirjasto,3,0,Chang-rae Lee,,,,,,1345,7,52,"adult,adult-fiction,american,class,contemporary,drama,family,fiction,literary-fiction,literature,modern,non-fiction,novels,realistic-fiction,relationships"
18721501,,La mala educación: Ideas que inspiran al movimiento estudiantil en Chile,9789563241143,,,,ES,2013/2/1,Catalonia,spa,false,2,18721501,22,17,4,0,2012/5/1,La mala educación: Ideas que inspiran al movimiento estudiantil en Chile,book,2,1,1,0,0,4.25,186,Paperback,,3,0,Fernando Atria,,,,,,14,0,2,
18722001,,Un Drame Au Bord De La Mer,,B005R90DG0,,,ES,,,fre,true,35,2138112,171,262,73,7,1834/1/1,Le chef-d'oeuvre inconnu,book,12,27,27,6,1,3.59,,,,4,1,Honoré de Balzac,,,,,,79,5,3,"classics,fiction,france,historical-fiction,short-stories,tragedy"
18722501,1480416649,An Early American Christmas,9781480416642,,,,ES,2013/11/5,Holiday House,,true,12,2281895,401,768,199,38,1987/1/1,An Early American Christmas,book,48,84,59,7,1,3.86,32,ebook,,0,0,Tomie dePaola,,,,,,114,14,4,"childrens,christmas,faith,fiction,historical-fiction,history,holiday,modern,picture-books"
18723001,1421567687,"Pokémon Black and White, Vol. 16",9781421567686,,,,ES,2014/6/3,VIZ Media - Children's,,false,1,18723001,119,167,37,0,2014/6/3,,,24,8,5,0,0,4.51,80,Paperback,,37,0,Hidenori Kusaka,,,,,,54,3,,"fiction,graphic-novels,juvenile,manga"
18723501,0300204248,"Of Green Leaf, Bird, and Flower: Artists' Books and the Natural World",9780300204247,,,,ES,2014/7/1,Yale University Press,,false,1,18723501,43,54,12,2,2014/6/3,,book,7,4,1,0,0,4.50,248,Hardcover,,12,2,,,,Elisabeth Fairman,,,30,0,,"animals,art,historical,nature,non-fiction,reference,science"
18724501,129996074X,Language Development: An Introduction,9781299960749,,,,ES,2013/10/8,Pearson,eng,true,26,1800384,226,221,64,2,1984/1/1,Language Development: An Introduction,book,13,20,19,7,5,3.45,517,ebook,International Edition,0,0,Robert E. Owens Jr.,,,,,,91,3,10,"education,language,psychology,reference,school,science"
18725001,1299994652,Army of Charles II,9781299994652,,,,ES,2014/3/15,Routledge,,true,6,3480357,14,29,7,1,1976/1/1,The army of Charles II (Studies in social history),book,3,2,2,0,0,4.14,319,ebook,,1,0,John Childs,,,,,,3,1,,"history,reference"
18725501,1306000033,Level 3 Nvq/Svq Diploma Installing Electrotechnical Systems and Equipment Candidate Handbook B,9781306000031,,,,ES,2013/1/1,Heinemann Educational Books,,true,1,18725501,1,4,1,1,2013/1/1,,,0,1,0,0,0,4.00,513,ebook,,1,1,Jtl Training Jtl,,,,,,,0,,
18726001,1306005515,"J.R.: My Life as the Most Outspoken, Fearless, and Hard-Hitting Man in Hockey",9781306005517,,,,ES,2013/10/19,Triumph Books (IL),,true,10,15806762,1104,2137,556,71,2012/1/1,,book,144,230,141,33,8,3.84,339,ebook,,0,0,"Jeremy Roenick,Kevin Allen",,,,,,224,19,19,"adult,autobiography,biography,memoir,non-fiction,sports"
18726501,1306011205,All of Me: How I Learned to Live with the Many Personalities Sharing My Body,9781306011204,,,,ES,2013/10/22,Chicago Review Press,,true,13,11867089,2350,2565,628,79,2011/1/1,All of Me,book,253,215,126,28,6,4.08,394,ebook,,3,0,Kim  Noble,,,,,,988,9,60,"autobiography,biography,biography-memoir,health,memoir,mental-health,mental-illness,non-fiction,philosophy,psychology"
18727001,1306016258,Super Frank: Portrait of a Hero,9781306016254,,,,ES,2013/10/22,Blake Publishing,,true,11,920746,24,59,15,0,2006/5/1,Super Frank!: Frank Lampard - The Biography of England's Greatest Footballer,book,4,8,2,0,1,3.93,369,ebook,,0,0,Douglas Thompson,,,,,,7,0,1,
18727501,1306021278,Come the Hour,9781306021272,,,,ES,2011/1/1,Robert Hale & Company,,true,10,13435845,7,14,4,0,2011/1/1,,,1,1,1,1,0,3.50,225,ebook,,0,0,Peggy Savage,,,,,,1,0,1,
18728001,1306026253,Chrysalis Effect: The Metamorphosis of Global Culture,9781306026253,,,,ES,2013/10/22,Sussex Academic Press,,true,5,6455723,76,84,21,3,2008/1/1,The Chrysalis Effect: The Metamorphosis of Global Culture,,9,5,5,2,0,4.00,254,ebook,,0,0,Philip Slater,,,,,,42,2,5,non-fiction
18728501,1306031605,Civil and Civic,9781306031608,,,,ES,2011/1/1,ECW Press,,true,7,9957468,16,42,11,2,2011/1/1,,,5,3,1,0,2,3.82,64,ebook,,0,0,Jonathan Bennett,,,,,,4,0,,poetry
18729001,1306036682,Angels & Demons' Rome: The Insider's Guide,9781306036689,,,,ES,2010/1/1,Roaring Forties Press,,true,4,18729001,2,0,0,0,2009/1/1,,book,0,0,0,0,0,0.00,42,ebook,,0,0,Angela K. Nickerson,,,,,,,0,,
18729501,1306044405,God's Echo: Exploring Scripture with Midrash,9781306044400,,,,ES,2013/11/1,Paraclete Press (MA),,true,3,1852531,114,211,52,9,2007/1/1,God's Echo: Exploring Scripture with Midrash,book,15,26,10,1,0,4.06,177,ebook,,0,0,Sandy Eisenberg Sasso,,,,,,46,4,8,"christianity,history,religion,theology"
18730001,6066093932,"Simbolul pierdut (Robert Langdon, #3)",9786066093934,,,,ES,2013/1/1,Editura RAO,rum,false,74,6411961,689300,1708147,463223,25765,2009/9/15,The Lost Symbol,book,114756,157448,134725,44106,12188,3.69,602,Paperback,,42,2,Dan Brown,,,,Adriana Bădescu,,122743,523,11256,"action,adult,adult-fiction,adventure,american,contemporary,crime,detective,drama,fantasy,fiction,historical,historical-fiction,history,literature,mystery,mystery-thriller,novels,religion,science-fiction,suspense,thriller"
18730501,0578125765,"Blood, Sweat, Gypsies and Dreams",9780578125763,,,,ES,2013/10/17,Weekend Racer Publishing,,false,2,18730501,1,0,0,0,2013/10/17,,,0,0,0,0,0,0.00,128,Paperback,,0,0,David J. Scott,,,,,,1,0,,
18731001,0887247296,First Grade Activities,9780887247293,,,,ES,2002/1/17,Carson Dellosa Education,,false,1,18731001,1,0,0,0,2002/1/17,,,0,0,0,0,0,0.00,64,Paperback,,0,0,,,,,,,1,0,,
18731501,1460221257,Bluenose Country,9781460221259,,,,ES,2013/10/23,FriesenPress,,false,3,18731500,2,0,0,0,2013/10/23,,,0,0,0,0,0,0.00,330,Hardcover,,0,0,Mortimer Levy,,,,,,2,0,,
18732001,1483804941,"Reading Comprehension and Skills, Grade 3",9781483804941,,,,ES,2014/3/15,Carson Dellosa Education,,false,5,9325587,1,0,0,0,,,,0,0,0,0,0,0.00,128,Paperback,,0,0,,,,,,,,0,,
18732501,1486149286,The Tempest,9781486149285,,,,ES,2012/6/15,Emereo Classics,eng,false,1518,12985,242238,588025,154391,3430,1623/1/1,The Tempest,book,44068,53624,42581,11328,2790,3.81,52,Paperback,The Original Classic Edition,0,0,William Shakespeare,,,,,,55495,962,1679,"adult,adult-fiction,british-literature,classic-literature,classics,college,comedy,drama,english-literature,fantasy,fiction,high-school,historical,historical-fiction,literature,magic,plays,poetry,romance,school,supernatural,theatre"
18733001,1490810390,"Breaking Silence: A Close Look at Divorce, Remarriage, and Abuse",9781490810393,,,,ES,2013/10/23,WestBow Press,,false,1,18733001,0,0,0,0,2013/10/23,,,0,0,0,0,0,0.00,122,Paperback,,0,0,Destine Reid,,,,,,,0,,
18733501,1492941522,Le Troisi�me Secret: La Verit� - Sur La Fausse Version Du Vatican,9781492941521,,,,ES,2013/10/17,Createspace Independent Publishing Platform,,false,4,18732924,2,0,0,0,2013/5/30,,book,0,0,0,0,0,0.00,94,Paperback,,0,0,Iain Colquhoun,,,,,,2,0,,
18734001,1609964756,"Second-Grade Essentials, Grade 2",9781609964757,,,,ES,2012/1/3,Carson Dellosa Education,,false,1,18734001,0,0,0,0,2012/1/3,,,0,0,0,0,0,0.00,304,Paperback,,0,0,,,,,,,,0,,
18734501,1742442307,"Comptia 100 Success Secrets - Start Your It Career Now with Comptia Certification, Validate Your Knowledge and Skills in It - Second Edition",9781742442303,,,,ES,2009/12/8,Emereo Publishing,,false,7,8456829,1,0,0,0,2008/1/28,,,0,0,0,0,0,0.00,210,Paperback,,0,0,Gerard Blokdijk,,,,,,1,0,,
18735001,1937299953,Managing Across Cultures,9781937299958,,,,ES,2013/10/15,Datamotion Publishing LLC,,false,1,18735001,8,17,4,0,2013/10/15,,,2,1,1,0,0,4.25,208,Paperback,,4,0,Neilson Persaud,,,,,,4,0,,
18735501,3732283674,Gemeinden in Europa: Vergleich und Auswertung der Vor- und Nachteile kommunaler Strukturen in Europa – dargestellt an ausgewählten Projekten aus Rheinland-Pfalz und dem Elsass,9783732283675,,,,ES,2013/10/23,Books on Demand,,false,1,18735501,0,0,0,0,2013/10/23,,,0,0,0,0,0,0.00,124,Paperback,,0,0,Karl-Heinz Schoon,,,,,,,0,,
18736001,0199651345,Oxford Handbook of Cardiac Nursing,9780199651344,,,,ES,2014/3/16,"Oxford University Press, USA",,false,2,18736001,5,10,2,0,2014/1/1,,,2,0,0,0,0,5.00,396,Paperback,,2,0,,,,Kate Olson,,,,0,1,
18736501,033357088X,Shakespeare's Culture of Violence,9780333570883,,,,ES,1992/12/9,Palgrave MacMillan,,false,1,18736501,0,0,0,0,1992/12/9,,,0,0,0,0,0,0.00,152,Hardcover,,0,0,Cohen  James,,,,,,,0,,
18737001,0734608551,Develop and Use Complex Spreadsheets: Microsoft Excel 2013,9780734608550,,,,ES,2014/9/30,Tilde Publishing and Distribution,,false,1,18737001,5,0,0,0,2014/5/15,,,0,0,0,0,0,0.00,208,Paperback,,0,0,Tilde Skills,,,,,,4,0,1,
18737501,0942996828,Mum Is Down,9780942996821,,,,ES,2013/12/1,Post Apollo Press,,false,1,18737501,2,8,2,0,2013/11/1,,,1,0,1,0,0,4.00,40,Paperback,,2,0,Oscarine Bosquet,,,,,,,0,,
18738001,1118871642,HTML & CSS: Design and Build Websites,9781118871645,,,,ES,2014/4/21,Wiley,eng,false,9,10361330,8391,14593,3365,288,2011/10/25,,book,1716,1189,368,61,31,4.34,512,Hardcover,,44,5,Jon Duckett,,,,,,3489,17,642,"adult,art,business,college,education,non-fiction,reference,school,science,technology,textbooks"
18738501,1135459622,Composing a Teacher Study Group: Learning about Inquiry in Primary Classrooms,9781135459628,,,,ES,2013/10/18,Routledge,,true,7,18738501,0,0,0,0,1997/10/1,,,0,0,0,0,0,0.00,248,ebook,,0,0,"Elizabeth DeNino,Linda Brown,Richard J. Meyer",,,,,,,0,,
18739001,1469058065,The Practical Drucker: Applying the Wisdom of the World's Greatest Management Thinker,9781469058061,,,,ES,2013/12/1,Your Coach Digital,,false,6,17913964,211,287,76,13,2013/1/1,,,21,27,20,6,2,3.78,,Audiobook,,0,0,William A. Cohen,,,,,,103,5,13,"biography,business,economics,history,inspirational,leadership,non-fiction"
18739501,,Devil's Prize,,,,,ES,2013/10/15,Accent Press,eng,true,7,2668915,125,75,19,1,2008/1/1,,book,9,4,3,2,1,3.95,,Kindle Edition,,0,0,Jane Jackson,,,,,,94,7,1,"historical,historical-fiction,romance"
18740001,9637042296,A végrendelet záradéka (HCM zsebkönyvek #34),,,,,ES,2005/4/1,EX-BB,hun,false,1,18740001,1,4,1,0,2005/4/1,Die Testamentskaluzel,book,0,1,0,0,0,4.00,204,Paperback,,1,0,Hedwig Courths-Mahler,,,,Katalin Bethlen,,,0,,
18740501,,Environments Envisioned: Building Fantastic Sets and Scouting Dramatic Locations,,,,,ES,2012/12/17,Insight Editions for Amazon Publishing,eng,false,1,18740501,51,34,8,3,2012/12/17,,book,3,4,1,0,0,4.25,144,Hardcover,Limited Edition (3000 Copies Only),8,3,"Jody Revenson,Moira Squier",,,,,,41,1,,
18741001,,"Fort Robinson (Perry County, Pennsylvania Frontier Series)",,B007L7J8WG,,,ES,,,,true,2,18741001,66,182,40,1,2003/10/1,,,26,11,2,1,0,4.55,,,,40,1,Roy F. Chandler,,,,,,7,0,10,historical-fiction
18741501,,Il Principe,,B00D8MLTXE,,,ES,,,ita,true,2241,28862,441280,823213,216592,6846,1513/1/1,Il principe,book,61853,75604,58169,16059,4907,3.80,,,,4,1,Niccolò Machiavelli,,,,,,167377,383,16739,"academic,adult,business,classic-literature,classics,college,essays,fiction,high-school,historical,history,leadership,literature,medieval,non-fiction,novels,philosophy,politics,psychology,reference,school,science,self-help,sociology,unfinished,war"
18742001,,The Idumean Covenant: A Novel of the Fall of Jerusalem,9780971669130,,,,ES,,,,true,3,7174973,3,5,2,0,2010/1/1,,,0,1,0,0,1,2.50,,,,1,0,Eugene Stovall,,,,,,1,0,,
18742501,,Tradittions of the North American Indians,,,,,ES,,,,false,1,18742501,0,0,0,0,,,book,0,0,0,0,0,0.00,,,,0,0,James Athearn Jones,,,,,,,0,,
18743001,1484133420,Le Sabre de Bès,9781484133422,,,,ES,2013/2/28,CreateSpace Independent Publishing Platform,fre,false,2,18743001,7,20,5,0,2013/2/28,,book,2,2,0,1,0,4.00,552,Paperback,,3,0,Christelle Morize,,,,,,,0,,
18743501,8681049720,Organizacija in organiziranje,,,,,ES,1994/1/1,Moderna organizacija,slv,false,1,18743501,5,3,1,0,1994/1/1,,book,0,0,1,0,0,3.00,388,Paperback,,1,0,Antun Vila,,,,,,3,0,,
18744001,9781888096,Wayward Shadow,,,,,ES,2013/1/1,La Almeda Press,eng,false,2,18744001,4,14,3,2,2013/1/1,,book,2,1,0,0,0,4.67,,,,3,2,Bruce Holsapple,,,,,,1,0,,
18744501,,الأساطير المؤسسة للسياسة الإسرائيلية و محاورات جارودي بالقاهرة,,,,,ES,,دار الغد الربي,,false,2,18744500,14,3,1,0,,,book,0,0,1,0,0,3.00,,,,0,0,Roger Garaudy,,,,,,11,0,,
18745001,,Amazon Simple Workflow (SWF) Developer Guide,,B007S28N8O,,,ES,,,,true,1,18745001,45,53,16,0,2012/4/5,,,1,5,8,2,0,3.31,,,,16,0,Amazon Web Services,,,,,,12,0,9,
18745501,,Мы с тобой. Дневник любви,,,,,ES,,,,false,3,18745501,13,38,8,2,1996/1/1,,book,7,0,1,0,0,4.75,,,,6,2,"Mikhail Prishvin,В.Д. Пришвина",,,,,,3,0,,
18746001,,"Nepřítel, přítel, ctitel, milenec, manžel",9788071859772,,,,ES,2009/1/1,Paseka,cze,false,43,111126,34864,59469,14673,1414,2001/1/1,"Hateship, Friendship, Courtship, Loveship, Marriage",book,5374,5734,2709,680,176,4.05,320,Hardcover,,20,2,Alice Munro,,,,Alena Jindrová-Špilarová,,16351,75,937,"adult,adult-fiction,americana,classics,collections,contemporary,feminism,fiction,literary-fiction,literature,marriage,novels,relationships,romance,short-stories,unfinished"
18746501,,Flicker Blue 3: Momentum,,,,,ES,,,eng,true,1,18746501,3,7,2,0,,,book,0,1,1,0,0,3.50,,ebook,,2,0,Brea Nicole Bond,,,,,,,1,,
18747001,,"Lords of the North (The Saxon Stories, #3)",,,,,ES,2007/1/24,Harper Audio,eng,false,78,68526,45183,130851,30186,1014,2006/5/22,The Lords of the North,book,13994,12650,3242,255,45,4.33,,Audiobook,,39,6,Bernard Cornwell,,,,,Tom Sellwood,8797,85,1076,"action,adult,adult-fiction,adventure,british-literature,fantasy,fiction,historical,historical-fiction,history,literature,medieval,novels,war"
18747501,,నక్షత్ర దర్శనమ్,,,,,ES,,,tel,false,1,18747501,3,8,3,0,,,book,0,0,2,1,0,2.67,,,,3,0,తనికెళ్ల భరణి,,,,,,,0,,
18748001,,Танец с драконами. Грёзы и пыль (Песнь Люда и Пламени #5 часть 1/2),,,,,ES,2013/1/1,AST,rus,false,50,13337715,35184,90307,20791,829,2011/6/12,A Dance With Dragons: Part 1 Dreams and Dust,book,10407,7558,2458,298,70,4.34,538,Hardcover,,0,0,George R.R. Martin,,,,,,1359,197,44,"action,adult,adult-fiction,adventure,epic,epic-fantasy,fantasy,fiction,historical,historical-fiction,magic,medieval,novels,science-fiction-fantasy,speculative-fiction,war"
18748501,,The Saint at Large,,,,,ES,1945/1/1,The Blakiston Company,,false,3,18748501,22,31,8,1,1945/1/1,,book,3,2,2,1,0,3.88,304,Hardcover,,7,0,Leslie Charteris,,,,,,10,2,,fiction
18749001,,Frog Sat,9780545151023,,,,ES,,"Scholastic, Inc. ",eng,false,2,18749001,13,14,3,0,,,book,2,1,0,0,0,4.67,,,,2,0,Lynn Maslen Kertell,,,,,,2,3,,
18749501,,The Spaniards Come Round,,,,,ES,1922/1/1,Windham Bros.,eng,false,1,18749501,0,0,0,0,1922/1/1,,book,0,0,0,0,0,0.00,538,Hardcover,,0,0,Peter Welch-Davies,,,,,,,0,,
18750001,9736839230,Cuvintelnic fără frontiere,,,,,ES,2002/1/1,Polirom,rum,false,3,18750007,24,37,9,0,2002/1/1,Cuvintelnic fără frontiere,book,3,4,2,0,0,4.11,204,Paperback,I,0,0,Andrei Cornea,,,,,,11,0,1,
18750501,,Misteri Gelas Kembar,9789792284072,,,,ES,2012/5/1,Gramedia Pustaka Utama,ind,false,2,2642593,312,501,147,10,1985/1/1,Misteri Gelas Kembar,book,29,24,73,20,1,3.41,224,Mass Market Paperback,,4,1,S. Mara Gd,,,,,,116,0,2,"crime,detective,mystery,mystery-thriller,novels,suspense,thriller"
18751001,,The Friend - October 2013,,,,,ES,2013/11/1,The Church of Jesus Christ of Latter-Day Saints,eng,false,2,18589921,16,43,10,0,2013/10/1,,book,7,1,1,0,1,4.30,52,,,2,0,The Church of Jesus Christ of Latter-day Saints,,,,,,2,0,,
18751501,,"The Atlantic Monthly, Volume 01, No. 3, January, 1858",,B000JQV2DY,,,ES,,,,true,1,18751501,4,3,1,0,2005/9/1,,,0,0,1,0,0,3.00,,,,1,0,Various,,,,,,3,0,,
18752001,,Valiant Love (Sentinels #4),9789714315754,,,,ES,2010/1/1,Bookware Publishing Corporation,fil,false,1,18752001,24,9,2,1,2010/1/1,,book,1,1,0,0,0,4.50,96,Mass Market Paperback,,2,1,Elise Estrella,,,,,,18,0,,romance
18752501,,Dangerous,,2940016707,,,ES,2013/6/6,Diversion Books,eng,true,5,5198063,95,114,32,2,1996/9/1,Dangerous,,6,8,16,2,0,3.56,,ebook,,0,0,Anita Mills,,,,,,34,9,,romance
18753001,,الأسباب الحقيقية لتكذيب المشركين للرسول صلى الله عليه وسلم,,,,,ES,2004/6/10,المؤسسة العربية الحديثة,ara,false,1,18753001,1,0,0,0,2004/6/10,الأسباب الحقيقية لتكذيب المشركين للرسول صلى الله عليه وسلم,book,0,0,0,0,0,0.00,,Paperback,,0,0,وجيه يعقوب السيد,,,,,,1,0,,
18753501,,Batman #509 (July 1994),,,,,ES,,,,false,1,18753501,17,39,10,2,,,,3,3,4,0,0,3.90,,,,10,2,DC Comics,,,,,,4,0,,comics
18754001,6065796700,"Jocul lui Ender (Saga lui Ender, #1)",9786065796706,,,,ES,2013/9/11,Nemira,rum,false,241,375802,1428728,4278125,994577,40879,1985/1/1,Ender's Game,book,529617,300259,116677,30949,17075,4.30,352,Paperback,Nautilus Science Fiction,102,6,Orson Scott Card,,,,Dan-Mihai Pavelescu,,336618,1387,11379,"action,adult,adult-fiction,adventure,aliens,american,childrens,classics,dystopia,fantasy,fiction,high-school,literature,novels,school,science,science-fiction,science-fiction-fantasy,speculative-fiction,teen,war,young-adult"
18755001,1939967325,"Fires of Man (Psionic Earth, #1)",9781939967329,,,,ES,2014/6/17,Jolly Fish Press,eng,false,6,18755001,144,214,50,25,2014/1/1,,book,24,16,10,0,0,4.28,400,Paperback,,48,25,Dan Levinson,,,,,,78,6,2,"fantasy,fiction,science-fiction,young-adult"
18755501,,Day One (Issue 1),,B00FDWVIHO,,,ES,2013/10/30,Day One,eng,true,1,18755501,26,48,12,0,2013/10/30,,periodical,4,5,2,1,0,4.00,,Kindle Edition,,12,0,"Day One,Rebecca Adams Wright",,,,,,11,0,1,short-stories
18756001,,"Astounding Stories of Super-Science, June, 1930",,B0082VAXEC,,,ES,,,eng,true,5,8882714,22,40,12,2,2009/10/4,,book,2,3,4,3,0,3.33,,,,0,0,"Charles W. Diffin,James P. Olsen,Murray Leinster,Ray Cummings,Tom Curry",,,Harry Bates,,,9,0,,"science-fiction,short-stories"
18756501,,The Ministry of Guidance Invites You to Not Stay: An American Family in Iran,,B00CQZ65KQ,,,ES,2013/11/5,Doubleday,eng,true,15,17345222,4104,3254,937,150,2013/1/1,The Ministry of Guidance Invites You to Not Stay: An American Family in Iran,book,128,331,350,112,16,3.47,,Kindle Edition,,75,1,Hooman Majd,,,,,,3000,25,35,"adult,biography,biography-memoir,cultural,fiction,history,literature,memoir,non-fiction,politics,religion,travel,unfinished"
18757001,,Derrumbe,9788432250620,,,,ES,,Booket,spa,false,11,7614905,119,249,80,7,2008/1/1,Derrumbe,book,7,20,34,13,6,3.11,,,,7,0,Ricardo Menéndez Salmón,,,,,,24,2,,"dark,drama,fiction,romance,thriller"
18757501,,"Oracle (The House War, #6)",,B00O2BS3MK,,,ES,2015/5/5,DAW ,eng,true,7,18757501,922,1979,447,38,2015/5/4,Oracle,book,253,141,45,7,1,4.43,688,Kindle Edition,,397,33,Michelle West,,,,,,97,10,8,"adult-fiction,adventure,demons,epic,epic-fantasy,fantasy,fiction,high-fantasy,magic"
18758001,149365585X,Becoming Maria,9781493655854,,,,ES,2013/11/1,CreateSpace Independent Publishing Platform,en-US,false,3,18758001,16,26,8,2,2013/4/23,,not a book,1,2,4,0,1,3.25,110,Paperback,,3,2,B.A. Dalton,,,,,,6,1,,"bdsm,erotica"
18758501,,Royal Straight,9786022662013,,,,ES,2013/1/1,m&c!,ind,false,1,18758501,10,31,9,1,2005/1/1,Royal Straight,book,3,2,2,0,2,3.44,192,Paperback,,9,1,Aki Mochida,,,,,,1,0,,"comics,manga"
18759001,,Как да гледаме философски на живота,9789545974595,,,,ES,2013/1/1,Фама ,,false,15,11799312,301,540,150,12,1909/1/1,The Philosopher's Joke,book,40,40,49,12,9,3.60,303,,,1,0,Jerome K. Jerome,,,,,,35,5,28,"classics,fiction,historical-fiction,humor,philosophy,short-stories"
18759501,1489594663,The Northwest Cavegirls Bake,9781489594662,,,,ES,2013/3/1,Createspace Independent Publishing Platform,eng,false,1,18759501,1,5,1,0,2013/3/1,,book,1,0,0,0,0,5.00,46,Paperback,,1,0,Angie Hancock,A. Hinojos Yusuf,Kate Aiken,,,,,0,,
18760001,,Megabotz Battle: Carnibotz (Megabotz Battle),9786020223056,,,,ES,2013/11/6,Elex Media Komputindo,ind,false,1,18760001,0,0,0,0,2013/11/6,,book,0,0,0,0,0,0.00,14,Paperback,,0,0,Boobesar,,,,,,,0,,
18760501,,Soshiki: A Japanese Perspective on Organizational Behavior and Leadership for All,,B00G4G0YC8,,,ES,2013/10/22,Ken Tanabata,eng,true,2,20611998,18,18,5,2,2013/10/22,,book,2,0,2,1,0,3.60,26,Kindle Edition,,4,1,Ken Tanabata,,,,,,11,0,1,
18761001,,Creciendo juntos,,B00FH5QIW2,,,ES,2013/10/29,Ediciones Temas de Hoy,spa,true,5,18761001,121,197,49,4,2013/10/29,,book,17,18,12,2,0,4.02,,Kindle Edition,,47,3,Carlos  González,,,,,,49,1,10,"parenting,self-help"
18761501,1429946628,Wipeout of the Wireless Weenies: And Other Warped and Creepy Tales,9781429946629,,,,ES,2014/4/22,Starscape,,true,5,17910079,732,606,154,26,2014/4/22,"Wipeout of the Wireless Weenies: And Other Warped and Creepy Tales (Weenies series, #7)",book,58,48,33,10,5,3.94,176,ebook,,1,0,David Lubar,,,,,,509,12,13,"childrens,comedy,fairy-tales,fantasy,fiction,horror,humor,juvenile,middle-grade,novels,short-stories,young-adult"
18762001,0071823824,"McGraw-Hill Education GRE Premium, 2015 Edition: Strategies + 6 Practice Tests + 2 Apps",9780071823821,,,,ES,2014/5/15,McGraw-Hill,,false,2,18762001,14,14,5,1,2014/4/24,,,1,1,1,0,2,2.80,448,Paperback,,3,1,Erfun Geula,,,,,,8,0,,
18762501,0511827385,Interval Methods for Systems of Equations,9780511827389,,,,ES,2011/3/22,Cambridge University Press,,true,2,18762501,0,0,0,0,1991/1/25,,,0,0,0,0,0,0.00,272,ebook,,0,0,Arnold Neumaier,,,,,,,0,,
18763001,0786477849,"Joan Davis: America's Queen of Film, Radio and Television Comedy",9780786477845,,,,ES,2014/3/13,McFarland & Company,,false,4,18763001,7,12,3,0,2014/1/1,,,1,1,1,0,0,4.00,224,Paperback,,3,0,David C. Tucker,,,,,,4,0,,
18764001,1118865685,"The Invisible Hands: Top Hedge Fund Traders on Bubbles, Crashes, and Real Money",9781118865682,,,,ES,2013/11/27,Wiley,,true,17,7927702,876,1106,287,11,2010/3/18,,,78,113,77,14,5,3.85,464,ebook,,6,0,Steven Drobny,,,,,,472,11,28,"business,economics,education,history,non-fiction,politics"
18764501,1452583552,The Book,9781452583556,,,,ES,2013/10/28,Balboa Press,,true,3,18764501,1,3,1,0,2013/10/28,,,0,0,1,0,0,3.00,,ebook,,1,0,Reigan Knotts,,,,,,,0,,
18765001,1480570125,The Collector,9781480570122,,,,ES,2014/4/15,Brilliance Audio,eng,false,62,18668066,42638,102907,26189,2136,2014/4/15,The Collector,book,8544,9643,6056,1501,445,3.93,16,MP3 CD,Unabridged,16,1,Nora Roberts,,,,,Julia Whelan,9521,281,1066,"adult,adult-fiction,adventure,art,chick-lit,contemporary,crime,drama,family,fiction,murder-mystery,mystery,mystery-thriller,romance,suspense,thriller"
18765501,1491820152,The Long and Winding Road,9781491820155,,,,ES,2013/10/25,Authorhouse,,false,2,18765501,0,0,0,0,2013/10/25,,,0,0,0,0,0,0.00,364,Hardcover,,0,0,Lionel B Harris,,,,,,,0,,
18766001,1608184072,Spider (Grow with Me),9781608184071,,,,ES,2014/7/1,Creative Education,,false,3,18766001,8,14,3,1,2014/9/1,,book,2,1,0,0,0,4.67,32,Hardcover,,2,1,Valerie Bodden,,,,,,3,0,,"non-fiction,science"
18766501,1627241027,Garbage Galore,9781627241021,,,,ES,2014/1/1,Bearport Publishing,,false,2,18766501,6,14,3,2,2014/1/1,,,2,1,0,0,0,4.67,24,Hardcover,,3,2,Ellen Lawrence,,,,,,1,0,,childrens
18767001,1846867878,The Wheels on the Bus,9781846867873,,,,ES,2014/8/1,Barefoot Books,,false,3,18767001,65,123,33,12,2014/8/1,,book,7,12,12,2,0,3.73,24,Hardcover,,32,11,Melanie Williamson,,,,,,11,4,1,"animals,childrens,family,funny,humor,international,music,picture-books,school,travel"
18767501,3170201956,"Dramen Ii,3. Wiener Festspiele. Prosa Zu Den Dramen: Lesarten Und Erlauterungen",9783170201958,,,,ES,2009/3/5,Kohlhammer,,false,1,18767501,0,0,0,0,2009/3/5,,,0,0,0,0,0,0.00,462,Hardcover,,0,0,Clemens Brentano,,,Caroline Pross,,,,0,,
18768001,3642888666,Die Ordnung Des Wirtschaftslebens,9783642888663,,,,ES,1927/1/1,Springer,,false,2,2344080,3,5,1,0,1927/1/1,Die Ordnung des Wirtschaftslebens (Meilensteine der Nationalökonomie),book,1,0,0,0,0,5.00,71,Paperback,,0,0,,,,"Eduard Kohlrausch,Walter Kaskel,Werner Sombart",,,2,0,,
18768501,8131606171,Indian Sociological Thought: Second Edition,9788131606179,,,,ES,2013/10/25,Rawat Publications,,false,2,7206210,166,44,14,2,2008/1/1,,,4,2,2,4,2,3.14,502,Hardcover,,0,0,B.K. Nagla,,,,,,123,0,12,"academic,non-fiction,sociology"
18769001,9861614613,Yan Hua,9789861614618,,,,ES,2013/4/18,Xin Yi/Tsai Fong Books,,false,1,18769001,1,0,0,0,2013/4/18,,,0,0,0,0,0,0.00,44,Hardcover,,0,0,Zhengqi Deng,,,,,,1,0,,
18769501,1477760652,The Woolworth's Sit-In,9781477760659,,,,ES,2014/1/1,PowerKids Press,,false,1,18769501,0,0,0,0,2014/8/1,,,0,0,0,0,0,0.00,32,Hardcover,,0,0,Rachel Tisdale,,,,,,,0,,
18770001,,Living with Temptation,,B00AP8PI8Q,,,ES,2013/11/8,,eng,true,4,18770001,62,67,20,10,2012/12/16,,book,7,3,3,4,3,3.35,149,Kindle Edition,,6,2,Melinda  Hale,,,,,,38,1,,"chick-lit,contemporary,romance"
18770501,0988343053,Great Lakes Review Issue 3,9780988343054,,,,ES,2013/10/31,Red Giant Books,,false,1,18770501,0,0,0,0,2013/10/31,,,0,0,0,0,0,0.00,276,Paperback,,0,0,,,,"David Bowen,David Megenhardt,Robert  Jackson",,,,0,,
18771001,1480223336,Taiwan Zan!,9781480223332,,,,ES,2013/10/28,Createspace Independent Publishing Platform,,false,1,18771001,0,0,0,0,2013/10/28,,,0,0,0,0,0,0.00,122,Paperback,,0,0,Wu Jie,,,,,,,0,,
18771501,1492301418,"Excess Emotional Baggage: An Amazing, Semi-True, Post-Industrial, Pulp-Fiction, Adventure Tale of Schenectady",9781492301417,,,,ES,2013/10/29,Createspace,,false,1,18771501,2,0,0,0,2013/10/29,,,0,0,0,0,0,0.00,308,Paperback,,0,0,Peter Huston,,,,,,,0,1,
18772001,1616409088,Twelve Years a Slave,9781616409081,,,,ES,2013/11/1,Cosimo Classics,,false,1015,18478222,197243,329513,78819,5664,1853/1/1,Twelve Years a Slave,book,34732,28590,11703,2590,1204,4.18,348,Paperback,,3,0,Solomon Northup,,,,,,103122,330,5326,"adult,american,american-history,autobiography,biography,biography-memoir,classics,drama,fiction,historical,historical-fiction,history,literature,memoir,movies,non-fiction,novels,school,unfinished"
18772501,,Иде ли?,,,,,ES,2001/1/1,Захарий Стоянов,bul,false,1,18772501,200,498,111,0,2001/1/1,Иде ли?,book,72,22,16,1,0,4.49,496,Hardcover,,111,0,"Ivan Vazov,Иван Вазов",,,,,,8,0,1,"classic-literature,fiction"
18773001,,Sairas Köyhyys: Tutkimus sairauteen liittyvästä huono-osaisuudesta diakoniatyössä,9789517892933,,,,ES,2009/1/1,Kirkkohallitus,fin,false,1,18773001,2,0,0,0,2009/1/1,,book,0,0,0,0,0,0.00,286,Paperback,,0,0,Kaisa Kinnunen,,,,,,1,0,,
18773501,,Die nuwe baba,9781770259843,,,,ES,2010/1/1,Pearson Education South Africa,afr,false,7,7558612,54,109,27,1,1992/1/1,The New Baby,book,13,6,6,0,2,4.04,,,Eerste Afrikaanse,1,0,"Gareth Adamson,Jean Adamson",,,,,,9,2,,"childrens,crime"
18774001,0316182303,"Bravo (Jad Bell, #2)",9780316182300,,,,ES,2014/7/22,Mulholland Books,eng,false,11,22500957,1109,1892,495,69,2014/1/1,,book,107,225,136,22,5,3.82,294,Hardcover,,258,46,Greg Rucka,,,,,,504,18,11,"american,crime,fiction,mystery,mystery-thriller,novels,politics,science-fiction,suspense,thriller"
18774501,1480454095,Christmas for a Kitten,9781480454095,,,,ES,2013/11/19,Albert Whitman & Company,,true,10,1319819,141,332,88,21,2003/9/1,Christmas for a Kitten,book,25,31,21,9,2,3.77,32,ebook,,0,0,Robin Pulver,,,,,,24,13,1,"animals,childrens,christmas,fiction,holiday,non-fiction,picture-books,young-adult"
18775501,1476741247,Gotham Unbound: The Ecological History of Greater New York,9781476741246,,,,ES,2014/6/3,Simon  Schuster,,false,5,18775501,733,429,108,17,2014/6/1,,book,29,50,27,1,1,3.97,544,Hardcover,,98,17,Ted Steinberg,,,,,,569,7,20,"american-history,anthropology,biography,history,nature,non-fiction,politics,science,teaching,technology"
18776001,,Volledige werken VI,,,,,ES,1973/1/1,Van Oorschot,nl,false,1,18776001,3,3,1,0,1973/1/1,,book,0,0,1,0,0,3.00,805,Hardcover,,1,0,Multatuli,,,,,,2,0,,
18776501,,"The Dark Horse (Walt Longmire, #5)",B002BFZP3E,,,,ES,2009/5/28,Recorded Books,eng,false,21,5950876,17146,48163,11232,855,2009/5/28,The Dark Horse,book,4849,4901,1368,96,18,4.29,,Audiobook,Unabridged ,46,12,Craig Johnson,,,,,George Guidall,3149,64,276,"action,adult,adult-fiction,american,animals,contemporary,crime,detective,fiction,humor,murder-mystery,mystery,mystery-thriller,novels,suspense,thriller"
18777001,,The Witch's Thorn,,,,,ES,1951/1/1,Angus and Robertson,eng,false,3,1812052,57,109,28,3,1951/1/1,The Witch's Thorn,book,7,12,8,1,0,3.89,220,Hardcover,,0,0,Ruth Park,,,,,,18,1,1,"classics,drama,fiction,literature"
18777501,,Mano a mano con el diablo,,,,,ES,2012/1/1,Sudamericana ,spa,false,2,18777501,10,15,4,1,2012/1/1,,book,1,1,2,0,0,3.75,160,,,4,1,Carlos Alberto Mancuso,,,,,,3,0,1,
18778001,0816650233,"In Motion, At Rest: The Event of the Athletic Body",9780816650231,,,,ES,2014/2/1,Univ Of Minnesota Press,,false,5,18778000,11,16,4,0,2014/1/1,,,1,2,1,0,0,4.00,192,Hardcover,,0,0,Grant Farred,,,,,,6,1,,
18778501,1561638501,Human Resources (Zombillenium #2),9781561638505,,,,ES,2014/8/1,NBM Publishing,eng,false,8,12396960,852,2418,610,56,2011/8/26,Ressources Humaines (Zombillenium #2),book,170,278,136,22,4,3.96,52,Hardcover,,75,13,Arthur de Pins,,,,,,131,11,,"adult,comics,demons,fantasy,fiction,ghosts,graphic-novels,graphic-novels-comics,horror,humor,paranormal,vampires,werewolves,witches,young-adult,zombies"
18779001,140819337X,Who Was Who Volume III (1929-1940),9781408193372,,,,ES,2014/6/19,Bloomsbury Academic,,false,1,18779001,0,0,0,0,2014/6/19,,,0,0,0,0,0,0.00,1312,Hardcover,,0,0,Who's Who,,,,,,,0,,
18779501,,General mrtve vojske,,,,,ES,1977/1/1,Rad,srp,false,61,223666,5120,9002,2252,124,1963/1/1,Gjenerali i ushtrisë së vdekur,book,804,802,506,116,24,4.00,178,Paperback,,6,1,Ismail Kadare,,,,Esad Mekuli,,2079,12,64,"adult-fiction,classics,contemporary,european-literature,fiction,historical,historical-fiction,history,literary-fiction,literature,modern,modern-classics,novels,war"
18780001,9603020702,Ο Κόκκινος Βράχος,,,,,ES,,Αδελφοί Βλάσση,gre,false,1,18780001,60,153,38,1,,,book,13,14,10,1,0,4.03,200,Paperback,,38,1,"Gregorios Xenopoulos,Γρηγόριος Ξενόπουλος",,,,,,12,0,1,literature
18780501,1491088060,Obligations,9781491088067,,,,ES,2013/7/26,Createspace Independent Publishing Platform,,false,1,18780501,0,0,0,0,2013/7/26,,,0,0,0,0,0,0.00,386,Paperback,,0,0,Rita Buchanan,,,,,,,0,,
18781001,,Rhetoric and Poetry in the Renaissance A Study of Rhetorical Terms in English Renaissance Literary Criticism,,B000JMKWU2,,,ES,,,,true,10,18781001,8,12,3,0,1922/1/1,Rhetoric and Poetry in the Renaissance: A Study of Rhetorical Terms in English Renaissance Literary Criticism,,1,1,1,0,0,4.00,,,,2,0,Donald Lemen Clark,,,,,,3,0,-1,
18781501,,"Long Simmering Spring (Star Harbor, #3)",,B00A9ET4NG,,,ES,2013/5/13,Loveswept,,true,6,39934450,1260,1948,485,73,2013/1/1,,book,151,212,106,11,5,4.02,278,Kindle Edition,,76,3,Elisabeth Barrett,,,,,,629,18,14,"amazon,contemporary,erotica,romance,suspense"
18782001,1627241183,Guide Dogs,9781627241182,,,,ES,2014/1/1,Bearport Publishing,,false,2,18782001,6,22,5,1,2014/1/1,,,3,1,1,0,0,4.40,24,Hardcover,,5,1,Jessica Rudolph,,,,,,,0,,
18782501,,Abu Bakar as-Siddiq (R.A),,B00GIOAB88,,,ES,,Darussalam ,eng,true,2,18782501,220,222,50,4,2013/11/28,,book,37,5,4,1,3,4.44,62,ebook,,49,3,Molvi Abdul Aziz,,,Darussalam,,,151,3,7,"biography,history"
18783001,0511029810,"Nature, God and Humanity: Envisioning an Ethics of Nature",9780511029813,,,,ES,2005/1/28,Cambridge University Press,,true,2,18783001,0,0,0,0,1998/4/3,,,0,0,0,0,0,0.00,284,ebook,,0,0,Richard L Fern,,,,,,,0,,
18783501,051103850X,Christianity in Bakhtin: God and the Exiled Author,9780511038501,,,,ES,2005/1/28,Cambridge University Press,,true,5,201855,15,21,5,2,1995/2/24,Christianity in Bakhtin (Cambridge Studies in Russian Literature),,2,2,1,0,0,4.20,218,ebook,,0,0,Ruth Coates,,,,,,6,2,,"criticism,cultural,fiction,history,literature,philosophy"
18784001,0511075375,"Soils, Land and Food: Managing the Land During the Twenty-First Century",9780511075377,,,,ES,2005/2/2,Cambridge University Press,,true,6,18784001,1,0,0,0,2003/1/9,,,0,0,0,0,0,0.00,256,ebook,,0,0,Alan Wild,,,,,,1,0,,
18784501,0511138377,Form and Function in a Legal System: A General Study,9780511138379,,,,ES,2006/2/6,Cambridge University Press,,true,5,8185676,3,3,1,0,2005/1/1,,,0,0,1,0,0,3.00,428,ebook,,0,0,Robert S. Summers,,,,,,,0,,
18785001,0511217714,"Early American Women Critics: Performance, Religion, Race",9780511217715,,,,ES,2006/6/21,Cambridge University Press,,true,6,2461150,4,0,0,0,2006/5/25,"Early American Women Critics: Performance, Religion, Race",,0,0,0,0,0,0.00,254,ebook,,0,0,Gay Gibson Cima,,,,,,3,0,,"history,non-fiction"
18785501,0511271247,"Commentary on Plato's Timaeus: Vol 1, Book 1: On the Socratic State and Atlantis",9780511271243,,,,ES,2007/3/29,Cambridge University Press,eng,true,12,353994,31,27,6,0,1993/4/1,"Commentaries of Proclus on the Timæus of Plato, Part 1",book,3,3,0,0,0,4.50,358,ebook,,0,0,Proclus,,,Harold Tarrant,,,16,0,,philosophy
18786001,0511363680,Indo-European Linguistics: An Introduction,9780511363689,,,,ES,2008/1/23,Cambridge University Press,,true,7,728605,105,109,27,2,2007/9/1,Indo-European Linguistics: An Introduction (Cambridge Textbooks in Linguistics),,9,12,4,2,0,4.04,,ebook,,0,0,James Clackson,,,,,,57,5,3,"language,non-fiction,reference,textbooks"
18786501,0511426666,The Birth of the Euro,9780511426667,,,,ES,2008/9/30,Cambridge University Press,,true,7,5086919,26,19,5,0,2008/9/18,The Birth of the Euro,,1,2,2,0,0,3.80,296,ebook,,0,0,Otmar Issing,,,,,,13,1,1,economics
18787001,0511577451,The Political Uses of Expert Knowledge: Immigration Policy and Social Research,9780511577451,,,,ES,2009/9/4,Cambridge University Press,,true,4,6691143,4,4,1,1,2009/5/1,The Political Uses of Expert Knowledge: Immigration Policy and Social Research,,0,1,0,0,0,4.00,280,ebook,,0,0,Christina Boswell,,,,,,1,0,1,technology
18787501,051168746X,Textbook of Stroke Medicine,9780511687464,,,,ES,2010/6/15,Cambridge University Press,,true,10,19391190,5,4,1,1,2009/11/19,,,0,1,0,0,0,4.00,336,ebook,,0,0,,,,"Michael Brainin,Wolf-Dieter Heiss",,,1,0,2,
18788001,0511796161,Magnetic Materials: Fundamentals and Applications,9780511796166,,,,ES,2010/8/16,Cambridge University Press,,true,6,7752669,21,21,5,1,2010/8/16,,,4,0,0,0,1,4.20,288,ebook,,0,0,Nicola A. Spaldin,,,,,,16,0,1,
18788501,0615261264,Luck-Struck: How to Take Control & Create Your Own Luck,9780615261263,,,,ES,2013/10/11,Peer Publishing,,false,4,6435569,9,14,3,3,2009/2/13,Luck-Struck: How to Take Control & Create Your Own Luck,book,2,1,0,0,0,4.67,136,Paperback,,0,0,Skyler J. Reep,,,,,,3,0,,relationships
18789001,0814724981,Making Media Work: Cultures of Management in the Entertainment Industries,9780814724989,,,,ES,2014/8/1,New York University Press,,true,4,18789001,8,12,3,0,2014/8/1,,,0,3,0,0,0,4.00,336,ebook,,3,0,"Avi Santo,Derek Johnson,Derek Kompare",,,,,,4,0,,
18789501,0826197574,Educating Nurses for Leadership,9780826197573,,,,ES,2006/10/9,Springer Publishing Company,,true,3,1652378,1,0,0,0,2005/4/18,Educating Nurses For Leadership,,0,0,0,0,0,0.00,,ebook,,0,0,,,,"Harriet R. Feldman,Martha J. Greenberg",,,1,0,,
18790001,1134476930,Clinical Phenomenology and Cognitive Psychology,9781134476930,,,,ES,2013/10/8,Routledge,,true,7,18973460,0,0,0,0,1994/12/13,,,0,0,0,0,0,0.00,232,ebook,,0,0,"David Fewtrell,Kieron O'Connor",,,,,,,0,,
18790501,,Il tesoro perduto dei templari. Il messaggio occulto di Dante,,B00GBBK75U,,,ES,2013/11/14,Newton & Compton,ita,true,1,18790501,7,4,1,0,2013/11/14,,book,0,1,0,0,0,4.00,87,Kindle Edition,First,1,0,G.L. Barone,,,,,,6,0,,
18791001,1139066161,Imagination and the Contemporary Novel,9781139066167,,,,ES,2011/5/12,Cambridge University Press,,true,8,11387874,6,7,2,0,2011/5/12,,,0,1,1,0,0,3.50,232,ebook,,0,0,John J. Su,,,,,,4,0,,literature
18791501,1139200631,"Globalization, Environmental Change, and Social History",9781139200639,,,,ES,2012/2/6,Cambridge University Press,,true,4,10391279,0,0,0,0,2011/2/24,,,0,0,0,0,0,0.00,,ebook,,0,0,,,,"Marjolein 't Hart,Peter Boomgaard",,,,0,,
18792001,1139368036,The Content and Context of Hate Speech: Rethinking Regulation and Responses,9781139368032,,,,ES,2012/5/20,Cambridge University Press,,true,5,13725040,13,13,3,0,2012/4/30,,,2,0,1,0,0,4.33,552,ebook,,0,0,,,,"Michael Herz,Péter Molnár",,,6,0,1,
18793001,1476560390,I Am Caring,9781476560397,,,,ES,2014/8/31,Capstone Press,,false,3,18318293,8,15,6,3,2013/12/1,,,1,0,1,3,1,2.50,24,Unknown Binding,,0,0,Melissa Higgins,,,,,,1,0,,school
18793501,1481410210,The Monster in the Lake,9781481410212,,,,ES,2013/10/15,Aladdin,,true,5,959293,42,56,14,0,1999/2/1,"The Monster in the Lake (Hardy Boys: Clues Brothers, #11)",,7,1,5,1,0,4.00,80,ebook,,0,0,Franklin W. Dixon,,,,,,22,2,1,"detective,mystery"
18794001,1482433346,Informational Text Collection 2: Grades 68 Set,9781482433340,,,,ES,2013/10/1,Gareth Stevens Publishing,,false,2,18793084,0,0,0,0,2013/10/1,,,0,0,0,0,0,0.00,,Paperback,,0,0,Various,,,,,,,0,,
18794501,1490500707,Tropical Canary Lined Journal Plus Sip SAP,9781490500706,,,,ES,2013/6/22,Createspace Independent Publishing Platform,,false,1,18794501,1,5,1,0,2013/6/22,,book,1,0,0,0,0,5.00,252,Paperback,,1,0,NOT A BOOK,,,,,,,0,,
18795001,1492704083,Cat Land: The King's Son,9781492704089,,,,ES,2013/9/11,Fivepenniespress,,false,1,18795001,10,33,7,2,2013/9/11,,book,5,2,0,0,0,4.71,162,Paperback,,7,2,"Christina Nichols,Keith Nichols,Midnight Panther",,,,,,3,0,,
18795501,1493533207,Chan Taw Lek Hrux?,9781493533206,,,,ES,2013/10/20,Createspace Independent Publishing Platform,tha,false,1824,22297886,2812,6196,1514,110,2013/9/1,Bin ich klein?,book,740,395,229,79,71,4.09,42,Paperback,,0,0,Philipp Winterberg,,,,,,405,6,367,"amazon,childrens,fiction,language,picture-books"
18796001,1601311737,Demichat and the Lost Mummy,9781601311733,,,,ES,2013/10/30,Castlebridge Books,,false,1,18796001,0,0,0,0,2013/10/30,,,0,0,0,0,0,0.00,142,Paperback,,0,0,Toni Brisland,,,,,,,0,,
18796501,1780714718,Russko-Datskij Tematicheskij Slovar' - 3000 Slov - Danish Vocabulary for Russian Speakers,9781780714714,,,,ES,2012/12/6,T&p Books,,false,1,18796501,0,0,0,0,2012/12/6,,,0,0,0,0,0,0.00,106,Paperback,,0,0,Andrey Taranov,,,,,,,0,,
18797001,1909904457,Uncle Tom's Cabin,9781909904453,,,,ES,2013/10/15,Sovereign,,true,317,46787,337346,679343,176293,6753,1852/3/20,Uncle Tom's Cabin,book,56195,59304,43759,12840,4195,3.85,486,ebook,,0,0,Harriet Beecher Stowe,,,,,,119947,781,9828,"adult,adult-fiction,american,american-history,christian,classic-literature,classics,college,drama,fiction,high-school,historical,historical-fiction,history,literary-fiction,literature,novels,politics,school,unfinished,young-adult"
18797501,3437255800,Mikrobiologische Methoden: Eine Einf Hrung in Grundlegende Arbeitstechniken,9783437255809,,,,ES,1999/8/1,Springer,,false,1,18797501,0,0,0,0,1999/8/1,,,0,0,0,0,0,0.00,439,Paperback,,0,0,Eckhard Bast,,,,,,,0,,
18798001,3653037328,Religion in Postsaekularer Gesellschaft: Interdisziplinaere Perspektiven,9783653037326,,,,ES,2013/11/4,"Peter Lang Gmbh, Internationaler Verlag Der Wissenschaften",,true,2,18797689,0,0,0,0,2013/10/24,,,0,0,0,0,0,0.00,464,ebook,,0,0,,,,"Franz Gmainer-Pranzl,Sigrid Rettenbacher",,,,0,,
18798501,8789024753,Et liv med dyr - Små fortællinger,,,,,ES,,Forlaget Tommeliden,dan,false,1,18798501,2,0,0,0,,,book,0,0,0,0,0,0.00,118,Paperback,,0,0,Herold Nielsen,,,,,,1,0,,
18799001,,Din vorbă-n vorbă: 23 de ani de întrebări şi răspunsuri,9789735042141,,,,ES,2013/1/1,Humanitas,rum,false,2,18799001,58,79,22,3,2013/11/1,Din vorbă-n vorbă: 23 de ani de întrebări şi răspunsuri,book,3,10,7,1,1,3.59,472,Paperback,Seria Andrei Pleşu,22,3,Andrei Pleșu,,,,,,30,1,1,non-fiction
18799501,,Ship of Souls,9781612187761,,,,ES,,,,true,9,13126214,509,719,212,71,2012/2/28,,book,34,57,85,30,6,3.39,,,,22,1,Zetta Elliott,,,,,,250,13,4,"adventure,childrens,contemporary,fantasy,fiction,ghosts,history,magical-realism,middle-grade,paranormal,speculative-fiction,supernatural,urban-fantasy,young-adult"
18800001,,Cupid's Web,,B00942ALHW,,,ES,,,,true,3,1888681,44,80,26,3,2007/8/1,Cupid's Web (Avalon Romance),,4,8,5,4,5,3.08,,,,5,0,Carolyn Hughey,,,,,,13,0,,"adult,romance"
18800501,,Oz Reimagined: City So Bright,,B00ARJP2BG,,,ES,,,,true,1,18800501,23,19,6,0,2013/2/26,,,1,2,1,1,1,3.17,,,,6,0,Dale Bailey,,,"Douglas Cohen,John Joseph Adams",,,15,0,,"fantasy,fiction"
18801001,,The Riddle of Mystery Inn,,B00ECD36R0,,,ES,,,,true,2,3528408,14,22,8,2,2004/4/1,The Riddle of Mystery Inn,,1,0,4,2,1,2.75,,,,0,0,Kent Conwell,,,,,,5,0,,"fiction,mystery"
18801501,,George the Fourth,,,,,ES,1926/1/1,"Little, Brown, and Company, Boston",eng,false,3,17209118,0,0,0,0,1926/1/1,,book,0,0,0,0,0,0.00,209,Hardcover,,0,0,Shane Leslie,,,,,,,0,,
18802001,,The Snicky Guide To Falling Asleep (Or... How To Yawn Like A Dog),,,,,ES,2013/1/1,,eng,false,2,18802001,143,17,4,3,2013/1/1,,book,1,3,0,0,0,4.25,,Paperback,,4,3,Pamela Ann Will,,,,,,137,4,,
18802501,,This Page Intentionally Left Blank FM 101 Knuckleheads,,B00GGS5O3I,,,ES,2013/11/10,Raymond Jones,eng,true,3,20525079,225,62,16,5,2013/11/10,,book,4,7,4,1,0,3.88,148,Kindle Edition,,7,1,Raymond L. Jones,,,,,,205,6,,biography
18803001,,Zoku Anastasia Kurabu,,,,,ES,,,,false,1,18803001,4,5,1,0,,,book,1,0,0,0,0,5.00,,,,1,0,Chiho Saitō,,,,,,3,0,,
18803501,9025741460,Mijn allerbeste vriendje,9789025741464,,,,ES,2006/1/1,Gottmer,nl,false,5,12342116,8,17,4,1,2006/8/14,Mon meilleur ami du monde,book,2,1,1,0,0,4.25,24,Hardcover,,0,0,Carl Norac,Claude K. Dubois,,,J.H. Gever,,,0,1,
18804001,,The Rock Star's Bi FemDom Training,,B00GABRBOQ,,,ES,2013/1/1,,,true,1,18804001,17,17,4,2,2013/1/1,,book,2,1,1,0,0,4.25,,,,4,2,Ariane Arborene,,,,,,10,0,,
18804501,,100 знаменитых спортсменов,,,,,ES,2005/1/1,Folio,rus,false,1,18804501,0,0,0,0,2005/1/1,,book,0,0,0,0,0,0.00,512,Hardcover,,0,0,"Andrey Horoshevskiy,Dmitriy Kuklenko",,,,,,,0,,
18805001,,Discord: More than Beasts - Less than Gods,9781301871315,,,,ES,2013/7/23,,eng,true,3,18805001,29,28,6,1,2013/7/23,,book,5,0,1,0,0,4.67,,ebook,,5,0,B27321,,,,,,24,1,,
18805501,,A New Year for Eve,,,,,ES,,,eng,true,3,18805501,1,5,1,1,2013/11/2,,book,1,0,0,0,0,5.00,31,ebook,,1,1,Nora Nix,,,,,,,0,,
18806001,,The Fallible Prophets of New Calvinism,,B00G7IVP6C,,,ES,2013/9/14,The Armoury Ministries,eng,true,5,18806001,186,265,63,15,2013/9/14,,book,27,25,9,1,1,4.21,156,Kindle Edition,,54,14,Michael John Beasley,,,,,,8,2,31,"christian,christianity,religion,theology"
18806501,,Cloud 9: Gray Titans,,B00FEDCF1K,,,ES,,,,true,2,18806501,12,20,5,0,2013/9/23,,,2,1,2,0,0,4.00,,,,3,0,Dale W. Reierson,,,,,,,0,,
18807501,,"The Beauty Series (Beauty, #1-4)",,B00FPB71GK,,,ES,2013/10/7,,eng,true,9,29905699,5932,7367,1979,209,2013/10/7,The Beauty Series,book,573,604,555,174,73,3.72,328,Kindle Edition,,1128,88,Skye Warren,,,,,,2133,43,998,"adult,amazon,college,contemporary,drama,erotica,fairy-tales,fantasy,new-adult,retellings,romance"
18808001,,Cassino Royale,,,,,ES,2013/1/1,,por,true,220,3758,89720,203822,54546,3625,1953/4/13,Casino Royale,book,12290,21101,16569,3675,911,3.74,301,ebook,,1,0,Ian Fleming,,,,Thomaz Souto Corrêa,,24991,303,1583,"action,adult,adult-fiction,adventure,british-literature,classics,crime,drama,fiction,france,literature,movies,mystery,mystery-thriller,novels,suspense,thriller"
18809001,,Die Tochter des Samurai,9783570101582,,,,ES,2013/11/11,C. Bertelsmann,ger,false,15,13316021,1020,1432,378,58,2012/6/7,Across a Bridge of Dreams,book,84,166,97,26,5,3.79,480,Hardcover,,6,2,Lesley Downer,,,,,,531,14,22,"fiction,historical,historical-fiction,novels,romance,unfinished"
18809501,,Aban's Accension,9780991969821,,,,ES,2013/11/9,SA Jeejeebhoy,eng,true,3,18809480,5,5,1,1,2013/11/6,,book,1,0,0,0,0,5.00,,ebook,,0,0,Shireen Jeejeebhoy,,,,,,1,0,1,
18810001,1492239461,Speech Therapy Aphasia Rehabilitation Workbook: Expressive and Written Language,9781492239468,,,,ES,2013/9/8,CreateSpace,eng,false,2,19384367,32,50,12,0,2013/9/8,,,4,7,0,1,0,4.17,152,Paperback,,9,0,Amanda Paige Anderson,,,,,,7,0,10,
18810501,2897333278,"Une guirlande de neige (Un roman de Noël victorien, #1)",9782897333270,,,,ES,2013/1/1,AdA,fre,false,7,13153963,4359,7422,1908,349,2011/1/1,A Wreath of Snow,book,544,759,474,113,18,3.89,212,Paperback,,13,3,Liz Curtis Higgs,,,,Patrice Nadeau,,1942,37,155,"adult,adult-fiction,british-literature,chick-lit,christian,christian-fiction,christmas,family,fiction,historical,historical-fiction,holiday,inspirational,novella,romance,victorian,young-adult"
18811001,9046113078,Heb je in je hoofd nog ruimte voor waanzinnige plannen,9789046113073,,,,ES,2008/5/1,,nl,false,1,18811001,15,18,5,0,2008/5/1,,book,2,0,2,1,0,3.60,191,Paperback,,5,0,Loesje,,,,,,3,0,,
18811501,,שעת ביקור,,,,,ES,1992/1/1,ספריית התיאטרון,heb,false,2,18811501,5,0,0,0,1985/1/1,Besuchszeit,book,0,0,0,0,0,0.00,53,,,0,0,"Felix Mitterer,פליקס מיטרר",,,,,,3,0,,
18812001,0299297241,Memory’s Turn: Reckoning with Dictatorship in Brazil,9780299297244,,,,ES,2014/6/25,University of Wisconsin Press,,false,1,18812001,5,8,2,0,2014/6/25,,,0,2,0,0,0,4.00,190,Paperback,,2,0,Rebecca J. Atencio,,,,,,3,0,,
18812501,0373878869,"Loving the Lawman (Kirkwood Lake, #4)",9780373878864,,,,ES,2014/4/15,Love Inspired,eng,false,9,18812501,226,329,81,12,2014/5/1,Loving the Lawman ,book,34,23,20,3,1,4.06,224,Paperback,,55,9,Ruth Logan Herne,,,,,,71,3,7,"christian,christian-fiction,christmas,contemporary,romance"
18813001,,"Simple Gone South (Gone South, #3)",,B00FM85OCO,,,ES,2013/11/4,Crimson Romance,en-US,true,8,18529718,508,1090,265,10,2013/11/4,,book,108,97,48,6,6,4.11,260,Kindle Edition,,29,1,Alicia Hunter Pace,,,,,,75,5,53,"amazon,contemporary,romance"
18813501,,"Jip dan Janeke 5 (Jip dan Janeke, # 5)",9786020224817,,,,ES,2013/11/20,Elex Media Komputindo,ind,false,10,7006221,267,670,167,6,1965/1/1,Jip en Janneke: Vijfde boek (Jip en Janneke #5),book,61,60,35,9,2,4.01,152,Paperback,,4,0,Annie M.G. Schmidt,,,,,,27,10,3,"childrens,collections,fiction,literature,short-stories"
18814001,0334051576,Anglican Devotion: Studies in the Spiritual Life of the Church of England Between the Reformation and the Oxford Movement,9780334051572,,,,ES,2013/11/7,SCM Press,,false,1,18814001,2,4,1,1,2013/8/13,,,0,1,0,0,0,4.00,306,Hardcover,,1,1,C.J. Stranks,,,,,,1,0,,"christian,history,theology"
18814501,0615732887,Soul Mates: Bewitched,9780615732886,,,,ES,2012/11/22,Crushing Hearts and Black Butterfly Publishing,,false,5,16164989,79,167,39,11,2012/11/22,,book,18,15,5,1,0,4.28,170,Paperback,,0,0,Elizabeth A. Lance,,,,,,35,0,,"mythology,paranormal,romance,witches"
18815001,061590985X,Gravidy: Everything I Learned (the Hard Way) about Making a Baby for the First Time,9780615909851,,,,ES,2013/11/1,Bokbok,,false,1,18815001,0,0,0,0,2013/11/1,,,0,0,0,0,0,0.00,288,Paperback,,0,0,Sophie Bartsich,,,,,,,0,,
18815501,,"Text (Take It Off, #4)",,B00GH0ZDLS,,,ES,,,en-GB,true,3,18815501,6590,14387,3494,294,2013/1/1,Text,book,1419,1267,649,118,41,4.12,,,,3478,292,Cambria Hebert,,,,,,2315,47,72,"abuse,action,adult,contemporary,crime,drama,mystery,new-adult,romance,suspense"
18816001,0983404976,The 90s Club & the Whispering Statue,9780983404972,,,,ES,2013/9/15,Amanita Books,,false,3,24076119,15,33,8,4,2013/9/15,,,4,2,1,1,0,4.12,306,Paperback,,2,2,Eileen Haavik Mcintire,,,,,,5,1,,mystery
18816501,099112720X,In For a Penny (Granny #1),9780991127207,,,,ES,2013/11/2,"Crossroads Publishing House, LLC",eng,false,8,18695166,8365,9754,2407,244,2013/11/2,,book,960,810,485,107,45,4.05,380,Paperback,Large Print Edition,13,1,"Kelsey Browning,Nancy Naigle",,,,,,512,29,1342,"adult,amazon,contemporary,cozy-mystery,fiction,humor,mystery,mystery-thriller,romance"
18817001,,The Spirit of Caledonia,,B00BRO5S3W,,,ES,,,,true,3,18817001,71,104,27,8,2013/1/24,,book,9,8,7,3,0,3.85,,,,18,5,D.J. Edwardson,,,,,,21,3,1,"fantasy,short-stories"
18818501,1463348754,Dialogos Sobre Filosofia Moral,9781463348755,,,,ES,2013/11/5,Palibrio,,false,2,18818501,0,0,0,0,2013/11/5,,,0,0,0,0,0,0.00,250,Paperback,,0,0,Alejandro Sanvisens,,,,,,,0,,
18819001,1466412453,Fifty Lectures for Mathcounts Competitions (4),9781466412453,,,,ES,2013/7/13,Createspace Independent Publishing Platform,,false,4,14401461,21,34,9,0,2011/10/2,,,3,1,5,0,0,3.78,188,Paperback,,0,0,"Jane Chen,Yongcheng Chen",,,,,,10,0,,
18819501,1615729194,Dawn of Ages,9781615729197,,,,ES,2013/11/16,Eternal Press,,true,3,18819501,9,13,3,0,2013/11/1,,book,2,0,1,0,0,4.33,,ebook,,3,0,Mike  Phillips,,,,,,5,0,,
18820001,1475075758,Heather in Summer,9781475075755,,,,ES,2013/10/28,Createspace Independent Publishing Platform,,false,1,18820001,0,0,0,0,2013/10/28,,,0,0,0,0,0,0.00,196,Paperback,,0,0,Ann MacMillan,,,,,,,0,,
18820501,,The 'Piping Times',,,,,ES,1945/2/1,"London Sampson Low, Marston & Co., LTD.",eng,false,1,18820501,6,4,1,1,1945/2/1,The 'Piping Times',book,0,1,0,0,0,4.00,282,Hardcover,First Addition ,1,1,Jeffery Farnol,,,,,,5,-1,,adventure
18821001,1477573836,Das Biedermeier Sofa,9781477573839,,,,ES,2012/6/11,Createspace,ger,false,2,18821001,1,3,1,0,2012/6/11,,book,0,0,1,0,0,3.00,110,Paperback,,1,0,Frederik D. Tunnat,,,,,,,0,,
18821501,1478143304,A Set of Six,9781478143307,,,,ES,2012/6/28,Createspace Independent Publishing Platform,,false,69,424564,220,381,98,13,1908/1/1,A Set of Six,book,28,41,21,6,2,3.89,196,Paperback,,0,0,Joseph Conrad,,,,,,91,7,9,"british-literature,classics,collections,english-literature,fiction,literature,short-stories,tragedy"
18822001,1478379952,"God's Ten Most Wanted Men: Men of Integrity, Character and Transparency",9781478379959,,,,ES,2012/8/8,Createspace Independent Publishing Platform,,false,2,18822001,2,5,1,0,2012/8/8,,,1,0,0,0,0,5.00,32,Paperback,,1,0,Joseph Roosevelt Rogers Sr.,,,,,,1,0,,
18822501,1479237957,Field Manual FM 3-37 Protection September 2009,9781479237951,,,,ES,2012/9/2,Createspace Independent Publishing Platform,,false,2,18822501,0,0,0,0,2012/9/2,,,0,0,0,0,0,0.00,134,Paperback,,0,0,U.S. Department of the Army,,,,,,,0,,
18823001,,Rope Enough (The Romney and Marsh Files #1),,B00AIZ5ME6,,,ES,,,en-US,true,4,18823001,2796,5853,1504,118,2012/12/4,Rope Enough,book,466,564,355,83,36,3.89,,,,1393,96,Oliver Tidy,,,,,,902,22,198,"amazon,crime,detective,fiction,humor,murder-mystery,mystery,mystery-thriller,thriller"
18823501,148011247X,Microsoft Windows 7: A Guide to Windows 7 with Advanced Features,9781480112476,,,,ES,2012/10/17,Createspace Independent Publishing Platform,,false,3,18823501,0,0,0,0,2012/4/4,,,0,0,0,0,0,0.00,94,Paperback,,0,0,John Monyjok Maluth,,,,,,,0,,
18824001,1480803189,Listen Out Loud: Broaden Your Horizon,9781480803183,,,,ES,2013/10/31,Archway Publishing,,false,3,18824000,2,0,0,0,2013/10/31,,,0,0,0,0,0,0.00,166,Hardcover,,0,0,Joe Gwerder,,,,,,2,0,,
18824501,1481163019,Christmas Stories and Legends,9781481163019,,,,ES,2012/12/5,Createspace Independent Publishing Platform,,false,11,10752077,15,12,4,0,1906/1/1,,book,0,1,2,1,0,3.00,160,Paperback,,0,0,Various,,,,,,7,1,,"christmas,fiction"
18825001,1481850598,Nocturnal Surrender,9781481850599,,,,ES,2012/11/28,Createspace,,false,7,42606410,58,55,15,2,2012/11/28,,book,2,7,5,1,0,3.67,110,Paperback,,0,0,Lorraine Pearl,,,,,,28,7,2,"paranormal,romance,vampires"
18825501,,Longing for Love: Horoscope Compatibility Book for Gemini (Longing for Love in Your Astrology Star Sign: 12 Book Series),,B0083ODWQO,,,ES,,,,true,1,18825501,8,7,3,0,2013/11/11,,,0,1,0,1,1,2.33,,,,3,0,Rosemary Breen,,,,,,2,1,2,
18826001,1482354977,La Metamorfosis,9781482354973,,,,ES,2013/2/3,Createspace Independent Publishing Platform,,false,1789,485894,792402,1948749,512823,13460,1915/1/1,Die Verwandlung,book,153489,180743,119923,39895,18773,3.80,90,Paperback,,1,0,Franz Kafka,,,,,,182744,1842,8979,"adult,adult-fiction,classic-literature,classics,college,drama,fantasy,fiction,high-school,horror,literary-fiction,literature,magical-realism,modern-classics,novella,novels,philosophy,school,science-fiction,short-stories"
18826501,1482536625,Japanese Grammar 100 in Plain English,9781482536621,,,,ES,2013/3/5,Createspace Independent Publishing Platform,,false,2,19060519,13,29,8,1,2011/7/26,,,2,2,3,1,0,3.62,168,Paperback,,0,0,"Clay Boutwell,Yumi Boutwell",,,,,,2,1,3,
18827001,1482600064,Die Freunde Machen Den Philosophen: Eine Komodie,9781482600063,,,,ES,2013/2/21,Createspace Independent Publishing Platform,,false,2,18827001,0,0,0,0,2010/9/1,,book,0,0,0,0,0,0.00,44,Paperback,,0,0,Jakob Michael Reinhold Lenz,,,,,,,0,,
18827501,1482689057,The Rabbit Juka and the Earthworm Zuka,9781482689051,,,,ES,2013/4/6,Createspace,,false,1,18827501,1,5,1,0,2013/4/6,,,1,0,0,0,0,5.00,36,Paperback,,1,0,Sinalyna,,,,,,,0,,
18828001,1482769549,Faust: Trauerspiel Mit Gesang Und Tanz,9781482769548,,,,ES,2013/3/20,Createspace,,false,1,18828001,0,0,0,0,2013/3/20,,,0,0,0,0,0,0.00,80,Paperback,,0,0,Julius von Voss,,,,,,,0,,
18828501,1483958930,The Inner Forge: A Guide to the Martial Spirit,9781483958934,,,,ES,2013/4/25,Createspace Independent Publishing Platform,,false,2,21392598,2,4,1,0,2013/4/25,,,0,1,0,0,0,4.00,178,Paperback,,0,0,J.A. Michaels,,,,,,2,0,,
18829001,1484051963,Phillies Heroes: Remembering the Philadelphia Phillies Who Helped Make the 1960s Baseball's Real Golden Age,9781484051962,,,,ES,2013/4/8,Createspace Independent Publishing Platform,,false,1,18829001,0,0,0,0,2013/4/8,,,0,0,0,0,0,0.00,124,Paperback,,0,0,Carroll Conklin,,,,,,,0,,
18829501,1484163834,Financial Freedom and Prosperity: Win the Lottery with the Power of Your Subconscious - National Lottery - Ireland - 6 of 45 -,9781484163832,,,,ES,2013/4/24,Createspace Independent Publishing Platform,,false,1,18829501,0,0,0,0,2013/4/24,,,0,0,0,0,0,0.00,54,Paperback,,0,0,Jo Nouvell,,,,,,,0,,
18830001,,Homemade Frosting: The Ultimate Recipe Guide - Over 30 Delicious & Best Selling Recipes,,B00G8OU3NG,,,ES,,,eng,true,1,18830001,175,211,53,3,2013/11/7,,book,24,13,8,7,1,3.98,,,,53,3,Susan Hewsten,,,,,,85,5,11,"amazon,cookbooks,cooking,food,non-fiction"
18830501,1489507914,The Catholic Manual: Containing a Selection of Prayers and Devotional Exercises for the Use of Christians in Every State of Life,9781489507914,,,,ES,2013/5/19,Createspace Independent Publishing Platform,,false,1,18830501,0,0,0,0,2013/5/19,,,0,0,0,0,0,0.00,470,Paperback,,0,0,The Catholic Church,,,,,,,0,,
18831001,1489917470,Communication,9781489917478,,,,ES,2013/6/29,Springer,,false,3,1896612,1,0,0,0,1998/12/28,Perspectives in Ethology: Communication (Perspectives in Ethology),,0,0,0,0,0,0.00,431,Paperback,,0,0,"Donald H. Owings,Michael D. Beecher,Nicholas S. Thompson",,,,,,1,0,,
18831501,1490425683,The Bobbseytwins on Blueberry Island,9781490425689,,,,ES,2013/6/12,Createspace Independent Publishing Platform,,false,55,856115,808,1661,436,15,1917/1/1,The Bobbsey Twins on Blueberry Island,book,135,128,134,33,6,3.81,154,Paperback,,0,0,Laura Lee Hope,,,Richard S. Hartmetz,,,194,11,11,"adventure,childrens,classics,cozy-mystery,fiction,middle-grade,mystery,young-adult"
18832001,2265067326,"Les petits peuples de Krynn (La trilogie des contes, #2)",9782265067325,,,,ES,1999/2/4,Fleuve Noir,fre,false,10,362677,6868,15654,4443,35,1987/7/1,"Kender, Gully Dwarves, and Gnomes",book,888,1241,1698,540,76,3.52,244,Mass Market Paperback,,1,0,"Margaret Weis,Tracy Hickman",,,,Isabelle Troin,,1167,11,11,"adventure,american,anthologies,epic-fantasy,fantasy,fiction,high-fantasy,science,science-fiction-fantasy,short-stories,speculative-fiction"
18832501,1490919007,Ballpark Facts for Fun! American League,9781490919003,,,,ES,2013/7/7,Createspace Independent Publishing Platform,,false,3,18917404,10,24,5,0,2013/3/5,,,4,1,0,0,0,4.80,50,Paperback,,2,0,Wyatt Michaels,,,,,,6,0,,
18833001,1491033908,Stiefgeschwister: Erotische Romannovellen,9781491033906,,,,ES,2013/7/18,Createspace,,false,3,19483251,1,0,0,0,2013/7/18,,book,0,0,0,0,0,0.00,552,Paperback,,0,0,Andre Le Bierre,,,,,,1,0,,
18833501,,X-Men: Messiah Complex,9780785171461,,,,ES,,,,true,12,2350837,10206,31794,7817,220,2008/4/30,X-Men: Messiah CompleX,book,3240,2463,1635,358,121,4.07,,,,100,2,"Christopher Yost,Craig Kyle,Ed Brubaker,Mike Carey,Peter David","Billy Tan,Chris Bachalo,Humberto Ramos,Marc Silverstri,Scot Eaton",,,,,2099,64,35,"action,adventure,amazon,art,comics,contemporary,fantasy,fiction,graphic-novels,graphic-novels-comics,marvel,mystery,science-fiction,short-stories,superheroes,teen,time-travel,young-adult"
18834001,1491820292,After My Fall from the Tree House: A Memoir,9781491820292,,,,ES,2013/11/5,Authorhouse,,false,1,18834001,0,0,0,0,2013/11/5,,,0,0,0,0,0,0.00,182,Paperback,,0,0,Harris Green,,,,,,,0,,
18834501,1492150169,Army Regulation AR 71-32 Force Development and Documentation 1 July 2013,9781492150169,,,,ES,2013/8/13,Createspace Independent Publishing Platform,,false,1,18834501,1,0,0,0,2013/8/13,,,0,0,0,0,0,0.00,120,Paperback,,0,0,U.S. Department of the Army,,,,,,1,0,,
18835001,149222569X,The Adventure Words Spelling Book,9781492225690,,,,ES,2013/8/23,Createspace Independent Publishing Platform,,false,2,18835001,0,0,0,0,2013/8/23,,,0,0,0,0,0,0.00,40,Paperback,,0,0,"H Marshall,J.R. Luna",,,,,,,0,,
18835501,1492331740,Nohote Guthoma,9781492331742,,,,ES,2013/9/3,Createspace Independent Publishing Platform,,false,1,18835501,1,4,1,0,2013/9/3,,,0,1,0,0,0,4.00,34,Paperback,,1,0,Kasahorow Foundation,,,,,,1,0,,
18836001,1492712000,Edinburgh Elementals (Edinburgh Elementals #1-2),9781492712008,,,,ES,2013/9/17,Createspace Independent Publishing Platform,,false,1,18836001,0,0,0,0,2013/9/17,,book,0,0,0,0,0,0.00,40,Paperback,,0,0,Gayle Ramage,,,,,,,0,,
18836501,1492791156,Native American Tribes: The History and Culture of the Chickasaw,9781492791157,,,,ES,2013/9/22,Createspace Independent Publishing Platform,,false,2,18896092,39,50,12,1,2013/8/16,,,6,4,1,0,1,4.17,28,Paperback,,2,1,Charles River Editors,,,,,,17,1,4,history
18837001,1492876976,108 Prayers: A Book of Devotion to the Bodhisattva of Compassion,9781492876977,,,,ES,2013/10/30,Createspace Independent Publishing Platform,,false,1,18837001,129,0,0,0,2013/10/30,,,0,0,0,0,0,0.00,136,Paperback,,0,0,Marcus Powles,,,,,,129,0,,philosophy
18837501,1492939145,Karyn's 2014 Journal & Planner,9781492939146,,,,ES,2013/10/12,Createspace,,false,1,18837501,0,0,0,0,2013/10/12,,,0,0,0,0,0,0.00,114,Paperback,,0,0,NOT A BOOK,,,,,,,0,,
18838001,1492993271,Sweet Seduction,9781492993278,,,,ES,2013/11/7,Createspace,,false,1,18838001,0,0,0,0,2013/11/7,,,0,0,0,0,0,0.00,142,Paperback,,0,0,Faith Loveright,,,,,,,0,,
18838501,149351914X,I Love My Ferret Memory Journal: A Ferret Journal for You to Record Your Ferret's Life as It Happens!,9781493519149,,,,ES,2013/10/17,Createspace Independent Publishing Platform,,false,1,18838501,0,0,0,0,,,,0,0,0,0,0,0.00,62,Paperback,,0,0,Debbie Miller,,,,,,,0,,
18839001,1493570749,Efène : La Vallée des géants,9781493570744,,,,ES,2013/11/6,Createspace,fre,false,2,24642030,0,0,0,0,2013/11/6,,book,0,0,0,0,0,0.00,272,Paperback,,0,0,Cetro,,,,,,,0,,
18839501,1493615017,Frank in the Woods,9781493615018,,,,ES,2013/10/28,Createspace,eng,false,18,12240580,3,7,2,0,1863/1/1,,book,0,1,1,0,0,3.50,96,Paperback,,0,0,Harry Castlemon,,,,,,,0,,
18840001,1493647873,100 of the Best Romanic Islands to Vacation on,9781493647873,,,,ES,2013/10/31,Createspace Independent Publishing Platform,,false,1,18840001,1,0,0,0,2013/10/31,,,0,0,0,0,0,0.00,30,Paperback,,0,0,"Alex Trost,Vadim Kravetsky",,,,,,1,0,,travel
18840501,1493686968,L'Enchanteresse de la Lune Rousse: La Prophetie,9781493686964,,,,ES,2013/11/4,Createspace Independent Publishing Platform,,false,1,18840501,0,0,0,0,2013/11/4,,,0,0,0,0,0,0.00,424,Paperback,,0,0,Claret Bruno,,,,,,,0,,
18841001,1493727702,Saving Willowbrook: Can She Save the Family Home?,9781493727704,,,,ES,2013/11/10,Createspace Independent Publishing Platform,,false,10,6457391,254,743,176,11,2009/6/1,Saving Willowbrook,book,88,52,25,9,2,4.22,234,Paperback,,1,0,Anna Jacobs,,,,,,43,2,7,"american,chick-lit,fiction,historical-fiction,paranormal,romance"
18841501,1608080889,Fine Lines Autumn 2013,9781608080885,,,,ES,2013/10/30,Writelife,,false,1,18841501,0,0,0,0,2013/10/30,,,0,0,0,0,0,0.00,220,Paperback,,0,0,,,,David Martin,,,,0,,
18842001,1625160097,Through the Eyes: An Adventure in Nogales,9781625160096,,,,ES,2013/8/21,"Strategic Book Publishing & Rights Agency, LLC",,false,3,18842001,0,0,0,0,2013/8/21,,,0,0,0,0,0,0.00,262,Hardcover,,0,0,Thomas Kipley Dugan,,,,,,,0,,
18842501,1780714068,Vocabulario Espanol-Turco - 9000 Palabras Mas Usadas,9781780714066,,,,ES,2013/2/19,T&p Books,,false,2,17655442,0,0,0,0,2013/2/19,,,0,0,0,0,0,0.00,244,Paperback,,0,0,Andrey Taranov,,,,,,,0,,
18843001,178314937X,Vocabolario Italiano-Svedese Per Studio Autodidattico - 7000 Parole,9781783149377,,,,ES,2013/8/20,T&p Books,,false,1,18843001,0,0,0,0,2013/8/20,,,0,0,0,0,0,0.00,186,Paperback,,0,0,Andrey Taranov,,,,,,,0,,
18843501,1922093017,Quantum Leap My Life: Success Lessons from Extraordinary Experts to Transform Your Life,9781922093011,,,,ES,2013/10/14,Innovation Publishing & Best Seller Success,,false,1,18843501,5,15,3,0,2013/10/14,,,3,0,0,0,0,5.00,202,Paperback,,3,0,"Cydney O'Sullivan,Tracy Repchuk",,,,,,2,0,,
18844001,,My Last Testament (Zombie Books of Survival),,B007BSPIB0,,,ES,,,,true,2,15711525,120,182,53,5,2012/2/20,,book,10,14,21,5,3,3.43,,,,28,3,George Milonas,,,,,,54,4,1,"horror,science-fiction,zombies"
18844501,,Slow Death,,B00AY0PSDU,,,ES,,,,true,8,1078771,950,1497,419,43,2001/1/1,Slow Death,book,104,119,127,51,18,3.57,,,,68,6,Jim Fielder,,,,,,351,8,48,"american-history,autobiography,contemporary,crime,history,horror,memoir,murder-mystery,mystery,non-fiction,true-crime"
18845001,3659083267,La Interpretacion de La Ley a Partir y Desde La Constitucion,9783659083266,,,,ES,2013/10/27,Eae Editorial Academia Espanola,,false,1,18845001,0,0,0,0,2013/10/27,,book,0,0,0,0,0,0.00,180,Paperback,,0,0,"Celia Araujo Quintero,Noadis Milan Morales",,,,,,,0,,
18845501,3810036242,Entkorperungen Suchbewegungen Zur (Wieder-)Aneignung Von Korperlichkeit: Eine Biografische Analyse,9783810036247,,,,ES,2002/1/31,Vs Verlag Fur Sozialwissenschaften,,false,1,18845501,0,0,0,0,2002/1/31,,,0,0,0,0,0,0.00,391,Paperback,,0,0,Simone Hess,,,,,,,0,,
18846001,3841698719,Spiritualita(c) Nazara(c)Enne de Charles de Foucauld,9783841698711,,,,ES,2013/11/13,Croix Du Salut,,false,1,18846001,0,0,0,0,2013/11/13,,,0,0,0,0,0,0.00,256,Paperback,,0,0,Umerle Janusz,,,,,,,0,,
18846501,5458428897,Osnovy Proektirovaniya Porohovyh Raketnyh Snaryadov,9785458428897,,,,ES,2013/5/25,Book on Demand Ltd.,,false,1,18846501,0,0,0,0,2013/5/25,,,0,0,0,0,0,0.00,302,Paperback,,0,0,"V.D. Kurov,Yu M. Dolzhanskij",,,,,,,0,,
18847001,9401046972,Applications of Liapunov Methods in Stability,9789401046978,,,,ES,2012/10/27,Springer,,false,1,18847001,0,0,0,0,1993/2/28,,,0,0,0,0,0,0.00,237,Paperback,,0,0,"A Halanay,V Rasvan",,,,,,,0,,
18847501,940172802X,"Property in Social Continuity: Continuity and Change in the Maintenance of Property Relationships Through Time in Minangkabau, West Sumatra",9789401728027,,,,ES,2013/11/13,Springer,,false,3,5057074,2,0,0,0,1979/1/1,"Property in social continuity: Continuity and change in the maintenance of property relationships through time in Minangkabau, West Sumatra (Verhandelingen ... Instituut voor Taal-, Land- en Volkenkunde)",book,0,0,0,0,0,0.00,455,Paperback,,0,0,Franz von Benda-Beckmann,,,,,,2,0,,
18848001,0323266835,"Acute Care Surgery, an Issue of Surgical Clinics, E-Book",9780323266833,,,,ES,2014/2/9,Elsevier,,true,1,18848001,0,0,0,0,2014/4/11,,,0,0,0,0,0,0.00,225,ebook,,0,0,George Velmahos,,,,,,,0,,
18848501,0735684871,Windows 8.1 Administration Pocket Consultant: Essentials & Configuration,9780735684874,,,,ES,2013/11/7,Microsoft Press,,true,6,18167225,4,0,0,0,2013/11/7,,book,0,0,0,0,0,0.00,384,ebook,,0,0,"Eric Michael,William R. Stanek",,,,,,1,1,,non-fiction
18849001,088920781X,The Propensity to Protect,9780889207813,,,,ES,2014/5/27,Wilfrid Laurier University Press,,true,3,12239025,1,5,1,0,1991/5/29,,,1,0,0,0,0,5.00,239,ebook,,0,0,W.H. Heick,,,"Iwan Morgan,Robert Mason",,,,0,,
18849501,,"Before I Wake (Soul Screamers, #6)",,B007UNEUGA,,,ES,,,eng,true,18,11418574,25544,49327,11545,876,2012/1/1,Before I Wake,book,5914,3493,1653,341,144,4.27,,,,165,6,Rachel Vincent,,,,,,866,141,142,"contemporary,death,demons,fantasy,fiction,ghosts,magic,mystery,mythology,paranormal,romance,science-fiction,supernatural,teen,urban-fantasy,young-adult"
18850001,,Charms and Chocolate Chips (A Magical Bakery Mystery #3),,B00BC255VE,,,ES,,,eng,true,7,16000243,5919,12687,3208,243,2013/10/1,,book,939,1313,838,108,10,3.95,,,,290,7,Bailey Cates,,,,,,1092,57,77,"adult,adult-fiction,chick-lit,contemporary,cooking,cozy-mystery,crime,drama,family,fantasy,fiction,food,humor,magic,mystery,mystery-thriller,paranormal,romance,supernatural,urban-fantasy,witches"
18850501,131779804X,Handbook of Psychological Testing,9781317798040,,,,ES,2013/11/12,Routledge,,true,1,18850501,2,0,0,0,2013/11/12,,,0,0,0,0,0,0.00,752,ebook,,0,0,"Michael Williams,Paul Kline",,,,,,2,0,,
18851001,1442229276,Pro Ecclesia Vol 21-N1: A Journal of Catholic and Evangelical Theology: A Journal of Catholic and Evangelical Theology,9781442229273,,,,ES,2011/12/29,Rowman & Littlefield Publishers,,true,2,19831820,0,0,0,0,,,,0,0,0,0,0,0.00,118,ebook,,0,0,Pro Ecclesia,,,,,,,0,,
18851501,1461485835,"Mangrove Ecosystems of Asia: Status, Challenges and Management Strategies",9781461485834,,,,ES,2013/11/30,Springer,,false,4,18292160,0,0,0,0,2013/10/31,,,0,0,0,0,0,0.00,488,Paperback,,0,0,,,,"A Latiff,I. Faridah-Hanum,Khalid Rehman Hakeem",,,,0,,
18852001,1480595411,The Mystery,9781480595415,,,,ES,2014/3/25,Brilliance Audio,,false,17,16100980,1423,1563,393,33,2013/5/1,The Mystery of the Golden Card,book,139,128,107,16,3,3.98,,Audio CD,,0,0,"Garth Nix,Sean Williams",,,,,,829,13,14,"action,adventure,chapter-books,childrens,fantasy,fiction,magic,middle-grade,mystery,school,science-fiction,science-fiction-fantasy,supernatural,urban-fantasy"
18852501,1490940774,Adventures in Colonial America: Volume 1: The Massachusetts Bay Colony: From One Small Settlement to a Colonial Powerhouse,9781490940779,,,,ES,2013/7/4,Createspace Independent Publishing Platform,,false,2,18852501,7,4,1,0,2013/7/4,,,0,1,0,0,0,4.00,68,Paperback,,1,0,Mary A. Baewer,,,,,,2,0,4,history
18853001,1493644890,Believe You Can!: The Power in God's Word.,9781493644896,,,,ES,2013/11/15,Createspace,,false,1,18853001,3,10,2,2,2013/11/15,,,2,0,0,0,0,5.00,188,Paperback,,2,2,Rauzet Moustache,,,"Alexander D. Rae-Grant,Francois Bethoux,Robert J. Fox",,,1,0,,
18853501,1615423559,"Take Control of Mail on the iPad, iPhone, and iPod Touch",9781615423552,,,,ES,2011/12/1,Take Control Books,,true,12,9907155,2,4,1,0,2010/12/1,,,0,1,0,0,0,4.00,108,ebook,,0,0,Joe Kissell,,,,,,1,0,,technology
18854001,1627936300,Dracula,9781627936309,,,,ES,2013/11/8,Start Classics,,true,13,17245,1273240,3194447,801330,20775,1897/1/1,Dracula,book,289078,283276,172514,41949,14513,3.99,365,ebook,,0,0,Bram Stoker,,,,,,367281,1036,34777,"adult,adult-fiction,adventure,british-literature,classic-literature,classics,dark,english-literature,fantasy,fiction,gothic,historical,historical-fiction,horror,literature,mystery,novels,paranormal,romance,school,science-fiction,supernatural,suspense,thriller,unfinished,vampires,victorian"
18854501,1847774008,Selected Poems: James K. Baxter,9781847774002,,,,ES,2010/4/1,Carcanet Press,,true,5,14937255,35,65,17,1,2010/6/1,,book,3,9,4,1,0,3.82,210,ebook,,0,0,James K. Baxter,,,Paul Millar,,,12,1,3,poetry
18855001,8493630306,"La Ultima fosa: Revolución del 34: caso abierto (Inspector Ramalho da Costa, #2)",9788493630300,,,,ES,2008/1/1,Laria,spa,false,1,18855001,8,15,4,0,2007/1/1,,book,0,3,1,0,0,3.75,268,Paperback,,4,0,Alejandro M. Gallo,,,,,,3,1,,
18855501,3527666001,Little Black Book Der Pl�tzchen: S�sses Und Herzhaftes Geb�ck F�r Jede Jahreszeit,9783527666003,,,,ES,2013/10/30,Wiley-Vch,,true,2,18992054,0,0,0,0,2013/10/30,,,0,0,0,0,0,0.00,168,ebook,,0,0,Rosemarie Blim,,,,,,,0,,
18856001,8872880386,"Maria Madre del Carmelo: La Madonna E Le Grandi Figure del Carmelo, Vol. 2",9788872880388,,,,ES,1995/12/31,Edizioni Carmelitane,,false,2,18855980,2,0,0,0,1988/12/31,,,0,0,0,0,0,0.00,318,Paperback,,0,0,Redemptus Valabek,,,,,,2,0,,
18856501,,f64.0,,B00GRK0PPC,,,ES,2013/11/18,Neobooks,ger,true,2,18856501,4,10,2,1,2013/11/18,,book,2,0,0,0,0,5.00,95,Kindle Edition,,1,1,Frank Claudy,,,,,,2,0,,
18857001,,Poemas,9789801413844,,,,ES,2010/1/1,Fundación Editorial El perro y la rana,spa,false,45,6460703,1041,2580,605,40,,,book,294,199,94,14,4,4.26,144,Paperback,,1,0,Miguel Hernández,,,,,,268,7,33,"classics,poetry"
18857501,,Nursery Rhymes vs Zombies Series 1,,B00GQK07YM,,,ES,2013/11/17,Ryan Williams,en-US,true,1,18857501,7,5,1,0,2013/11/17,Nursery Rhymes vs Zombies Series 1,book,1,0,0,0,0,5.00,50,Kindle Edition,1,1,0,Ryan  Williams,,,,,,5,0,,
18858001,,Nietzsche para estressados: 99 doses de filosofia para despertar a mente e combater as preocupações,9788575427392,,,,ES,,,,false,14,11488676,986,1860,539,32,2009/1/1,"Nietzsche para es très ados, 99 polders de fil sofa radical contra las preocupaciones",book,103,160,179,71,26,3.45,,,,3,0,Allan Percy,,,,,,210,6,43,"classics,essays,non-fiction,personal-development,philosophy,psychology,reference"
18858501,,أنا أحيا,,,,,ES,1963/1/1,دار مجلة الشعر - المكتبة العصرية,ara,false,2,7853106,1506,1056,318,56,1963/1/1,,book,69,76,88,58,27,3.32,317,Paperback,,2,0,ليلى بعلبكي,,,,,,1016,8,46,"fiction,literature,novels"
18859001,1299941516,"The Lawman's Holiday Wish (Kirkwood Lake, #3)",9781299941519,,,,ES,2013/10/1,Steeple Hill,,true,9,18050810,201,334,83,13,2013/12/1,The Lawman's Holiday Wish ,book,34,25,18,4,2,4.02,,ebook,,0,0,Ruth Logan Herne,,,,,,79,4,1,"christian,christian-fiction,christmas,contemporary,inspirational,romance"
18859501,130605253X,"Ecosystem Services: Global Issues, Local Practices",9781306052535,,,,ES,2014/1/23,Elsevier,,true,3,18859501,0,0,0,0,2013/1/1,,,0,0,0,0,0,0.00,455,ebook,,0,0,,,,"Hans Keune,Nicolas Dendoncker,Sander Jacobs",,,,0,,
18860001,1306075084,"Electrical Installation Calculations: Advanced, Level 3",9781306075084,,,,ES,2013/11/4,Routledge,,true,7,19244612,22,21,6,1,2009/5/6,,book,2,2,0,1,1,3.50,244,ebook,,1,0,"A.J. Watkins,Christopher Kitcher",,,,,,12,0,1,
18860501,1306080312,Nanotechnology Applications for Clean Water: Solutions for Improving Water Quality,9781306080316,,,,ES,2011/1/1,Backbeat Books,,true,4,17175990,0,0,0,0,2008/12/30,,,0,0,0,0,0,0.00,283,ebook,,0,0,"Anita Street,Dave Thompson,Jeremiah Duncan,Mamadou Diallo,Nora Savage,Richard Sustich",,,,,,,0,,
18861001,1306086248,Shell Structures: Theory and Application,9781306086240,,,,ES,2013/11/2,CRC Press,,true,2,18861001,0,0,0,0,2013/1/1,,,0,0,0,0,0,0.00,600,ebook,,0,0,Wojciech Pietraszkiewicz,,,,,,,0,,
18861501,,Rapture (Fallen Angels #4),,B008H33TJG,,,ES,,,eng,true,26,13040826,33258,61705,14834,1004,2012/1/1,Rapture,book,6259,5366,2643,451,115,4.16,,,,190,4,J.R. Ward,,,,,,572,91,398,"action,adult,adult-fiction,angels,contemporary,demons,erotica,fantasy,fiction,magic,paranormal,romance,supernatural,suspense,urban-fantasy,vampires"
18862001,1306096707,Robert Brown and the Vancouver Island Exploring Expedition,9781306096706,,,,ES,2009/1/1,Bull Publishing Company,,true,1,18862001,0,0,0,0,2009/1/1,,,0,0,0,0,0,0.00,146,ebook,,0,0,Christina Schmidt,,,John Hayman,,,,0,,
18862501,1306101549,Realizability: An Introduction to Its Categorical Side,9781306101547,,,,ES,2009/1/1,John Blake,,true,1,18862501,2,0,0,0,2009/1/1,,,0,0,0,0,0,0.00,241,ebook,,0,0,Chas Newkey-Burden,,,,,,2,0,,
18863001,1306106400,Sudden Death and the Myth of CPR,9781306106405,,,,ES,2003/1/1,Taylor Trade Publishing,,true,6,287074,25,40,10,0,1999/7/1,Sudden Death and the Myth of CPR,,2,6,2,0,0,4.00,281,ebook,,0,0,"Regina M Ciesla,Stefan Timmermans,Tom M Ciesla",,,,,,12,2,1,sociology
18863501,1306111234,Cancer Immunotherapy: Immune Suppression and Tumor Growth,9781306111232,,,,ES,2013/1/1,Routledge,,true,1,18863501,1,2,1,0,2013/1/1,,,0,0,0,1,0,2.00,215,ebook,,1,0,Stephen Hancock,,,"Elizabeth M. Jaffee,George C. Prendergast",,,1,0,,
18864001,1306116066,The Economic Geography of the UK,9781306116060,,,,ES,2013/1/1,Routledge,,true,8,9635741,7,6,2,1,2010/1/1,,,0,0,2,0,0,3.00,97,ebook,,0,0,"Andrew Jones,Gil Loescher,James Milner,Neil M. Coe",,,,,,1,0,1,non-fiction
18864501,1306120861,Configuring Ipv6 for Cisco IOS,9781306120869,,,,ES,2013/1/1,Pearson,,true,5,583233,6,0,0,0,2002/1/1,Configuring IPv6 for Cisco IOS,book,0,0,0,0,0,0.00,581,ebook,,0,0,"Bart Saylors,Brian Browne,Douglas T. Kenrick,Eric Knipp,Neal Chen,Paul J. Fong,Rob Webber,Robbie Harrell,Robert B. Cialdini,Sam Brown,Steven L. Neuberg",,,Edgar Parenti Jr.,,,3,0,,
18865001,1306125669,BMX,9781306125666,,,,ES,2012/1/1,Av2 by Weigl,,true,5,14600242,10,13,3,0,2012/1/1,,,2,0,1,0,0,4.33,28,ebook,,0,0,Aaron Carr,,,,,,9,0,,
18865501,1306130522,Beyond the Sacred Forest: Complicating Conservation in Southeast Asia,9781306130523,,,,ES,2006/1/1,Rowman & Littlefield Publishers,,true,5,11065504,14,9,2,0,2006/1/1,,,1,1,0,0,0,4.50,146,ebook,,0,0,Pro Ecclesia,,,"Amity A Doolittle,Michael R. Dove,Percy E Sajise",,,10,0,1,anthropology
18866001,,Gurebâhâne-i Laklakan,9789750820564,,,,ES,2011/7/1,Yapı Kredi Yayınları,tur,false,2,10484972,47,82,23,1,2011/7/1,,book,3,8,11,1,0,3.57,133,Paperback,,4,0,Ahmet Hâşim,,,,,,13,0,-1,
18866501,,Zodiac,,B008UX8SNU,,,ES,,,,true,30,825,24376,60328,16264,651,1988/4/30,Zodiac,book,3082,6628,5426,1000,128,3.71,,,,556,17,Neal Stephenson,,,,,,5030,20,376,"action,adult-fiction,adventure,american,contemporary,crime,detective,fantasy,fiction,horror,humor,literature,mystery,mystery-thriller,novels,politics,science,science-fiction,science-fiction-fantasy,speculative-fiction,suspense,thriller"
18867001,,Life Coaching: Your Million Dollar Blueprint,,B0062P5YSK,,,ES,,,,true,1,18867001,48,52,15,0,2011/11/1,,,3,6,3,1,2,3.47,,,,15,0,Terry Dean,,,,,,22,1,8,
18867501,,Limitless: Devotions for a Ridiculously Good Life,,B009MYATS8,,,ES,,,,true,17,15798309,2454,2966,705,80,2013/1/1,,book,346,217,100,26,16,4.21,,,,25,0,Nick Vujicic,,,,,,1443,18,152,"adventure,christian,christianity,faith,inspirational,memoir,non-fiction,religion,self-help"
18868001,,"Going Home (The Survivalist, #1)",,B00AGEXVV0,,,ES,,,eng,true,11,17085384,7714,17449,4290,381,2012/11/28,Going Home,book,1782,1460,718,215,115,4.07,,,,222,2,A. American,,,,,,2172,13,458,"action,adult,adventure,contemporary,dystopia,fantasy,fiction,novels,post-apocalyptic,science-fiction,survival,suspense,thriller,zombies"
18868501,,Kidjacked - A Father's Story,9780988946316,,,,ES,2013/4/8,Jazz Dog Publishing,,true,1,18868501,5,9,2,0,2013/4/8,,,1,1,0,0,0,4.50,,ebook,,2,0,Scott Lesnick,,,,,,,0,1,
18869001,,Sarkandyan Da Desh,,,,,ES,,Gyan Books,pan,false,1,18869001,109,40,11,1,,,book,6,1,1,0,3,3.64,,,,11,1,Dalip Kaur Tiwana,,,,,,92,0,7,
18870001,,Der Kreis der 6,,,,,ES,,,ger,false,1,11011295,7162,13048,3684,503,2011/8/1,,book,589,1338,1320,354,83,3.54,,,,1,0,Kate White,,,,,,411,61,78,"adult,chick-lit,contemporary,crime,erotica,fiction,murder-mystery,mystery,mystery-thriller,novels,suspense,thriller"
18870501,1476703116,Sisters of Treason,9781476703114,,,,ES,2014/7/8,Simon  Schuster,eng,true,19,24307888,8000,7720,2028,322,2014/7/8,,book,451,891,562,91,33,3.81,448,ebook,,6,3,Elizabeth Fremantle,,,,,,383,78,14,"adult,adult-fiction,biography,british-literature,family,fiction,historical,historical-fiction,history,love,novels,politics,religion,romance"
18871001,,"How To Be Happy Being Yourself: Experiencing Life Your Way Without Being A ""Bitch""",,B00CIYSQ8E,,,ES,,,en-US,true,3,18871001,43,45,10,1,2013/4/24,,book,8,1,0,0,1,4.50,,,,9,1,"Jennifer J. Hunt,Natalie Schubert",,,,,,4,2,6,"personal-development,self-help"
18871501,,Skunk,,B00CI7ECFW,,,ES,,,,true,1,18871501,0,0,0,0,2013/4/23,,,0,0,0,0,0,0.00,,,,0,0,James  MacVeigh,,,,,,,0,,
18872001,144413227X,50 Ways to Improve Your French: Teach Yourself,9781444132274,,,,ES,2011/12/2,Teach Yourself,,true,3,19238249,2,2,1,0,2010/8/27,,,0,0,0,1,0,2.00,160,ebook,,1,0,"Lorna Wright,Marie-Jo Morelle",,,,,,,0,1,
18872501,,Diezmados: Escuadrón Centinela O.N.E,9788496734258,,,,ES,,Panini Comics España (Marvel Comics),spa,false,2,242710,168,249,102,6,1999/12/31,Decimation : Sentinel Squad ONE,book,4,10,37,27,24,2.44,,Paperback,Diezmados,1,0,John Layman,,,,,,38,7,,"comics,fiction,graphic-novels,graphic-novels-comics,marvel"
18873001,,アイデアのちから (Japanese Edition),,B00F0FQ8EC,,,ES,,,,true,1,18873001,7,0,0,0,2008/11/17,,,0,0,0,0,0,0.00,,,,0,0,"ダン ハース,チップ ハース",,,,飯岡 美紀,,4,0,1,
18873501,,The Adventures of Gerard,,B0082S68P8,,,ES,,,,true,189,22631660,459,769,203,30,1903/1/1,The Adventures of Brigadier Gérard,book,49,82,54,16,2,3.79,,,,24,0,Arthur Conan Doyle,,,,,,179,14,13,"adventure,british-literature,classic-literature,classics,fiction,historical,historical-fiction,mystery,novels,short-stories"
18874001,,""" بئر العسل """,,,,,ES,,مجموعة النيل العربية,,false,1,18874001,113,53,14,0,,,book,6,3,3,0,2,3.79,,,,14,0,محمود رمضان الطهطاوي,,,,,,103,0,,
18874501,,Ginza Rabba,,B00A3GO458,,,ES,2012/1/1,Drabsha Publishing,eng,false,2,13000772,153,91,24,8,2012/1/1,كنزا ربا,book,7,9,4,4,0,3.79,387,Hardcover,,6,2,Anonymous,,,,"Hamed Mughashghash Al-Saadi,Qais Mughashghash Al-Saadi",,84,1,8,"history,religion"
18875001,,The River War An Account of the Reconquest of the Sudan,,B0084A08XW,,,ES,,,eng,true,123,1262864,1354,1935,488,44,1899/1/1,The River War,book,151,199,113,20,5,3.97,363,,,55,3,Winston S. Churchill,,,,,,645,6,92,"amazon,biography,history,non-fiction,politics,war"
18875501,,How to Earn a Hundred Dollars a Day - Easy Legitimate Ways to Earn an Extra $100 or more online now,,B00GSX9MGQ,,,ES,2013/11/19,Caterina Christakos,en-US,true,2,18866401,240,31,9,1,2013/11/19,,book,4,2,0,0,3,3.44,93,ebook,Kindle,1,0,Caterina Christakos,,,,,,224,0,1,"business,self-help"
18876001,,20几岁要知道点历史常识:中国卷 (MBook随身读) (Chinese Edition),,B008Z8Y028,,,ES,,,,true,1,18876001,0,0,0,0,2011/9/1,,,0,0,0,0,0,0.00,,,,0,0,刘艳辉,,,,,,,0,,
18876501,,Danny and Mike,,B009JW4MYA,,,ES,,,,true,5,15832479,267,259,73,10,2012/9/15,,book,14,26,22,8,3,3.55,,,,2,0,Valentina Heart,,,,,,147,15,2,"abuse,contemporary,dark,erotica,romance"
18877001,,あの日、出逢ったきみに。(1) (qap-L) (Japanese Edition),,B00BLUX6FO,,,ES,,,,true,1,18877001,1,0,0,0,,,,0,0,0,0,0,0.00,,,,0,0,あやさか理緒,,,,,,1,0,,
18877501,,ダーティペアの大脱走 (ダーティペア・シリーズ) (Japanese Edition),,B00GJMUSE6,,,ES,,,,true,1,18877501,0,0,0,0,2013/7/15,,,0,0,0,0,0,0.00,,,,0,0,高千穂 遙,,,,,,,0,,
18878001,,"Puhuva koira (Aku Ankan parhaat, #8)",,,,,ES,,,,false,1,18878001,1,4,1,0,,,book,0,1,0,0,0,4.00,,,,1,0,Carl Barks,,,,,,,0,,
18878501,,Scotty Scott's A No Nonsense Guide to Life 2,,B00GA5H458,,,ES,2013/11/16,,eng,true,1,18878501,1,0,0,0,2013/11/16,,book,0,0,0,0,0,0.00,74,Kindle Edition,,0,0,Scotty Scott,,,,,,1,0,,
18879001,,Diabolik anno X n. 4: Il segreto delle rocce nere,,,,,ES,1971/2/15,Astorina s.r.l.,ita,false,2,12565816,3,7,2,0,1971/2/15,Diabolik n. 184: Il segreto delle rocce nere,periodical,0,1,1,0,0,3.50,240,Mass Market Paperback,First,0,0,"Angela Giussani,Enzo Facciolo,Luciana Giussani,Sergio Zaniboni",,,,,,,0,,
18880001,0595862934,Lessons with the Master,9780595862931,,,,ES,2007/6/19,iUniverse,,true,1,18880001,14,32,8,0,2007/6/19,,,2,4,2,0,0,4.00,,ebook,,8,0,Paul Walker,,,,,,1,0,1,
18880501,,Ass in the Air: Five First Anal Sex Erotica Stories,,B00GQOYT7E,,,ES,,,eng,true,1,18880501,8,0,0,0,2013/11/17,,book,0,0,0,0,0,0.00,,,,0,0,"Brianna Spelvin,Constance Slight,Sandra Strike,Sarah Blitz,Susan    Fletcher",,,,,,7,0,1,erotica
18881001,,Samenai Yume,,,,,ES,2000/1/1,,jpn,false,1,18881001,19,48,15,2,2000/1/1,,book,1,4,8,1,1,3.20,40,,,15,2,Tatsumi Doroko,,,,,,1,1,,"comics,horror,manga,queer"
18881501,,"Life and Letters of Charles Darwin, Vol 2",,B004TS2X7W,,,ES,,,eng,true,31,18881501,74,47,14,0,1887/1/1,,book,1,7,2,4,0,3.36,,,,9,0,Charles Darwin,,,Francis Darwin,,,50,4,3,"biography,non-fiction,science"
18882001,,Mind Over Mood: Change How You Feel by Changing the Way You Think,,B001V7RLT4,,,ES,,,,true,33,108380,7834,9528,2371,123,1995/3/15,,book,922,796,470,141,42,4.02,,,,2,0,"Christine A. Padesky,Dennis Greenberger",,,,,,4451,13,403,"adult,health,medical,mental-health,mental-illness,non-fiction,personal-development,psychology,reference,science,self-help,unfinished"
18882501,1488704112,The Baby Pursuit,9781488704116,,,,ES,2014/1/1,Mills  Boon Special Release,,true,12,3116459,195,259,69,6,1999/9/1,The Baby Pursuit (Fortune of Texas #2),book,22,20,18,6,3,3.75,192,ebook,,1,0,Laurie Paige,,,,,,67,7,3,"contemporary,harlequin,love-story,romance"
18883001,,Dark Nights,,B00GOH9CSE,,,ES,2013/11/26,Sunbow Press,en-GB,true,4,18715538,239,241,55,14,2013/11/15,,book,28,20,7,0,0,4.38,395,Kindle Edition,,36,5,Christopher A. Gray,,,,,,100,7,61,"fiction,science-fiction"
18883501,,To Save a Thousand Souls: A Guide for Discerning a Vocation to Diocesan Priesthood,,B004LX0J94,,,ES,,,,true,2,8520897,281,641,150,16,2010/1/1,,book,79,45,18,4,4,4.27,,,,15,0,Brett Brannen,,,Sam Alzheimer,,,77,5,20,"biography-memoir,christian,christianity,faith,non-fiction,philosophy,reference,religion,spirituality,theology"
18884001,,アウトニア王国奮戦記 でたまか 問答無用篇 (角川スニーカー文庫) (Japanese Edition),,B009GPLWE8,,,ES,,,,true,1,18884001,2,5,1,0,1998/7/1,,,1,0,0,0,0,5.00,,,,1,0,鷹見 一幸,Chiyoko,,,,,1,0,,
18884501,,深海大戦　Ａｂｙｓｓａｌ　Ｗａｒｓ (角川書店単行本) (Japanese Edition),,B00EVQ00GS,,,ES,,,,true,1,18884501,0,0,0,0,2013/8/30,,,0,0,0,0,0,0.00,,,,0,0,藤崎 慎吾,,,,,,,0,,
18885001,,Jane Eyre (免费公版书) (French Edition),,B00AIHICAK,,,ES,,,,true,3561,10210,2147764,5848760,1422243,35857,1847/10/16,Jane Eyre,book,643000,441593,230216,69306,38128,4.11,,,,29,0,Charlotte Brontë,,,,,,548070,4131,42246,"adult,adult-fiction,british-literature,chick-lit,classic-literature,classics,drama,english-literature,feminism,fiction,gothic,high-school,historical,historical-fiction,literary-fiction,literature,love,mystery,novels,romance,school,victorian,young-adult"
18885501,,Förðun skref fyrir skref,9789935131423,,,,ES,2013/11/1,Edda útgáfa,isl,false,1,18885501,1,0,0,0,2013/11/1,,book,0,0,0,0,0,0.00,128,Hardcover,,0,0,Kristín Stefánsdóttir,,,,,,,0,,
18886001,,"Culture: Leading Scientists Explore Civilizations, Art, Networks, Reputation, and the Online Revolution (Best of Edge Series)",,B004V9MRL6,,,ES,,,,true,6,12472555,629,437,120,13,2011/8/16,,book,24,43,42,8,3,3.64,,,,13,1,John Brockman,,,,,,425,9,44,"anthropology,art,education,essays,history,non-fiction,science,society,sociology,technology"
18886501,,"Pensar con tipos: Una guía clave para estudiantes, diseñadores, editores y escritores",9788425224461,,,,ES,2013/1/1,Gustavo Gili,spa,false,13,69736,17591,38430,9440,256,2004/9/9,Thinking with Type,book,3841,3179,1820,449,151,4.07,224,Paperback,,4,0,Ellen Lupton,,,,,,6394,16,480,"academic,art,business,college,education,language,non-fiction,reference,school,technology,textbooks,writing"
18887001,,The Hogben Chronicles,,,,,ES,2013/8/1,Borderlands Press,eng,false,4,18399576,251,522,119,15,1998/1/1,,book,65,40,10,3,1,4.39,139,Hardcover,First limited signed edition,5,1,Henry Kuttner,,,"F. Paul Wilson,Pierce Watters",,,30,5,3,"fantasy,fiction,graphic-novels,humor,science-fiction,short-stories"
18887501,,Consider the Lilies of the Field: Put Your Full Trust in God... He Will Provide (Christian Inspiration),,B00CO6DH8A,,,ES,,,,true,2,18887501,12,19,4,0,2013/1/1,,book,3,1,0,0,0,4.75,,,,4,0,Rebecca Nicole Ross,,,,,,4,0,2,christian
18888001,,Learn to Read with Sami and Thomas: Book 1,,B00AVSS3QY,,,ES,,,eng,true,1,18888001,35,55,15,2,2013/1/1,,book,5,3,4,3,0,3.67,,,,15,2,"James McDonald,Rebecca McDonald",,,,,,14,0,4,
18888501,,Complete Poetical Works of Christina Rossetti,,B009K43KH2,,,ES,,,eng,true,10,244885,3728,7774,1919,31,1862/1/1,The Complete Poems,book,746,651,423,72,27,4.05,,,Delphi Poets Series,15,1,Christina Rossetti,,,,,,1652,16,42,"british-literature,class,classic-literature,classics,college,fiction,gay,literature,non-fiction,poetry,victorian"
18889001,,The Secret Of How People Change : A powerful story that provides solutions to life's most complex problems,9780984756377,,,,ES,,,,true,1,18889001,45,60,16,1,2013/11/14,,,6,4,4,0,2,3.75,,,,16,1,Vishwanath,,,,,,23,0,5,spirituality
18889501,,伊豆の踊子,,B00D3WJ49A,,,ES,,,jpn,true,45,14030,4357,7638,2019,146,1926/1/1,Izu no odoriko 伊豆の踊子,book,497,760,610,131,21,3.78,,,,5,1,"Yasunari Kawabata,川端 康成",,,,,,1780,11,75,"classics,collections,contemporary,fiction,history,literary-fiction,literature,love-story,novels,romance,short-stories"
18890501,,Sleepyhead? NOT!,,B00FNH16U8,,,ES,2013/10/2,"Amazon Digital Services, Inc.",eng,true,2,18890501,8,28,6,3,2013/9/25,,book,5,0,1,0,0,4.67,24,Kindle Edition,,6,3,J. Cates Flaviano,,,,,,3,0,,
18891001,,Le Saint Coran (French Edition),9782841616794,,,,ES,,,,true,818,646462,114496,222015,51180,2850,609/1/1,القرآن‎‎ [al-Qurʾān],book,36900,4120,4244,2387,3529,4.34,,,,1,0,Anonymous,,,,,,46969,109,7477,"classics,faith,fantasy,fiction,historical,history,inspirational,literature,mythology,non-fiction,philosophy,poetry,politics,reference,religion,research,school,self-help,spirituality,theology,unfinished"
18891501,,"Bond Bombshell (Jamie Bond, #2.5)",,B00GAA6BCK,,,ES,,,en-US,true,4,18891501,768,1629,398,16,2013/10/28,,book,153,137,100,8,0,4.09,,,,396,16,Gemma Halliday,,,,,,234,14,16,"contemporary,cozy-mystery,fiction,murder-mystery,mystery,mystery-thriller,novella,romance"
18892001,,"Control Burn Resist (Songs of Submission, #4-6)",,,,,ES,,,eng,true,16,36694131,4526,12032,2766,162,2013/11/16,Control Burn Resist,book,1469,910,296,68,23,4.35,606,,1st Edition,2306,126,C.D. Reiss,,,,,,804,26,290,"adult,adult-fiction,bdsm,collections,contemporary,dark,drama,erotica,romance,suspense"
18892501,,The Athena Doctrine: How Women (and the Men Who Think Like Them) Will Rule the Future,,B00BTBPM8Y,,,ES,,,,true,10,16250170,1043,690,203,34,2013/3/1,,book,27,69,75,22,10,3.40,,,,18,1,"John Gerzema,Michael D?Antonio",,,,,,736,17,27,"academic,adult,business,feminism,leadership,non-fiction,philosophy,politics,psychology,self-help,sociology,spirituality,unfinished"
18893001,1933170697,Young Adult Literature & Multimedia,,,,,ES,,,eng,false,1,18893001,2,3,1,0,2012/8/1,,book,0,0,1,0,0,3.00,,,8th Edition,1,0,"Beth Wrenn-Estes,David V. Loertscher,Sharron L. McElmeel",,,,,,,0,,
18893501,,Bible Study #31 (Bible Study With John Ogwyn),,B00GPZXISU,,,ES,,,,true,1,18893501,0,0,0,0,2013/11/16,,,0,0,0,0,0,0.00,,,,0,0,John Ogwyn,,,,,,,0,,
18894001,,Your Comprehensive Green Juicing Guide,,B006Z1GN2W,,,ES,,,,true,2,13559136,131,262,72,4,2012/1/1,Your Comprehensive Green Juicing Guide,book,22,20,17,8,5,3.64,,,,50,2,Farnoosh Brock,,,,,,52,1,3,"cooking,food,health,non-fiction"
18894501,,Mentalpause and Other Midlife Laughs,,B007764OZW,,,ES,,,,true,7,18894501,382,592,166,32,2001/7/1,Mentalpause : . . . and Other Midlife Laughs,book,42,44,53,20,7,3.57,,,,76,5,Laura Jensen Walker,,,,,,169,18,18,"christian,comedy,contemporary,fiction,humor,non-fiction,self-help"
18895001,,Deadliest Animals (National Geographic Readers),,B008OI4TT8,,,ES,,,eng,true,10,9932856,301,493,114,17,2011/1/1,,book,61,38,9,3,3,4.32,,,,13,2,Melissa Stewart,,,,,,94,15,11,"animals,chapter-books,non-fiction,picture-books,science"
18895501,,"Joel Osteen Jokes - Hilarious Collection of Joel Osteen's Funniest Short, Clean Jokes (NOW Includes FREE VIDEO and AUDIO Versions) (Joel's Gems)",,B00CWGH34Q,,,ES,,,,true,1,18895501,86,133,36,2,2013/5/19,,,11,9,11,4,1,3.69,,,,36,2,Don Pasco,,,,,,32,0,9,
18896001,,Afghan Crochet Patterns - Ten Classic Vintage Patterns (Illustrated),,B007VGD1MK,,,ES,,,eng,true,1,18896001,89,83,23,1,2012/4/17,,book,8,5,6,1,3,3.61,,,,23,1,Cathy Crochet,,,,,,12,0,32,
18896501,,"Lieutenant General Jubal A. Early, Confederate States of America",9781625399458,,,,ES,,,,true,6,18896501,58,77,21,0,2011/5/30,,,7,5,5,3,1,3.67,,,,16,0,Jubal Anderson Early,,,,,,16,0,18,
18897001,,A Brief History of Christian Worship,,B005FQKJXW,,,ES,,,,true,6,266921,298,444,124,9,1992/12/31,A Brief History of Christian Worship,,22,46,40,14,2,3.58,,,,19,1,James F. White,,,,,,84,5,21,"adult,christian,christianity,grad-school,historical,history,non-fiction,religion,theology"
18897501,,Kindle Fire HD: The Missing Manual,,B00B51B3ZE,,,ES,,,,true,6,16128987,92,172,47,6,2013/1/1,,,10,12,24,1,0,3.66,,,,15,2,Peter Meyers,,,,,,15,3,20,"education,non-fiction,reference,technology"
18898001,,Love Someone Today: Encouragement and Inspiration for the Times of Our Lives,,B000FC0RDS,,,ES,,,eng,true,9,1057242,77,92,25,5,2001/5/1,Love Someone Today: Encouragement and Inspiration for the Times of Our Lives,book,7,7,8,2,1,3.68,,,,2,0,Delilah .,,,,,,35,0,1,"inspirational,non-fiction,relationships"
18898501,,Data Driven Design: How Today's Product Designer Approaches User Experience to Create Radically Innovative Digital Products,9780578117249,,,,ES,,,,true,2,17726586,73,81,24,4,2013/1/12,,book,2,13,4,2,3,3.38,,,,9,0,Phillip A. Harris,,,,,,38,1,2,business
18899001,,Seasons of Solace: A Story of Healing through Photos and Poems,,B009JVOCAK,,,ES,,,,true,2,6920492,9,20,5,0,2010/3/1,,,3,0,1,1,0,4.00,,,,2,0,Janelle Shantz Hertzler,,,,,,2,1,,
18899501,,Sleep In Heavenly Peace,,B003X4KRUI,,,ES,,,eng,true,16,855272,1213,1784,475,46,2006/1/1,Sleep In Heavenly Peace (Pinnacle True Crime),book,139,158,115,49,14,3.76,,,,127,5,M. William Phelps,,,,,,491,23,132,"abuse,biography,crime,non-fiction,true-crime,unfinished"
18900001,,Tales of the Alhambra,,B00DVT2GHW,,,ES,,,,true,487,403733,6815,10224,2751,330,1832/1/1,The Alhambra,book,607,1029,892,174,49,3.72,,,,8,0,Washington Irving,,,,,,2821,6,468,"adventure,american,autobiography,biography,classics,essays,fairy-tales,fantasy,fiction,historical,historical-fiction,history,literature,memoir,mythology,non-fiction,novels,religion,short-stories,travel,unfinished"
18900501,,Onze chemobaby,9789461311900,,,,ES,2013/9/1,Van Halewyck,nl,false,1,18900501,27,70,17,1,2013/9/1,Onze chemobaby,book,5,9,3,0,0,4.12,175,Hardcover,,17,1,Andy Cools,,,,,,4,0,,
18901001,,A Couple's Guide to Sexual Addiction: A Step-by-Step Plan to Rebuild Trust and Restore Intimacy,,B0063HY62M,,,ES,,,,true,5,12024006,61,73,18,1,2011/12/18,,book,8,7,1,0,2,4.06,,,,11,0,"George Collins,Paldrom Catharine Collins",,,,,,21,0,15,
18901501,,精霊特捜フェアリィセイバーW　半神半鬼 (ワールドコミックス「WIN」) (Japanese Edition),,B00A9Q9A1U,,,ES,,,,true,1,18901501,0,0,0,0,2007/4/30,,,0,0,0,0,0,0.00,,,,0,0,上藤政樹,,,,,,,0,,
18902001,,Kartoffeln gehören nicht in einen Zen-Garten (German Edition),,B00AQ8AD6W,,,ES,,,,true,2,18902001,0,0,0,0,2012/12/18,,,0,0,0,0,0,0.00,,,,0,0,Sr. Rolando,,,,,,,0,,
18902501,,Mittens and Hats for Yarn Lovers: Detailed Techniques for Knitting in the Round,,B004YC4IHQ,,,ES,,,,true,4,9232921,52,84,23,2,2011/1/1,,,6,8,6,1,2,3.65,,,,4,0,Carri Hammett,,,,,,2,3,5,"adult,non-fiction,reference"
18903001,1907532595,Last Chorus: An Autobiographical Medley,9781907532597,,,,ES,2013/2/18,Aurum,,true,4,7420977,36,64,16,2,2008/9/25,,,5,7,3,1,0,4.00,771,ebook,,7,0,Humphrey Lyttelton,,,,,,7,1,,"biography,music,non-fiction"
18903501,,"機巧少女は傷つかない 6 Facing ""Crimson Red""",,B0095F1MIU,,,ES,,,jpn,true,3,15981187,35,78,17,0,2011/7/22,機巧少女は傷つかない 6,book,10,7,0,0,0,4.59,,,,1,0,"Reiji Kaitou,海冬 レイジ",るろお,,,,,14,0,,"manga,paranormal"
18904001,,鋼の錬金術師19巻,,B009UP2FMW,,,ES,,,jpn,true,20,6065429,7980,25639,5552,110,2008/1/1,鋼の錬金術師 19,book,3861,1317,331,30,13,4.62,,,,5,1,"Hiromu Arakawa,荒川 弘",,,,,,397,83,23,"action,adventure,comedy,comics,fantasy,fiction,graphic-novels,historical-fiction,magic,novels,science-fiction,steampunk,supernatural,young-adult"
18904501,,The One Year Book of Discovering Jesus in the Old Testament,,B007V69AE8,,,ES,,,en-US,true,3,9393859,253,266,59,5,2010/10/1,,book,39,13,6,0,1,4.51,,,,11,0,Nancy Guthrie,,,,,,144,5,33,"christian,christianity,faith,non-fiction,theology"
18905001,,Hunted: A Sultry Retelling of Beauty and the Beast (An Adult Fairy Tale Novel),,B00FC159HQ,,,ES,,,en-US,true,4,18376540,723,322,117,30,2013/8/22,,book,15,22,27,25,28,2.75,,,,50,0,Cerys du Lys,,,,,,14,6,11,"demons,erotica,fairy-tales,fantasy,historical,magic,mythology,paranormal,romance,shapeshifters"
18905501,,To LOVEる_とらぶる_ カラー版 1 (ジャンプコミックスDIGITAL) (Japanese Edition),,B00ATLLVLC,,,ES,,,,true,11,3919650,286,588,156,15,2006/1/1,とらぶる #1,book,50,45,41,15,5,3.77,,,,1,0,"Kentaro Yabuki,長谷見　沙貴",,,,,,74,5,8,"adult,comedy,comics,fantasy,funny,graphic-novels,high-school,humor,manga,romance,science-fiction"
18906001,,How To Be An Airline Pilot - 7 Steps To Becoming A Commercial Airline Pilot! (Airline Pilot Training Book 1),9781907558832,,,,ES,,,,true,1,18906001,3,7,2,0,2011/10/18,,,1,0,0,1,0,3.50,,,,2,0,Jason Cohen,,,,,,2,0,,
18906501,,Una vida con proposito: Para que estoy aqui en la tierra? (The Purpose Driven Life),,B00BOTBATQ,,,ES,,,,true,153,56495,308374,796416,203280,3005,2002/1/1,The Purpose Driven Life: What on Earth am I Here For?,book,84008,55313,38259,14647,11053,3.92,,,,45,3,Rick Warren,,,,,,88559,91,6867,"adult,business,christian,christianity,faith,fiction,inspirational,leadership,non-fiction,personal-development,philosophy,psychology,reference,religion,self-help,spirituality,theology,unfinished"
18907001,,Schläft das Personal auch an Bord?: Ein Kreuzfahrt ABC,,B006N51JGA,,,ES,,,ger,true,2,18907001,13,19,5,0,2012/2/16,Schläft das Personal auch an Bord,book,1,3,0,1,0,3.80,,,,4,0,Andreas Lukoschik,,,,,,4,1,1,
18907501,,"In Plain Sight (Ivy Malone Mysteries, #2)",,B00B5J4ZFQ,,,ES,,,eng,true,6,610985,2934,7904,1941,127,2005/4/1,In Plain Sight,book,708,744,422,55,12,4.07,,,,282,3,Lorena McCourtney,,,,,,578,16,69,"adult-fiction,adventure,chick-lit,christian,christian-fiction,contemporary,cozy-mystery,fiction,mystery"
18908001,,Guns of Brixton,,B007AED4UW,,,ES,,,,true,5,8724763,140,177,50,1,2010/1/1,,,11,12,21,5,1,3.54,,,,21,0,Mark Timlin,,,,,,40,2,2,"crime,detective,fiction,history,mystery,mystery-thriller,novels,thriller"
18908501,,Ter Ternier Sein Weg ins All (German Edition),,B00838YOE4,,,ES,,,,true,1,18908501,0,0,0,0,2012/5/13,,,0,0,0,0,0,0.00,,,,0,0,Heiko Grießbach,Ralf Schoofs,,,,,,0,,
18909001,,"Secrets in Sanctuary [Sanctuary, Montana 6]",9781627406703,,,,ES,,,,true,3,18743063,59,89,22,1,2013/10/1,,book,8,10,2,1,1,4.05,,,,4,0,Zara Chase,,,,,,26,0,1,"erotica,menage"
18909501,,Evil and the Justice of God,9780830868742,,,,ES,,,,true,12,91375,3638,6269,1575,147,2006/10/1,,book,482,672,339,72,10,3.98,,,,55,3,N.T. Wright,,,,,,1637,20,115,"christian,christianity,faith,non-fiction,philosophy,religion,spirituality,theology"
18910001,,Tatterdemon,,B0081UEXPE,,,ES,,,,true,5,15719710,126,137,36,19,2012/5/8,,book,7,19,7,2,1,3.81,,,,5,1,Steve Vernon,,,,,,82,10,1,"adult,demons,horror,novels,paranormal,supernatural,zombies"
18910501,,Les Miserables (Illustrated),,B00CTAB80U,,,ES,,,,true,442,24280,1250602,2515610,605180,13732,1862/1/1,Les Misérables,book,289797,179844,92220,27270,16049,4.16,,,,9,0,Victor Hugo,,,Andriana Limar,Isabel Florence Hapgood,,551134,1505,67690,"adult,adult-fiction,classic-literature,classics,drama,epic,fiction,france,high-school,historical,historical-fiction,history,literary-fiction,literature,movies,novels,plays,romance,school,unfinished,war"
18911001,,"Fixing to Die: Josie Marcus, Mystery Shopper (Josie, Marcus Mystery Shopper)",9781101626856,,,,ES,,,,true,4,17707680,834,1376,349,46,2013/11/1,,book,88,169,77,14,1,3.94,,,,39,1,Elaine Viets,,,,,,359,20,3,"action,adventure,american,contemporary,cozy-mystery,fiction,mystery,thriller"
18911501,,Prayer Altars: A Strategy That Is Changing Nations,9780988428980,,,,ES,,,,true,1,18911501,231,128,27,4,2013/10/15,,,20,7,0,0,0,4.74,,,,27,4,"John Mulinde,Mark Daniel",,,,,,156,0,23,angels
18912001,,Works & Days,9781614303596,,,,ES,,,,true,55,1063563,1086,2075,580,36,-800/1/1,Έργα και ημέραι,book,125,185,189,62,19,3.58,,,,23,1,Hesiod,,,,,,283,9,21,"classics,fantasy,fiction,history,literature,mythology,nature,non-fiction,philosophy,poetry,religion,school,short-stories"
18912501,,Cassandra High Performance Cookbook,,B005GV32OE,,,ES,,,,true,5,12156581,52,55,17,2,2011/7/3,,,1,6,6,4,0,3.24,,,,6,0,Edward Capriolo,,,,,,24,0,1,
18913001,,The Bestseller Job (A Leverage Novel),9781101622247,,,,ES,,,,true,2,15808798,790,1410,366,43,2013/5/7,,book,102,137,99,27,1,3.85,,,,92,4,"Electric Entertainment,Greg Cox",,,,,,333,18,14,"adult,adventure,crime,fiction,literature,mystery"
18913501,,Activating Your Spiritual Senses: A closer look at having a supernatural relationship with God,,B007I5JVZ0,,,ES,,,,true,2,13829535,324,148,36,1,2012/1/19,,,19,8,5,2,2,4.11,,,,22,0,Jerame Nelson,,,,,,210,0,41,christianity
18914001,,The Philadelphia Guide: Inpatient Pediatrics,,B009DKONTC,,,ES,,,eng,true,3,1020984,23,53,14,1,2005/6/1,The Philadelphia Guide: Inpatient Pediatrics,book,3,7,3,0,1,3.79,,,,1,0,"Gary    Frank,Lisa B. Zaoutis,Marina Catallozzi,Samir S. Shah",,,,,,7,0,,
18914501,,INTENSE INSANE IN LOVE,,B00E6ZTGXW,,,ES,,,,true,5,16635444,149,194,59,13,2012/11/15,,book,8,17,25,2,7,3.29,,,,1,0,S.D. Becca,,,,,,67,6,2,"contemporary,fiction"
18915001,,Assassination in Al-Qahirah (Book of Talon),,B006TMQD5E,,,ES,,,,true,7,14525730,159,484,111,6,2012/1/2,,book,54,45,10,2,0,4.36,,,,39,0,James Boschert,,,,,,2,1,7,"fantasy,fiction,historical-fiction"
18915501,,Democracy 2.0: What it will take to have another 200 years of freedom,9780983739012,,,,ES,,,,true,2,13415326,26,43,13,1,2011/11/22,,book,3,3,4,1,2,3.31,,,,5,0,Lance M. King,,,,,,9,0,3,non-fiction
18916001,,Christmas Village Printable Templates | 5 Patterns,,B00FR846GY,,,ES,,,,true,1,18916001,4,1,1,0,2013/10/9,,,0,0,0,0,1,1.00,,,,1,0,Marellyn Lang,,,,,,,0,1,
18916501,,Not What She Seems,9781483974828,,,,ES,,,,true,3,17875148,10,13,4,0,2013/4/15,,book,1,0,2,1,0,3.25,,,,2,0,T.R. Raven,,,,,,5,1,,
18917001,,Cutting Loose: An Adult's Guide to Coming to Terms with Your Parents,,B00317G7GU,,,ES,,,,true,11,2077678,248,341,88,10,1976/1/1,Cutting Loose: An Adult's Guide to Coming to Terms with Your Parents,book,28,30,23,5,2,3.88,,,,13,1,Howard M. Halpern,,,,,,129,5,18,"abuse,mental-health,non-fiction,psychology,relationships,self-help"
18917501,,"How to Get Out of Debt, Stay Out of Debt, and Live Prosperously*: Based on the Proven Principles and Techniques of Debtors Anonymous",,B005U3ZVLK,,,ES,,,,true,11,1293199,1226,1541,378,49,1988/1/1,"How to Get Out of Debt, Stay Out of Debt, and Live Prosperously",book,158,125,71,14,10,4.08,,,,47,4,Jerrold Mundis,,,,,,622,14,122,"business,economics,inspirational,non-fiction,personal-development,self-help"
18918001,,The Paradise: A Novel,9781101635902,,,,ES,,,eng,true,387,28413,20451,38814,9736,699,1883/1/1,Au Bonheur des Dames,book,3313,3709,2115,469,130,3.99,,,TV Tie-In,1,1,Émile Zola,,,,Ernest Alfred Vizetelly,,7673,63,865,"adult,adult-fiction,classic-literature,classics,college,drama,fiction,france,historical,historical-fiction,history,literary-fiction,literature,novels,romance,school,unfinished"
18918501,,Wreck of the Golden Mary,,B0082STYYU,,,ES,,,eng,true,87,10938404,556,656,186,26,1856/1/1,Wreck of the Golden Mary,book,33,58,71,22,2,3.53,,,,12,1,Charles Dickens,,,,,,285,17,8,"action,adult,adventure,anthologies,british-literature,christmas,classic-literature,classics,drama,english-literature,fiction,historical-fiction,literature,plays,romance,short-stories,survival,tragedy,victorian"
18919001,,How To Lower Blood Pressure Naturally - Stop The Silent Killer!,,B00C0BE6TS,,,ES,,,,true,1,18919001,11,14,5,0,2013/3/23,,,1,0,1,3,0,2.80,,,,5,0,HelpMePublishing.com,,,,,,5,0,,"non-fiction,reference"
18919501,,Quest For the Kingdom Part V Rise of the Time of Evil,,B00CNGUK0Y,,,ES,,,,true,2,18919501,9,6,2,0,2013/5/1,,,0,0,2,0,0,3.00,,,,2,0,L.M. Roth,,,,,,7,0,,
18920001,,The Story of George,,B00DR3N3B0,,,ES,,,,true,1,18920001,1,5,1,0,2013/5/15,,,1,0,0,0,0,5.00,,,,1,0,Cathie Halpin,,,,,,,0,,
18920501,,Positive Poker: A Modern Psychological Approach to Mastering Your Mental Game,9781909457089,,,,ES,,,,true,2,17572195,51,63,17,1,2013/10/15,,,2,9,5,1,0,3.71,,,,3,0,"Jonathan Little,Patricia Cardner",,,,,,22,2,5,"non-fiction,psychology,self-help"
18921001,,The Fourth Gospel: Tales of a Jewish Mystic,,B009UWMVFQ,,,ES,,,,true,8,16248047,686,1353,328,57,2013/6/3,,book,134,125,51,12,6,4.12,,,,80,1,John Shelby Spong,,,,,,251,7,58,"amazon,christian,christianity,faith,history,non-fiction,philosophy,politics,religion,self-help,spirituality,theology"
18921501,,Under Gemini,,B00BIV55CS,,,ES,,,,true,37,116052,3553,8371,2218,115,1974/1/1,Under Gemini,book,541,812,711,131,23,3.77,,,,243,5,Rosamunde Pilcher,,,,,,508,15,68,"adult,adult-fiction,british-literature,chick-lit,contemporary,english-literature,fiction,literary-fiction,literature,mystery,novels,romance"
18922001,,The Bringer,,B00EFFGJ38,,,ES,,Samantha Towle Writes Ltd,eng,true,7,11314891,2792,4031,1088,101,2011/5/1,The Bringer,book,273,368,327,93,27,3.70,248,,2nd edition,48,3,Samantha Towle,,,,,,265,28,17,"adult,angels,fantasy,fiction,mystery,paranormal,romance,supernatural,urban-fantasy,young-adult"
18922501,,Annabelle The Possessed Raggedy Ann Doll (Conversations with Ed and Lorraine Warren),,B00E8I1R8Y,,,ES,,,eng,true,1,18922501,842,755,206,18,2013/7/29,,book,62,65,42,22,15,3.67,,,,206,18,"Ed Warren,Lorraine Warren",,,,,,592,4,8,"ghosts,horror,memoir,non-fiction,paranormal,short-stories,supernatural,thriller"
18923001,,"The Complete Idiot's Guide to MBA Basics, 3rd Edition",,B00AR1AL5G,,,ES,,,,true,10,141853,253,207,58,2,1998/6/1,The Complete Idiot's Guide to MBA Basics,book,14,17,16,10,1,3.57,,,,1,0,Tom Gorman,,,,,,135,4,17,"business,non-fiction,reference,self-help"
18923501,,"Dolce HandKnits: Simple, Sophisticated Designs",,B00GAIUKWE,,,ES,,,,true,3,10374761,39,59,17,2,2010/11/15,,,3,6,5,2,1,3.47,,,,5,0,Kim Dolce,,,,,,8,0,2,"art,non-fiction"
18924001,,Kill The Clutter: Declutter Your Home and Organize Your Life,,B008AWLLEO,,,ES,,,,true,3,18924001,134,117,38,3,2012/5/17,,book,6,8,10,11,3,3.08,,,,17,0,Heather   Lane,,,,,,34,7,9,self-help
18924501,,HEAT,,B0095IFWPQ,,,ES,,,,true,1,18924501,4,2,1,0,2012/9/2,,,0,0,0,1,0,2.00,,,,1,0,Vallen Green,,,,,,2,0,,
18925001,,I Married You Not Your Family: And Nine Other Relationship Myths That Will Ruin Your Marriage,,B001QFZNUA,,,ES,,,,true,7,3463627,76,47,15,2,2008/1/1,"I Married You, Not Your Family!",,3,4,3,2,3,3.13,,,,0,0,Linda Mintle,,,,,,50,0,2,"marriage,non-fiction"
18925501,,Hostages,,B00BRTO1US,,,ES,,,,true,1,18925501,3,5,2,0,2013/3/9,,,0,0,1,1,0,2.50,,,,2,0,"D. C. Chester,Danny Essex",,,,,,1,0,,
18926001,,The Birth of Tragedy,,B00EB9UZ9M,,,ES,,Oxford University Press,eng,true,258,2823,31799,44659,11223,384,1871/1/1,Die Geburt der Tragödie,book,3909,4090,2463,604,157,3.98,,,Oxford World's Classics,11,0,Friedrich Nietzsche,,,,Douglas Smith,,17053,41,758,"academic,art,classic-literature,classics,college,criticism,drama,essays,history,literature,music,mythology,non-fiction,philosophy,poetry,psychology,religion,school,theatre,tragedy,unfinished"
18926501,,30-Minute Vegetarian,9780007458288,,,,ES,,,,true,3,15923463,50,98,27,5,2012/7/1,,book,5,10,10,1,1,3.63,,,,3,0,Rose Elliot,,,,,,13,4,1,"cookbooks,cooking"
18927001,,Illusion financière (SOCIAL ECO H C) (French Edition),,B00D4MDNVE,,,ES,,,fre,true,1,18927001,16,20,5,3,2013/4/17,,book,1,3,1,0,0,4.00,,,,5,3,Gaël Giraud,,,,,,11,0,,
18927501,,101 consejos y estrategias de video marketing para tu empresa (Spanish Edition),,B00DFOE1NU,,,ES,,,,true,3,18948171,32,74,20,1,2013/1/23,,,3,10,5,2,0,3.70,,,,4,0,Lasse Rouhiainen,,,,,,7,0,3,
18928001,,101 versaute Witze. Schweinischer Humor (German Edition),,B005VDVOEC,,,ES,,,,true,1,18928001,1,0,0,0,2011/10/12,,,0,0,0,0,0,0.00,,,,0,0,,,,Max Mindbender,,,1,0,,
18928501,,SpongeBob AirPants: The Lost Episode (SpongeBob SquarePants),,B00D3M13OY,,,ES,,,eng,true,8,1304485,587,995,237,15,2003/9/1,SpongeBob AirPants: The Lost Episode (SpongeBob SquarePants),book,142,35,37,11,12,4.20,,,,5,0,Kitty Richards,,,,,,176,3,73,"childrens,fiction,humor,science-fiction"
18929001,,"Holiness: Its Nature, Hindrances, Difficulties, and Roots",,B00AZUESQW,,,ES,,,,true,85,362602,8680,19498,4478,168,1877/1/1,"Holiness: Its Nature, Hindrances, Difficulties, and Roots",book,2663,1073,494,161,87,4.35,,,,3,0,J.C. Ryle,,,,,,3408,25,593,"christian,christianity,classics,faith,non-fiction,reference,religion,spirituality,theology"
18929501,,BeWerben statt StErben (German Edition),,B00G1S5IJS,,,ES,,,,true,1,18929501,1,4,1,0,2013/10/8,,,0,1,0,0,0,4.00,,,,1,0,Tobias König,,,,,,,0,,
18930001,,Nanako (Japanese Edition),,B009IXHIK0,,,ES,,,,true,1,18930001,2,5,1,0,2012/9/27,,,1,0,0,0,0,5.00,,,,1,0,Sachio Itō,,,,,,1,0,,
18930501,,"No Occupation For A Lady (The Gryphon, #1)",,B008RW75BA,,,ES,,,eng,true,11,15982338,142,200,63,10,2012/1/1,"No Occupation For A Lady (The Gryphon, #1)",book,5,14,31,13,0,3.17,,,,2,0,Gail Whitiker,,,,,,45,4,5,"harlequin,historical,regency,romance"
18931001,,An Introduction to Property Theory (Cambridge Introductions to Philosophy and Law),9781139372275,,,,ES,,,,true,6,13724703,39,41,11,2,2012/3/22,,,2,4,5,0,0,3.73,,,,0,0,Gregory S. Alexander,,,,,,20,0,5,economics
18931501,,Unabashedly Episcopalian: Proclaiming the Good News of the Episcopal Church,,B00A1SPDBM,,,ES,,,,true,5,13795933,253,520,131,17,2012/9/1,,,41,51,33,6,0,3.97,,,,34,1,Andrew    Doyle,,,,,,38,8,3,"adult,christian,christianity,non-fiction,religion,spirituality,theology"
18932001,,Spe salvi: Sauvés dans l'espérance (Magistère) (French Edition),9782368780558,,,,ES,,,,true,22,2457245,1400,3222,703,37,2007/1/1,Spe Salvi,book,485,152,57,9,0,4.58,,,,0,0,Benedict XVI,,,,,,483,25,27,"academic,christian,christianity,faith,grad-school,non-fiction,philosophy,religion,spirituality,theology,unfinished"
18932501,,Sorting Things Out: Classification and Its Consequences (Inside Technology),9780262261609,,,,ES,,,,true,4,169699,1596,1118,283,29,1999/1/1,Sorting Things Out. Classification and Its Consequences,book,93,110,57,19,4,3.95,,,,13,0,Geoffrey C. Bowker,,,,,,1111,17,43,"academic,anthropology,history,language,non-fiction,philosophy,psychology,research,school,science,sociology,technology"
18933001,,Arrowsmith,,B00BSY739S,,,ES,,,,true,26,11389,13783,23956,6283,358,1925/1/1,Arrowsmith,book,1716,2389,1607,428,143,3.81,,,,9,0,Sinclair Lewis,,,,,,6397,34,191,"adult,american,americana,classic-literature,classics,college,fiction,historical-fiction,literary-fiction,literature,medical,novels,school,science"
18933501,,Moses the Egyptian: The Memory of Egypt in Western Monotheism,,B00B22HRTW,,,ES,,,eng,true,11,355644,333,385,93,12,1997/1/1,Moses der Ägypter: Entzifferung einer Gedächtnisspur,book,45,24,17,6,1,4.14,,,,2,1,Jan Assmann,,,,,,197,7,7,"history,non-fiction,religion,research,sociology"
18934001,,In the Line of Fire: A Memoir,,B000OV1BVM,,,ES,,,,true,15,141550,2818,4374,1364,110,2006/1/1,In the Line of Fire: A Memoir,book,241,295,449,263,116,3.21,,,,9,0,Pervez Musharraf,,,,,,999,8,118,"autobiography,biography,history,leadership,memoir,modern,non-fiction,politics,unfinished"
18934501,,Yoga für Einsteiger (German Edition),9783833830549,,,,ES,,,,true,1,18934501,1,2,1,0,2012/9/24,,,0,0,0,1,0,2.00,,,,1,0,"Harry Waesse,Martin Kyrein",,,,,,,0,,
18935001,,An Enticing Debt to Pay,,B00CFX3C46,,,ES,,,eng,true,20,17738225,376,596,172,33,2013/1/1,An Enticing Debt to Pay,book,33,50,62,18,9,3.47,,,,11,0,Annie West,,,,,,122,7,12,"abuse,contemporary,fiction,harlequin,romance"
18935501,,Language and the Ancient Greeks and On the Decipherment of Linear B (A Pair of Essays,,B003MNGEOI,,,ES,2010/5/15,,en-GB,true,1,18935501,19,24,6,0,2010/5/15,,book,3,1,1,1,0,4.00,23,Kindle Edition,,6,0,Richard E. McDorman,,,,,,9,0,1,history
18936001,,Origins (The Infusion Series),9780984700530,,,,ES,,,,true,3,17179331,659,301,81,17,2012/11/27,Origins,book,22,29,18,9,3,3.72,,,,34,3,Steven Tandberg,,,,,,543,12,7,"amazon,dystopia,fiction,horror,mystery,science-fiction,science-fiction-fantasy,young-adult"
18936501,,Million Dollar Mates: Golden Girl,,B0075AGU6Q,,,ES,,,,true,5,12166100,559,930,233,14,2012/3/1,,book,82,82,57,9,3,3.99,,,,11,0,Cathy Hopkins,,,,,,239,5,16,"chick-lit,contemporary,teen,young-adult"
18937001,0160921422,"Code of Federal Regulations, Title 49, Transportation, Pt. 300-399, Revised as of October 1, 2013",9780160921421,,,,ES,2014/3/4,Office of the Federal Register,,false,1,18937001,0,0,0,0,2014/4/30,,,0,0,0,0,0,0.00,649,Paperback,,0,0,,,,,,,,0,,
18937501,1628734507,CIA Rogues and the Killing of the Kennedys: How and Why Us Agents Conspired to Assassinate JFK and Rfk,9781628734508,,,,ES,2013/11/1,Skyhorse Publishing,,true,4,17593279,154,219,57,10,2013/11/1,CIA Rogues and the Killing of the Kennedys: How and Why Us Agents Conspired to Assassinate JFK and RFK,book,17,22,14,0,4,3.84,361,ebook,,16,0,Patrick Nolan,,,,,,67,0,22,"american,biography,crime,essays,history,non-fiction,politics,science,sociology"
18938001,,Leadership Mastery: How to Challenge Yourself and Others to Greatness (Dale Carnegie Training),,B002UL33BU,,,ES,,,,true,10,7123302,402,338,91,7,2009/1/1,,book,24,33,23,6,5,3.71,,,,5,0,Dale Carnegie,,,,,,222,1,34,"business,leadership,non-fiction,personal-development,philosophy,self-help"
18938501,1480468517,Regiment of Women: A Novel,9781480468511,,,,ES,2013/11/26,Dzanc Books,,true,12,296711,209,379,108,15,1973/1/1,Regiment of Women: A Novel,book,21,32,42,7,6,3.51,349,ebook,,0,0,Thomas Berger,,,,,,59,1,8,"fantasy,fiction,humor,novels,science-fiction,speculative-fiction"
18939001,,Batman (1940-2011) #4,,B00CFW50OM,,,ES,,,,true,1,18939001,54,120,30,3,,,,12,10,5,2,1,4.00,,,,30,3,"Bill Finger,Clem Gordon,Henry Boltinoff","Bob Kane,Lou Paige,Raymond Perry",,,,,14,2,1,"adventure,comics"
18939501,,Inside the Criminal Mind: Revised and Updated Edition,,B006NKMM5C,,,ES,,,,true,9,587876,5283,4584,1177,113,1984/1/1,Inside the Criminal Mind,book,413,406,233,71,54,3.89,,,,21,0,Stanton E. Samenow,,,,,,3551,16,253,"adult,crime,medical,non-fiction,psychology,school,science,social-issues,sociology,true-crime"
18940001,,Fingered: Letting My Landlord Fist Me,,B007QO45CW,,,ES,,,,true,2,18940001,7,9,2,0,2012/3/31,,,1,1,0,0,0,4.50,,,,2,0,Mary Chi,,,,,,4,0,,
18940501,,The Ultimate Fitness Boxing & Kickboxing Workout,9781412238182,,,,ES,,,,true,3,2698514,7,7,2,0,2005/9/27,,,0,1,1,0,0,3.50,,,,1,0,Ross O'Donnell,,,,,,4,0,,
18941001,,Lady in Waiting: Becoming God's Best While Waiting for Mr. Right,9780768488609,,,,ES,,,,true,11,69948,9820,20346,5020,179,1995/12/1,Lady in Waiting: Becoming God's Best While Waiting for Mr. Right,book,2275,1379,885,319,162,4.05,,,,36,0,Jackie Kendall,,,,,,4161,15,292,"christian,christianity,faith,family,inspirational,love,marriage,non-fiction,relationships,religion,self-help,spirituality,theology,young-adult"
18941501,,Playing with Shadows,,B00C54UVCQ,,,ES,,,,true,2,13700778,803,1367,397,58,2012/6/28,,book,67,115,155,47,13,3.44,,,,62,4,Sasha L. Miller,,,,,,290,31,16,"dark,demons,fantasy,gay,horror,lgbt,magic,novella,paranormal,romance,short-stories,young-adult"
18942001,,Man of the House,,B00EPQWC5G,,,ES,,,,true,1,18942001,37,75,24,0,2013/8/21,,,5,4,7,5,3,3.12,,,,24,0,Rachel Burns,,,,,,6,0,1,"abuse,romance"
18942501,,Quick and Easy Lunch Recipes For One,,B0092U31SC,,,ES,,,,true,1,18942501,13,3,1,0,2012/8/26,,,0,0,1,0,0,3.00,,,,1,0,Danielle Garner,,,,,,7,0,1,"amazon,cookbooks"
18943001,,Romeo and Juliet,,B00BRUQ8XA,,,ES,,,,true,3007,18135,2440273,6919410,1849819,17039,1595/1/1,An Excellent conceited Tragedie of Romeo and Iuliet,book,546584,573919,496818,167862,64636,3.74,,,,0,0,William Shakespeare,,,,,,348613,4876,58448,"adult,adult-fiction,british-literature,classic-literature,classics,drama,english-literature,fiction,high-school,historical,historical-fiction,history,literary-fiction,literature,love,movies,novels,plays,poetry,romance,school,theatre,tragedy,young-adult"
18943501,,The Swamp Fox - Francis Marion's Campaign in the Carolinas 1780 (Raid),,B00F1W080O,,,ES,,,eng,true,6,17412796,43,71,21,2,2013/1/1,,book,2,9,6,3,1,3.38,,,,2,0,David R. Higgins,Johnny Shumate,,,,,13,0,1,"history,non-fiction"
18944001,,"Blutklingen (First Law World, #6)",,B00BJLQ170,,,ES,,,ger,true,44,13521459,46374,124034,28922,1630,2012/10/18,Red Country,book,13318,11412,3544,516,132,4.29,,,,0,0,Joe Abercrombie,,,,Kirsten Borchardt,,13829,124,579,"action,adult,adventure,dark,epic,epic-fantasy,fantasy,fiction,high-fantasy,novels,science-fiction,science-fiction-fantasy,speculative-fiction,unfinished,war"
18944501,,The Gestapo: A History of Hitler's Secret Police 1933-45,9781908696946,,,,ES,,,,true,2,18944501,17,22,6,0,2012/7/16,,,1,3,1,1,0,3.67,,,,6,0,Rupert Butler,,,,,,7,0,2,war
18945001,,Godkiller #1,9781106910691,,,,ES,,,,true,2,18945001,62,86,25,4,2011/1/25,,,2,11,9,2,1,3.44,,,,24,4,"Anna Muckcracker,Matt Pizzolo",,,,,,30,2,,"comics,graphic-novels,graphic-novels-comics"
18945501,,Bluff di parole,,B00EZONTKU,,,ES,,,ita,true,3,1701565,17,8,2,1,1994/1/1,Bluff di parole,book,0,2,0,0,0,4.00,,,,0,0,Gesualdo Bufalino,,,,,,4,0,,
18946001,,Fungal Quintessence,,B0074B0CEW,,,ES,,,,true,1,18946001,4,7,2,0,2013/11/18,,,0,1,1,0,0,3.50,,,,2,0,Chris Renshaw,,,,,,2,0,,
18946501,,Poco o niente: Eravamo poveri torneremo poveri,,B0067BZIXK,,,ES,,,ita,true,3,13078067,47,72,19,3,2011/1/1,,book,4,7,8,0,0,3.79,,,,0,0,Giampaolo Pansa,,,,,,11,0,2,history
18947001,,Health is Wealth: 10 Power Nutrients That Increase Your Odds Of Living To 100,,B003IWZZ52,,,ES,,,en-GB,true,6,8675467,103,123,27,2,2009/4/1,,book,18,6,3,0,0,4.56,,,,9,1,"Andrew Myers,Louis J. Ignarro",,,,,,55,0,18,"health,personal-development"
18947501,,Feet Are Not for Kicking (Best Behavior Series),,B006WQRVJE,,,ES,,,eng,true,7,259500,515,1107,269,22,2004/1/1,Feet Are Not for Kicking,book,120,75,61,11,2,4.12,,,,7,0,Elizabeth Verdick,Marieka Heinlen,,,,,133,12,3,"childrens,parenting,picture-books,school"
18948001,,The Maiden With The Mead: A Goddess Of Initiation Rituals In Old Norse Mythology?,,,,,ES,,,,false,2,12289267,75,67,15,0,2009/1/1,,book,9,4,2,0,0,4.47,,,,1,0,Maria Kvilhaug,,,,,,51,2,3,"medieval,mythology,non-fiction,unfinished"
18948501,,Ghost Wolf (Avalon: Web of Magic #9),,B00CZQN6JY,,,ES,,,,true,9,18948501,1524,3368,781,12,2004/7/1,Ghost Wolf (Avalon: Quest for Magic #3),book,411,235,107,24,4,4.31,,,,278,3,Rachel Roberts,,,,,,532,4,6,"adventure,animals,childrens,fantasy,fiction,magic,middle-grade,novels,teen,urban-fantasy,young-adult"
18949001,8304047063,Józef Piłsudski,,,,,ES,2004/1/1,Ossolineum,pol,false,3,18949001,12,22,7,2,2004/1/1,Józef Piłsudski,book,1,3,1,0,2,3.14,436,Hardcover,,5,2,Włodzimierz Suleja,,,,,,2,0,1,
18949501,,With Lee in Virginia A Story of the American Civil War,,B0082Y1NGQ,,,ES,,,en-GB,true,113,1307000,1342,2902,759,44,1890/1/1,With Lee in Virginia:  A Story of the American Civil War,book,234,241,218,48,18,3.82,,,,77,3,G.A. Henty,,,,,,361,8,41,"action,adventure,american,american-history,biography,childrens,christian-fiction,classics,fiction,historical,historical-fiction,history,literature,novels,school,war,young-adult"
18950001,,Kraken of the Mountains,,B00GWBAFV0,,,ES,2013/11/25,,en-US,true,2,18950001,5,0,0,0,2013/11/24,,book,0,0,0,0,0,0.00,,ebook,,0,0,Billy Wong,,,,,,4,0,,
18950501,,Junk Foods and Junk Moods: Stop Craving and Start Living,9780984798346,,,,ES,,,,true,1,18950501,8,7,2,0,2012/2/1,,,0,1,1,0,0,3.50,,,,2,0,Lindsey Smith,,,,,,3,0,1,
18951001,0198705859,The Laws of Belief: Ranking Theory and Its Philosophical Applications,9780198705857,,,,ES,2014/7/1,"Oxford University Press, USA",,false,5,14829089,20,5,1,0,2012/3/29,,,1,0,0,0,0,5.00,598,Paperback,,0,0,Wolfgang Spohn,,,,,,17,1,2,philosophy
18951501,,Il circolo Matarese,,B007NV9032,,,ES,,,ita,true,11,31231,47878,144812,35806,314,1979/3/14,The Matarese Circle,book,12501,14081,7799,1161,264,4.04,,,,0,0,Robert Ludlum,,,,,,8679,25,420,"action,adult,adult-fiction,adventure,american,crime,fiction,mystery,mystery-thriller,novels,suspense,thriller"
18952001,,Cooking for your Dog (How to Make Healthy Homemade Dog Food Fast and Easy!) (Be a Geek Series),,B006YC8X0C,,,ES,,,,true,1,18952001,3,4,1,0,2012/1/7,,,0,1,0,0,0,4.00,,,,1,0,Susan Victor,,,,,,2,0,,
18952501,,"Only N Only 3 Steps Vegetarian Snacks: Collection of 30 Top Class Healthy, Quick, Easy, Super-Delicious & Most Popular Vegetarian Snack Recipes In Just 3 Or Less Steps",,B00GPV61WO,,,ES,,,,true,1,18952501,1,0,0,0,2013/11/16,,,0,0,0,0,0,0.00,,,,0,0,Charlene W. Howard,,,,,,,0,,amazon
18953001,,The Prairie,,B0084AFL2K,,,ES,,,,true,288,621017,3560,4952,1396,87,1827/1/1,The Prairie: A Tale,book,296,434,462,146,58,3.55,,,,49,2,James Fenimore Cooper,,,,,,1684,11,70,"adventure,american,classics,comics,fiction,historical,historical-fiction,history,literary-fiction,literature,novels"
18953501,,Belajar Sendiri Microsoft PowerPoint 2013 (Microsoft PowerPoint 2013),9786020226606,,,,ES,2013/11/27,Elex Media Komputindo,ind,false,1,18953501,0,0,0,0,2013/11/27,,book,0,0,0,0,0,0.00,320,Paperback,,0,0,Yahya Kurniawan,,,,,,,0,,
18954001,0825307295,"When Men Betray (Jack Patterson, #1)",9780825307294,,,,ES,2014/5/21,Beaufort Books,eng,false,3,18954001,616,424,107,16,2014/4/1,,book,37,37,27,4,2,3.96,330,Hardcover,,72,15,Webb Hubbell,,,,,,487,6,4,"crime,fiction,mystery,thriller"
18954501,,Light Bulb Baking: A History of the Easy-Bake Oven,9780991748419,,,,ES,2013/11/15,Sonderho Press,eng,false,2,18954501,803,84,20,12,2013/11/15,,book,10,5,4,1,0,4.20,,Paperback,,10,5,Todd Coopee,,,,,,780,15,,"anthropology,business,cooking,food,history,non-fiction"
18955001,,"The Book of Genesis, Chapters 1-17",,B003YCQ8VG,,,ES,,,eng,true,3,379192,313,435,104,5,1990/8/1,The Book of Genesis: Chapters 1-17 (The New International Commentary on the Old Testament),book,43,41,18,0,2,4.18,,,,8,0,Victor P. Hamilton,,,,,,111,6,21,"christian,fiction,non-fiction,reference,spirituality,theology"
18955501,,Education under siege,9781447311355,,,,ES,,,,true,1,18955501,9,10,2,0,2013/9/23,,,2,0,0,0,0,5.00,,,,2,0,Peter Mortimore,,,,,,5,0,2,
18956001,1905740565,ECG Made Easy 3E,,,,,ES,,,,false,1,18956001,4,4,1,0,2007/7/15,,,0,1,0,0,0,4.00,,,,1,0,Atul Luthra,,,,,,2,0,1,
18956501,9789200064,Candidates of Bewitchment,9789789200061,,,,ES,2014/6/27,Battle Cry Christian Ministries,,false,1,18956501,3,0,0,0,2012/2/8,,,0,0,0,0,0,0.00,64,Paperback,,0,0,D.K. Olukoya,,,,,,1,0,2,
18957501,,Life of Kit Carson,,B00B3LCCZQ,,,ES,,,,true,26,14449049,11,14,5,1,2002/3/1,,book,1,0,2,1,1,2.80,,,,0,0,Charles Burdett,,,,,,2,0,1,
18958001,1481106767,Abraham Lincoln: His Life and His Work,9781481106764,,,,ES,2012/11/27,Createspace Independent Publishing Platform,,false,1,18958001,0,0,0,0,2012/11/27,,,0,0,0,0,0,0.00,412,Paperback,,0,0,Ward Hill Lamon,,,,,,,0,,
18958501,,The Spy Who Stayed Out in the Cold: The Secret Life of FBI Double Agent Robert Hanssen,,B000FBJCZS,,,ES,,,,true,4,497329,136,234,69,6,2001/1/1,The Spy Who Stayed Out in the Cold: The Secret Life of FBI Double Agent Robert Hanssen,,4,30,26,7,2,3.39,,,,4,0,Adrian Havill,,,,,,46,2,3,"biography,history,non-fiction,politics,true-crime"
18959001,,In the Presence of Absence,,B007MB5HX0,,,ES,,,,true,9,10796910,9158,11569,2669,282,,في حضرة الغياب,book,1452,793,325,63,36,4.33,,,,7,2,Mahmoud Darwish,,,,Sinan Antoon,,594,12,69,"essays,literature,non-fiction,poetry,writing"
18959501,1493103423,Joshua B. Goes on a Cruise: (What's a Cruise?),9781493103423,,,,ES,2013/11/15,Xlibris,,false,2,18959501,0,0,0,0,2013/11/15,,,0,0,0,0,0,0.00,38,Paperback,,0,0,Linda Cobb,,,,,,,0,,
18960001,1493769863,Chancenlos?,9781493769865,,,,ES,2013/11/14,Createspace Independent Publishing Platform,ger,false,2,19081612,1,0,0,0,2013/11/14,Chancenlos?,book,0,0,0,0,0,0.00,250,Paperback,,0,0,Leandra Santini,,,,,,1,0,,
18960501,,昭和流行語グラフィティ: 第二巻～昭和22年～昭和43年 (Japanese Edition),,B00BP5FXZQ,,,ES,,,,true,1,18960501,0,0,0,0,2013/3/6,,,0,0,0,0,0,0.00,,,,0,0,現代言語セミナー,,,,,,,0,,
18961001,162839692X,This Happiness Never Wears Out!,9781628396928,,,,ES,2013/9/26,Xulon Press,,false,1,18961001,1,0,0,0,2013/9/26,,,0,0,0,0,0,0.00,170,Paperback,,0,0,"Bill Johnson,Em Johnson",,,,,,1,0,,
18961501,,"Fit, Fine & Fabulous in Career, Business & Life",9780989293013,,,,ES,,,,true,3,17822722,39,37,9,1,2013/4/24,,,5,1,2,1,0,4.11,,,,6,0,Laureen Wishom,,,,,,26,1,3,
18962001,,切り札　トランプ・フォース (中公文庫),,B00ARC15KK,,,ES,2012/12/21,,jpn,true,1,18962001,0,0,0,0,2010/8/25,切り札　トランプ・フォース,book,0,0,0,0,0,0.00,,,,0,0,"Bin Konno,今野 敏",,,,,,,0,,
18962501,3659983756,Oborudovanie Liteynykh Tsekhov,9783659983757,,,,ES,2013/11/14,Palmarium Academic Publishing,,false,1,18962501,0,0,0,0,2013/11/14,,,0,0,0,0,0,0.00,84,Paperback,,0,0,"Bukanov Zhanat,Kuzembaev Serik,Semyenovich Lev",,,,,,,0,,
18963001,3845491914,Instrumento de Apoyo Visual Para El Diseno de Sistemas de Informacion,9783845491912,,,,ES,2011/9/20,Eae Editorial Academia Espanola,,false,1,18963001,0,0,0,0,2011/9/20,,,0,0,0,0,0,0.00,116,Paperback,,0,0,Cardozo Rivero Daniel,,,,,,,0,,
18963501,,Der Cid (German Edition),,B0057GWFKU,,,ES,,,,true,5,2375504,1,0,0,0,1989/3/1,Der Cid unter Ferdinand dem Großen.,,0,0,0,0,0,0.00,,,,0,0,Johann Gottfried Herder,,,,,,,0,1,
18964001,9460918875,"Indigenous Education: A Learning Journey for Teachers, Schools and Communities",9789460918872,,,,ES,2012/1/1,Brill - Sense,,false,3,18964001,0,0,0,0,2012/1/1,,,0,0,0,0,0,0.00,176,Hardcover,,0,0,,,Nina Burridge,"Frances Whalan,Karen H. Vaughan",,,,0,-1,
18964501,,Özgürlük Nedir ve Nasıl Özgür Olunur?,9786056373251,,,,ES,2013/1/1,Gala,tur,false,1,18964501,10,24,5,1,2013/1/1,Özgürlük Nedir ve Nasıl Özgür Olunur?,book,4,1,0,0,0,4.80,268,Paperback,,5,1,Akif Manaf,,,,,,2,0,,
18965001,,"Look Up, Gold Coast! 3 Walking Tours of Towns on the Coast of South Florida (Look Up, America!)",,B00AR2OX4U,,,ES,,,,true,1,18965001,0,0,0,0,2012/12/19,,,0,0,0,0,0,0.00,,,,0,0,Doug Gelbert,,,,,,,0,,
18965501,,The Great Discovery,,B004TPR91A,,,ES,,,,true,5,18965501,51,48,13,0,2011/3/24,,,2,6,4,1,0,3.69,,,,13,0,Norman Maclean,,,,,,30,0,5,fiction
18966001,0345507258,The Light at the End of the Diaper Pail,9780345507259,,,,ES,2008/4/29,Villard Books,,true,4,8692671,3,10,3,0,2008/4/29,,,0,1,2,0,0,3.33,,ebook,,0,0,Geralyn Broder Murray,,,,,,,0,,
18966501,,Der Letzte Ausweg (German Edition),,B00EVMBBII,,,ES,,,ger,true,1,18966501,3,2,1,0,2013/8/27,,book,0,0,0,1,0,2.00,,,,1,0,Christopher Caine,,,,,,1,0,,
18967001,,Milioni di farfalle,,B00BNMKBNU,,,ES,,Mondadori,ita,true,73,15851746,94607,175462,47518,4920,2012/10/23,Proof of Heaven: A Neurosurgeon's Journey Into the Afterlife,book,13322,14987,12618,4459,2132,3.69,,,,2,0,Eben Alexander,,,,Maria Carla Dallavalle,,39197,93,2822,"adult,autobiography,biography,biography-memoir,christian,christianity,death,faith,fiction,health,inspirational,medical,memoir,non-fiction,paranormal,philosophy,psychology,religion,science,self-help,spirituality,theology,unfinished"
18967501,,Level 4.2: Zurück in der Stadt der Kinder (German Edition),9783423408684,,,,ES,,,,true,6,4530729,73,137,39,1,2006/1/1,Level 4.2: Zurück in der Stadt der Kinder,,6,13,15,5,0,3.51,,,,4,0,Andreas Schlüter,,,,,,4,1,,
18968001,0737748214,Downloading Music,9780737748215,,,,ES,2009/6/26,Greenhaven Press,eng,true,2,5599711,8,7,2,0,2007/11/2,Downloading Music (Issues That Concern You),book,1,0,0,1,0,3.50,111,ebook,,0,0,,,,Linda Aksomitis,,,4,0,,
18968501,,Germany and the Germans,9780594099789,,,,ES,,,,true,29,14464556,6,7,3,0,,,book,0,0,1,2,0,2.33,,,,1,0,Price Collier,,,,,,2,0,1,
18969001,,Ten Steps to a Closer Walk With God,,B004UGN1A6,,,ES,,,,true,3,18969001,1,0,0,0,2011/3/14,,,0,0,0,0,0,0.00,,,,0,0,David Showers,,,,,,1,0,,
18970001,0805749039,Calderón de la Barca,9780805749038,,,,ES,2010/6/28,Twayne Publishers,,true,1,18970001,0,0,0,0,2010/6/28,,book,0,0,0,0,0,0.00,192,ebook,,0,0,,,,Everett W. Hesse,,,,0,,
18970501,,Derrière la haine,,B007VLGCXU,,,ES,,,fre,true,4,15758296,524,1073,274,41,2012/4/12,,book,86,116,43,21,8,3.92,,,,6,1,Barbara Abel,,,,,,168,6,4,"adult,contemporary,crime,fiction,school,suspense,thriller"
18971001,,Dying with Confidence: A Tibetan Buddhist Guide to Preparing for Death,,B004HW6GX2,,,ES,,,,true,6,9334684,140,205,50,8,2010/5/10,,book,22,15,9,4,0,4.10,,,,7,0,Anyen Rinpoche,,,,,,17,5,6,"death,non-fiction,philosophy,religion"
18971501,1107691532,Cambridge Checkpoints Vce Outdoor and Environmental Studies 2012-17,9781107691537,,,,ES,2011/4/1,Cambridge University Press,,false,1,18971501,0,0,0,0,2011/12/20,,,0,0,0,0,0,0.00,,Paperback,,0,0,Sue Parry,,,,,,,0,,
18972001,,Seasons Of Singleness,,B00GJQO1LI,,,ES,,,,true,3,18972001,1,0,0,0,2013/4/30,,,0,0,0,0,0,0.00,,,,0,0,Nathalie Ford,,,,,,1,0,,
18972501,1118807383,Cabling: The Complete Guide to Copper and Fiber-Optic Networking,9781118807385,,,,ES,2014/3/5,Sybex,,true,9,6534239,26,22,6,1,2009/1/1,Cabling: The Complete Guide to Copper and Fiber-Optic Networking,,2,1,2,1,0,3.67,1328,ebook,,0,0,"Andrew Oliviero,Bill Woodward",,,,,,8,1,9,"non-fiction,reference,school"
18973001,1134049161,Dryland Management: Economic Case Studies,9781134049165,,,,ES,2013/11/5,Routledge,,true,7,18972999,0,0,0,0,1990/1/1,,,0,0,0,0,0,0.00,292,ebook,,0,0,"David E. James,John Dixon,Paul B. Sherman",,,,,,,0,,
18973501,,The Biblical Counseling Movement after Adams (Foreword by David Powlison),,B00657QT2K,,,ES,,,,true,6,12836553,293,501,123,18,2011/11/2,,,43,54,21,2,3,4.07,,,,25,1,Heath Lambert,,,,,,118,7,18,"biography,christian,christianity,historical,history,mental-illness,non-fiction,theology"
18974001,,"Baltimore Catechism, No. 2",,B004UK0RVS,,,ES,,,eng,true,21,8179368,434,884,198,12,1941/1/1,,book,137,25,29,5,2,4.46,,,,22,0,Plenary Councils of Baltimore,,,,,,31,5,35,"christian,christianity,classics,faith,history,modern,reference,religion,theology"
18974501,1134920016,"The Concept of Development: The Minnesota Symposia on Child Psychology, Volume 15",9781134920013,,,,ES,2013/5/13,Psychology Press,,true,6,4417454,1,0,0,0,1982/3/1,"The Concept of Development: The Minnesota Symposia on Child Psychology, Volume 15",book,0,0,0,0,0,0.00,238,ebook,,0,0,,,,W. Andrew Collins,,,,0,,
18975001,,Medicine for the Earth: How to Transform Personal and Environmental Toxins,,B003FCVF6S,,,ES,,,,true,4,900303,361,525,121,8,2001/1/16,Medicine for the Earth: How to Transform Personal and Environmental Toxins,book,66,38,11,4,2,4.34,,,,6,0,Sandra Ingerman,,,,,,189,4,22,"philosophy,self-help,spirituality"
18975501,1135144451,Children's Places: Cross-Cultural Perspectives,9781135144456,,,,ES,2013/4/15,Routledge,,true,4,17576774,0,0,0,0,2013/3/7,,,0,0,0,0,0,0.00,264,ebook,,0,0,,,,"Eva Gullov,Karen Fog Olwig",,,,0,,
18976001,1135664420,A Modern English Grammar on Historical Principles: Volume 4. Syntax (Third Volume),9781135664428,,,,ES,2013/5/24,Routledge,,true,7,19880330,4,0,0,0,2006/12/26,,book,0,0,0,0,0,0.00,448,ebook,,0,0,Otto Jespersen,,,,,,2,0,,
18976501,1135874727,The American Jury on Trial: Psychological Perspectives,9781135874728,,,,ES,2013/10/8,Taylor & Francis,,true,7,3178923,3,4,1,0,1988/3/1,The American Jury On Trial: Psychological Perspectives,book,0,1,0,0,0,4.00,246,ebook,,0,0,"Lawrence S. Wrightsman,Saul M. Kassin",,,,,,,0,,
18977001,1136167676,World Yearbook of Education 1982/3: Computers and Education,9781136167676,,,,ES,2013/10/28,Routledge,,true,7,13711079,0,0,0,0,2012/5/6,,,0,0,0,0,0,0.00,280,ebook,,0,0,,,,"David R.F. Walker,Eric Hoyle,Jacquetta Megarry,Stanley Nisbet",,,,0,,
18977501,,Zorn: Thriller (Opcop-Gruppe),,B00ADL51IW,,,ES,,,ger,true,20,15769081,567,1328,345,25,2012/1/1,Hela havet stormar,book,86,151,87,12,9,3.85,,,,6,1,Arne Dahl,,,,Antje Rieck-Blankenburg,,87,8,6,"crime,fiction,politics,suspense,thriller"
18978001,,"Slow Food Nation: Why Our Food Should Be Good, Clean, and Fair",,B00BVJFNFQ,,,ES,,,,true,14,202661,4297,3239,881,72,2005/1/1,"Buono, pulito e giusto: Principî di nuova gastronomia",book,236,279,239,99,28,3.68,,,,9,0,Carlo Petrini,,,,"Clara Furlan,Jonathan Hunt",,3191,12,65,"business,cookbooks,cooking,food,health,nature,non-fiction,philosophy,school,science"
18978501,1136622772,Pupils with Learning Difficulties in Mainstream Schools,9781136622779,,,,ES,2013/10/28,David Fulton Publishers,,true,4,8244266,2,6,2,1,2000/4/20,,,0,0,2,0,0,3.00,96,ebook,,0,0,Christina Tilstone,,,,,,,0,,education
18979001,1136805761,Women in the Footsteps of the Buddha: Struggle for Liberation in the Therigatha,9781136805769,,,,ES,2013/11/19,Routledge,,true,8,11200695,26,13,3,2,1998/1/27,,,1,2,0,0,0,4.33,260,ebook,,0,0,Kathryn R. Blackstone,,,,,,20,0,,"essays,philosophy"
18979501,1317950224,The Routledge Intermediate Brazilian Portuguese Reader,9781317950226,,,,ES,2013/11/20,Routledge,,true,5,13716251,3,5,1,0,2013/1/11,,,1,0,0,0,0,5.00,144,ebook,,0,0,John Whitlam,,,,,,2,0,,
18980001,1414410433,Information Plus Spring 2006 8v,9781414410432,,,,ES,2006/7/14,Gale Cengage,,true,1,18980001,0,0,0,0,2006/7/14,,,0,0,0,0,0,0.00,,ebook,,0,0,,,,Information Plus,,,,0,,
18980501,1414438400,"Something about the Author, Volume 188",9781414438405,,,,ES,2008/8/15,Gale Cengage,,false,2,17216362,0,0,0,0,,,book,0,0,0,0,0,0.00,209,Unknown Binding,,0,0,,,,Lisa Kumar,,,,0,,
18981001,1414473877,"Poetry for Students, Volume 36",9781414473871,,,,ES,2010/11/3,Gale Cengage,,true,2,17217494,0,0,0,0,,,book,0,0,0,0,0,0.00,426,ebook,,0,0,,,,Sara Constantakis,,,,0,,
18981501,1420502840,Video Games,9781420502848,,,,ES,2009/11/20,Lucent Books,,true,2,18981501,1,0,0,0,2009/10/1,,book,0,0,0,0,0,0.00,112,ebook,,0,0,,,,Hal Marcovitz,,,1,0,,
18982001,1440313075,Simply Built Cabinets,9781440313073,,,,ES,2011/6/22,Popular Woodworking Books,,true,2,16988399,1,0,0,0,2011/6/22,,,0,0,0,0,0,0.00,176,ebook,,0,0,Danny Proulx,,,,,,,0,,
18982501,1443853003,Strengthening Intangible Infrastructures,9781443853002,,,,ES,2013/12/15,Cambridge Scholars Publishing,,false,2,18982501,0,0,0,0,2013/12/1,,,0,0,0,0,0,0.00,323,Hardcover,,0,0,,,,"Andreas Koch,Clemens Sedmak,Elisabeth Kapferer",,,,0,,
18983001,,Drago #5 (#2b),9780615711140,,,,ES,,,,true,3,18983001,6,18,5,0,2012/10/10,,,1,1,3,0,0,3.60,,,,4,0,Art Spinella,,,,,,1,0,,
18983501,145588863X,CliffsNotes on Stockett's The Help,9781455888634,,,,ES,2012/4/30,Brilliance Audio,,false,4,14595334,79,46,11,0,2012/4/30,,book,7,2,0,1,1,4.18,,Audio,,1,0,Nick Podehl,,,,,,59,0,,history
18984001,1467666424,Inviting Restful Sleep: Guided Meditations to Help You Sleep,9781467666428,,,,ES,2014/2/2,Images of Wellness,,false,1,18984001,0,0,0,0,2014/2/2,,,0,0,0,0,0,0.00,,Audio,,0,0,Jane Pernotto Ehrman,,,,,,,0,,
18984501,1477762361,Theseus and the Minotaur,9781477762363,,,,ES,2014/1/1,PowerKids Press,,false,4,18984501,4,14,4,0,2013/1/1,,,0,2,2,0,0,3.50,24,Hardcover,,3,0,Johanna Ehrmann,,,,,,,0,,
18985001,1481069624,Feel and Grow Rich: The Four Elements of Success,9781481069625,,,,ES,2012/11/22,Createspace Independent Publishing Platform,,false,3,21202273,5,10,2,0,2012/11/21,,,2,0,0,0,0,5.00,44,Paperback,,0,0,Daniel Marques,,,,,,2,0,,
18985501,1484960505,Zwielicht Classic 2,9781484960509,,,,ES,2013/8/5,Createspace Independent Publishing Platform,,false,2,18985501,1,0,0,0,2013/2/10,,book,0,0,0,0,0,0.00,180,Paperback,,0,0,"Joerg Herbig,Lothar Nietsch,Michael      Schmidt",,,,,,,0,,
18986001,1491715243,Les Fondements Ethiques de La Bioethique,9781491715246,,,,ES,2013/11/19,iUniverse,,true,2,18958839,0,0,0,0,2013/11/19,,,0,0,0,0,0,0.00,,ebook,,0,0,Basile Ekanga,,,,,,,0,,
18986501,1493657801,Tripping Through Oregon - A Travel Guide with Photos,9781493657803,,,,ES,2013/11/2,Createspace,,false,2,18986501,0,0,0,0,,,,0,0,0,0,0,0.00,76,Paperback,,0,0,Rolf McEwen,,,,,,,0,,
18987001,,Wolves! Learn About Wolves And Learn To Read - The Learning Club! (45+ Photos of Wolves),,B0084ZW600,,,ES,,,,true,1,18987001,16,35,11,1,2012/5/20,,,3,0,5,2,1,3.18,,,,11,1,Leah Ledos,,,,,,1,0,,
18987501,1569958041,Information Plus Crime Prisons & Jails 11/13,9781569958049,,,,ES,2013/10/11,Information Plus,,true,1,18987501,0,0,0,0,2013/10/11,,,0,0,0,0,0,0.00,,ebook,,0,0,,,,Information Plus,,,,0,,
18988001,1594857180,Avalanche Essentials: A Step-By-Step System for Safety and Survival,9781594857188,,,,ES,2013/11/12,Mountaineers Books,,true,5,17386900,120,259,59,7,2013/11/1,,book,31,21,6,1,0,4.39,189,ebook,,1,0,Bruce Tremper,,,,,,27,2,20,
18988501,,Nihon seishin (Japanese Edition),,B009M8O8FY,,,ES,,,,true,1,18988501,0,0,0,0,2012/10/4,,,0,0,0,0,0,0.00,,,,0,0,Ango Sakaguchi,,,,,,,0,,
18989001,1616503238,Beneath the Skin,9781616503239,,,,ES,2011/10/3,Lyrical Press,,true,5,12785024,183,236,61,16,2011/1/1,,book,23,18,12,5,3,3.87,217,ebook,,0,0,Amy Lee Burgess,,,,,,108,7,2,"adult,adult-fiction,contemporary,fantasy,paranormal,romance,shapeshifters,supernatural,urban-fantasy,werewolves"
18989501,1629480657,Dexterity in Global Business,9781629480657,,,,ES,2014/3/7,Nova Science Publishers,,false,1,18989501,0,0,0,0,2013/12/1,,,0,0,0,0,0,0.00,208,Hardcover,,0,0,,,Rajagopal,,,,,0,,
18990001,,Breeding by the Wizard in the Tower,,B009LXGJ98,,,ES,,,,true,1,18990001,7,7,2,1,2012/10/4,,,1,0,0,1,0,3.50,,,,2,1,Fiona Thompson,,,,,,4,0,,
18990501,1906534977,"The Man They Couldn't Hang: A Tale of Murder, Mystery and Celebrity",9781906534974,,,,ES,2010/9/15,Waterside Press,,true,3,14554169,2,3,1,0,2010/9/1,,book,0,0,1,0,0,3.00,,ebook,,0,0,Michael Crowley,,,,,,1,0,,
18991001,193498941X,"What Are You Seeking? (Collected Works, Vol 8, 1953-55)",9781934989418,,,,ES,2012/11/15,K Publications,eng,false,2,2023103,7,3,1,0,1991/5/1,What Are You Seeking?,book,0,0,1,0,0,3.00,372,Paperback,,1,0,Jiddu Krishnamurti,,,,,,5,0,,
18991501,,Puck of Pook's Hill,,B0082Q2EIU,,,ES,,,,true,250,571197,4914,8805,2264,132,1906/1/1,,book,745,773,537,168,41,3.89,,,,91,6,Rudyard Kipling,H.R. Millar,,,,,2151,6,72,"adventure,british-literature,childrens,classics,collections,english-literature,fairy-tales,fantasy,fiction,historical,historical-fiction,history,juvenile,literature,magic,mythology,poetry,short-stories,speculative-fiction,time-travel,unfinished,young-adult"
18992001,,"Set Me Free (The Evans Trilogy, #1)",,B00CKN505A,,,ES,,,eng,true,5,18992001,984,1129,309,33,2013/4/28,,book,65,113,97,27,7,3.65,,,,262,21,Jennifer Collin,,,,,,561,22,37,"adult,amazon,chick-lit,contemporary,fiction,romance"
18992501,3642220126,Automata,9783642220128,,,,ES,2011/1/1,Springer Publishing Company,,true,2,18992500,0,0,0,0,2011/1/1,,,0,0,0,0,0,0.00,,ebook,,0,0,Luca Aceto,,,,,,,0,,
18993001,3642271693,Adaptive Multimedia Retrieval. Context,9783642271694,,,,ES,2011/1/1,Springer Publishing Company,,true,2,18993001,0,0,0,0,2011/1/1,,,0,0,0,0,0,0.00,,ebook,,0,0,Marcin Detyniecki,,,,,,,0,,
18993501,9781582702,"Your Every Word Has Power - Change Your Language and Create a New Life in 21 Days: Health, Wealth, and Relationships",,,,,ES,2009/12/1,"Beyond Words Publishing, Hillsboro, Oregon (503) 531-8700 http://www.beyondword.com",eng,false,1,18993501,3,3,1,0,2009/12/1,,book,0,0,1,0,0,3.00,140,Paperback,1st,1,0,Yvonne Oswald,,,,,,2,0,,
18994001,,世界のエリートはなぜ、「この基本」を大事にするのか？,,B00F3VLQ4K,,,ES,,,jpn,true,3,18994001,9,17,4,1,2013/8/30,世界のエリートはなぜ、「この基本」を大事にするのか？,book,3,0,0,1,0,4.25,,,,2,1,"Takamasa Totsuka,戸塚 隆将",,,,,,2,0,1,
18994501,0486157873,"Mathematics: Its Content, Methods and Meaning (Dover Books on Mathematics)",9780486157870,,,,ES,,,,true,8,405880,1507,752,169,9,1963/1/1,"Mathematics: Its Content, Methods and Meaning",book,101,49,15,2,2,4.45,,,,24,0,"A.D. Aleksandrov,Blanche Greenstein",,,,,,1106,14,161,"amazon,history,non-fiction,philosophy,reference,research,school,science,textbooks"
18995001,1629021288,"Reef Warrior: Embracing Reality (Reef Warrior, #2)",9781629021287,,,,ES,2013/1/1,Tate Publishing & Enterprises,eng,false,1,18995001,153,10,2,1,2013/1/1,,book,2,0,0,0,0,5.00,372,Paperback,,2,1,Cheri Andrews,,,,,,148,0,,
18995501,,アリソン (電撃文庫) (Japanese Edition),,B009NNZK1E,,,ES,,,,true,1,18995501,1,5,1,0,2002/2/28,,,1,0,0,0,0,5.00,,,,1,0,"時雨沢 恵一,黒星 紅白",,,,,,,0,,
18996001,,"Defeating Lee: A History of the Second Corps, Army of the Potomac",,B00530VD6M,,,ES,,,,true,6,10818204,56,67,18,3,2011/1/1,,,4,6,7,1,0,3.72,,,,2,0,Lawrence A. Kreiser Jr.,,,,,,25,0,6,non-fiction
18996501,,Rikyu to enshu (Japanese Edition),,B009LSCPUK,,,ES,,,,true,1,18996501,1,0,0,0,2012/10/3,,,0,0,0,0,0,0.00,,,,0,0,Kyukin Susukida,,,,,,,0,1,
18997001,,さよなら絶望先生（２７） (少年マガジンコミックス) (Japanese Edition),,B00A765DCM,,,ES,,,,true,2,18997001,18,34,10,1,2011/10/17,さよなら絶望先生 27,book,2,3,3,1,1,3.40,,,,9,1,Kohji Kumeta,,,,,,6,1,,manga
18997501,,Drowning in Clutter?: Don't Grab a Floatie . . . Drain the Ocean!,,B00C32FNI2,,,ES,,,eng,true,1,18997501,84,194,46,6,2013/1/1,,book,23,11,11,1,0,4.22,,,,46,6,Dana  White,,,,,,24,4,5,"non-fiction,reference"
18998001,,Rompanruojan paluu,9789518835359,,,,ES,2013/1/1,Mäkelä,fin,false,4,18998001,14,15,6,3,2012/1/1,Rumpelstiltskin returns,book,0,1,1,4,0,2.50,32,Hardcover,,5,2,Maggie Pearson,Steve Stone,,,,,2,1,,
18998501,,Grandes clásicos 14. Enrique Granados,,,,,ES,1994/1/1,"Editorial Planeta, S. A.",,false,1,18998501,1,0,0,0,1994/1/1,,not a book,0,0,0,0,0,0.00,,Audio CD,,0,0,Alicia de Larrocha,,,,,,,0,,
18999001,,ヴォイニッチホテル 1,,B00D44JKL4,,,ES,,,jpn,true,3,17408417,179,382,95,11,2010/11/19,ヴォイニッチホテル,book,38,31,18,6,2,4.02,,,,1,0,"Seiman Douman,道満晴明",,,,,,57,6,2,"comedy,comics,fantasy,fiction,horror,humor,magic,manga,mystery-thriller,supernatural"
18999501,,A Crown of Despair,9780719811258,,,,ES,,,,true,10,17321208,31,41,12,4,2013/1/1,,book,2,3,5,2,0,3.42,,,,4,1,Jenny Mandeville,,,,,,15,1,,"chick-lit,historical-fiction"
19000001,,骨音　池袋ウエストゲートパーク３: 3 (Japanese Edition),,B009A49AXK,,,ES,,,eng,true,6,9547644,103,250,63,2,2002/10/31,骨音―池袋ウエストゲートパーク〈3〉 ,book,19,25,18,0,1,3.97,,,,0,0,Ira Ishida,,,,,,24,4,1,"contemporary,detective,fiction,murder-mystery,mystery"
19000501,,The Classic Children's Literature Collection: 39 Classic Novels,9781629218236,,,,ES,,,,true,1,19000501,13,8,2,0,2013/8/10,,,1,0,1,0,0,4.00,,,,2,0,Various,,,,,,9,0,2,"fiction,novels"
19001001,,銀弾の銃剣姫（ガンソーディア） II (MF文庫J) (Japanese Edition),,B00FS71HHK,,,ES,,,,true,1,19001001,4,6,2,0,,,,1,0,0,0,1,3.00,,,,2,0,むらさき ゆきや,鶴崎 貴大,,,,,,0,1,
19001501,,Gėlių dievo motina,9786094270444,,,,ES,2011/1/1,Kitos knygos,lit,false,65,53003,15762,18908,4695,240,1943/1/1,Notre-Dame-des-Fleurs,book,1894,1529,891,268,113,4.03,374,Paperback,,0,0,Jean Genet,,,,Dainius Gintalas,,9841,49,260,"adult-fiction,biography,classics,crime,erotica,european-literature,fiction,france,gay,historical,lgbt,literary-fiction,literature,modern-classics,novels,philosophy,plays,queer,unfinished"
19002001,,Il guerriero delle Highlands (Il Clan MacLerie),,B00F92GPO4,,,ES,,Harlequin Mondadori,ita,true,24,13548198,787,1202,323,36,2012/1/1,The Highlander's Stolen Touch,book,78,115,100,22,8,3.72,,,I Grandi Romanzi Storici #885,2,1,Terri Brisbin,,,,Anna Polo,,325,12,26,"adult-fiction,harlequin,historical,historical-fiction,medieval,romance"
19002501,,Call of Duty: Black Ops II - Das offizielle Lösungsbuch,9788866310570,,,,ES,2012/11/15,NAMCO BANDAI Partners Germany GmbH,ger,false,1,19002501,4,5,1,0,2012/1/1,Call of Duty: Black Ops II - The Official Game Guide,book,1,0,0,0,0,5.00,311,Paperback,,1,0,Phillip Marcus,,,,,,3,0,,
19003001,,Powerful Personal Development In 12 Minutes A Day,,B00G2LW7QQ,,,ES,2013/10/20,TCK Publishing,en-US,true,1,19003001,11,5,1,0,2013/10/20,,book,1,0,0,0,0,5.00,,ebook,,1,0,Mark Furlong,,,,,,8,2,,non-fiction
19003501,,永沢君 (IKKI　COMIX) (Japanese Edition),,B00COKM2K0,,,ES,,,,true,1,19003501,5,13,3,1,2003/4/30,,,1,2,0,0,0,4.33,,,,3,1,Momoko Sakura,,,,,,2,0,,
19004001,0486131173,Robinson Crusoe,9780486131177,,,,ES,2012/4/10,Dover Publications,,true,3028,2932,355251,807318,220287,5520,1719/4/25,"The Life and Strange Surprizing Adventures of Robinson Crusoe, Of York, Mariner",book,52955,75166,64748,20217,7201,3.66,379,ebook,,11,0,Daniel Defoe,,,,,,87127,656,5975,"adult,adult-fiction,adventure,british-literature,childrens,classic-literature,classics,college,english-literature,fantasy,fiction,historical,historical-fiction,history,literary-fiction,literature,novels,school,survival,travel,unfinished,young-adult"
19004501,,"Au Revoir, Europe: What if Britain left the EU?",9781849545440,,,,ES,,,,true,3,17560234,124,234,67,6,2012/11/28,,book,9,24,26,7,1,3.49,,,,27,2,David Charter,,,,,,22,0,2,"economics,essays,non-fiction,politics"
19005001,,Summary: Made to Stick - Chip and Dan Heath: Why Some Ideas Survive and Others Die,9782806229687,,,,ES,,,,true,1,19005001,9,3,1,0,2013/2/15,,,0,0,1,0,0,3.00,,,,1,0,BusinessNews Publishing,,,,,,3,0,1,reference
19005501,,Eating Less: Say Goodbye to Overeating,,B005H0CALU,,,ES,,,,true,9,424658,497,882,234,12,1999/11/4,Eating Less: Say Goodbye to Overeating,,70,83,50,19,12,3.77,,,,70,0,Gillian Riley,,,,,,178,8,36,"cooking,food,health,mental-health,non-fiction,personal-development,psychology,reference,self-help"
19006001,,Falling - Cherri Red Book 2,,B00CMWDF0G,,,ES,,,,true,3,17827686,323,95,29,7,2013/5/1,,book,5,7,9,7,1,3.28,,,,1,0,J.T. Harding,,,,,,286,3,1,"abuse,contemporary,erotica,lgbt,new-adult,novella,romance"
19006501,,Teach Yourself VISUALLY Facebook,,B009KUJ016,,,ES,,,eng,true,7,15026835,23,41,14,1,2012/9/21,,book,1,3,6,2,2,2.93,,,,4,0,Ben Harvell,,,,,,2,0,,
19007001,,Vermächtnis des Schweigens (German Edition),9783862784301,,,,ES,,,,true,37,9166559,69984,124861,32331,3171,2011/1/18,These Things Hidden,book,9000,12798,8128,1880,525,3.86,,,,0,0,Heather Gudenkauf,,,,Ivonne Senn,,8098,174,188,"adult,chick-lit,crime,death,drama,family,fiction,literary-fiction,mental-illness,mystery,mystery-thriller,novels,realistic-fiction,suspense,thriller,young-adult"
19007501,,Fidanzato vampiro: Episodio pilota,,B00DTH1BHC,,,ES,,,ita,true,2,19007501,58,111,33,5,2013/7/6,Fidanzato vampiro: Episodio pilota,book,7,8,12,2,4,3.36,9,,,12,1,Tiziana De Piero,,,,,,11,1,2,"manga,romance,vampires"
19008001,,Im Netz der Meister,,B008NDWH1Q,,,ES,,,ger,true,3,10225978,3,3,1,0,2012/7/19,,book,0,0,1,0,0,3.00,,,,0,0,Carla Berling,,,,,,1,0,,bdsm
19008501,,"We All Fall Down (Michael Kelly, #4)",,B005IVEUYI,,,ES,,,eng,true,14,10842549,1402,2737,784,116,2011/7/12,,book,113,276,293,87,15,3.49,,,,6,0,Michael  Harvey,,,,,,166,20,27,"crime,fiction,medical,mystery,mystery-thriller,suspense,thriller"
19009001,,Gage (The Lawmen of Silver Creek Ranch #5),,B00835W2XM,,,ES,,Harlequin,eng,true,8,13547023,583,1130,261,23,2012/8/7,Gage,book,142,69,45,4,1,4.33,,,"Harlequin Intrigue #1365, A Cowboy for Every Mood #37",97,3,Delores Fossen,,,,,,177,10,53,"adventure,contemporary,crime,fiction,harlequin,romance,suspense"
19009501,,Beatitudes: Eight Steps to Happiness,9781616363147,,,,ES,,,,true,2,7991897,81,127,29,5,2009/10/19,,,16,8,5,0,0,4.38,,,,7,1,Raniero Cantalamessa,,,,"Daigle Williamson, Marsha",,35,3,8,"faith,non-fiction,spirituality"
19010001,,Blessed By a Demon's Mark (Kat Redding),,B009AY3I8I,,,ES,,,,true,4,15736007,1083,1247,334,41,2012/12/31,,book,78,124,104,21,7,3.73,,,,60,5,E.S. Moore,,,,,,446,13,7,"demons,dystopia,fantasy,fiction,horror,magic,mystery,paranormal,romance,shapeshifters,supernatural,thriller,urban-fantasy,vampires,werewolves,witches,young-adult"
19010501,,Nonsense Drolleries The Owl & The Pussy-Cat - The Duck & The Kangaroo.,,B0083ZV7DI,,,ES,,,,true,22,19010501,105,230,59,9,2007/4/19,"Nonsense Drolleries: The Owl and the Pussy-Cat, the Duck and the Kangaroo",book,20,20,13,5,1,3.90,,,,38,5,Edward Lear,,,,,,27,3,3,"childrens,classics,education,fiction,humor,poetry"
19011001,,賭博破戒録カイジ　１ (highstone comic) (Japanese Edition),,B00E3RFQOQ,,,ES,,,,true,1,19011001,4,9,3,0,,,,0,1,1,1,0,3.00,,,,3,0,Nobuyuki Fukumoto,,,,,,,1,1,
19011501,,Homer's Odyssey,,B00GEJQ48S,,,ES,,,,true,2048,1381,1192720,2945961,785963,10584,-720/1/1,Ὀδύσσεια,book,236346,249254,198418,70016,31929,3.75,,,,2,0,Homer,,,,Norbert Albertson,,301858,2499,12688,"adult,adult-fiction,adventure,adventure,classic-literature,classics,classics,college,epic,epic,fantasy,fantasy,fiction,fiction,graphic-novels,high-school,historical,historical,historical-fiction,historical-fiction,history,history,literature,literature,mythology,mythology,novels,novels,philosophy,poetry,poetry,school,school"
19012001,,Surface Anatomy: The Anatomical Basis of Clinical Examination,,B005NI40IW,,,ES,,,,true,1,19012001,5,5,1,0,2008/6/11,,,1,0,0,0,0,5.00,,,,1,0,John S. P. Lumley,,,,,,1,0,2,
19012501,,The Forensic Psychology of Criminal Minds,,B0030CHFQC,,,ES,,,,true,5,7322863,942,744,192,27,2010/2/1,,book,56,69,55,11,1,3.88,,,,8,0,Katherine Ramsland,,,,,,653,16,32,"crime,horror,mystery,non-fiction,psychology,science,true-crime"
19013001,,"Attract Money. NEW and REVISED Version of The practical guide on how to attract more money in 21 days. (Practical guide to money making, money management ... Joe Vitale, T.Harv Ecker, Robert Kiyosaki,)",,B00F3LR7IE,,,ES,,,,true,1,19013001,11,5,1,0,2013/9/9,,,1,0,0,0,0,5.00,,,,1,0,Sarah Lewis,,,,,,8,0,2,
19014001,1610392787,The Triumph of Politics: Why the Reagan Revolution Failed,9781610392785,,,,ES,2013/3/26,PublicAffairs,,true,11,923199,500,524,138,20,1986/1/1,The Triumph of Politics: Why the Reagan Revolution Failed,book,33,58,35,10,2,3.80,465,ebook,,3,0,David A. Stockman,,,,,,314,10,4,"american-history,americana,autobiography,biography,business,economics,history,memoir,non-fiction,philosophy,politics,reference,society"
19014501,,The Zen Gene,,B009HM7M9E,,,ES,,Smashwords Edition,en-US,true,3,19014501,12,12,3,1,2012/10/1,,book,0,3,0,0,0,4.00,,,,1,0,L. Valder Mains,,,,,,9,0,,
19015001,,ARIEL03 (Japanese Edition),,B009AAL7PS,,,ES,,,,true,1,19015001,0,0,0,0,2008/4/18,,,0,0,0,0,0,0.00,,,,0,0,笹本 祐一,鈴木 雅久,,,,,,0,,
19015501,1472202163,Blood Lure,9781472202161,,,,ES,2013/6/6,Headline,,true,31,86446,9306,24840,6384,372,2001/1/1,Blood Lure,book,1584,2815,1725,225,35,3.89,277,ebook,,17,0,Nevada Barr,,,,,,742,16,134,"action,adult,adult-fiction,adventure,animals,contemporary,cozy-mystery,crime,detective,fiction,murder-mystery,mystery,mystery-thriller,nature,novels,suspense,thriller"
19016001,,砂の栄冠（１４）,,B00ESD50OG,,,ES,,,,true,1,19016001,0,0,0,0,2013/8/6,,,0,0,0,0,0,0.00,,,,0,0,三田紀房,,,,,,,0,,
19016501,,Answer That! The Best Pub Quiz Book...Ever,,B00DR2U6ZM,,,ES,,,,true,1,19016501,5,15,5,0,2013/7/2,,,1,0,3,0,1,3.00,,,,5,0,Naomi Dennison,,,,,,,1,,
19017001,,日本企業にいま大切なこと (PHP新書) (Japanese Edition),,B0079A7WLY,,,ES,,,,true,1,19017001,0,0,0,0,2011/8/12,,,0,0,0,0,0,0.00,,,,0,0,"遠藤功,野中郁次郎",,,,,,,0,,
19017501,,＜デジタル週プレ写真集＞　川村ゆきえ「ｓｔｅｐ　ｂｙ　ｓｔｅｐ・・・２０１２」 (Japanese Edition),,B00BJ1NNFI,,,ES,,,,true,1,19017501,0,0,0,0,,,,0,0,0,0,0,0.00,,,,0,0,川村ゆきえ,,,,,,,0,,
19018001,,"Get Graphic Design Clients: Pro-tips for Landing, Impressing & Keeping the Good Ones",,B00D9RNHNS,,,ES,,,,true,1,19018001,39,103,25,4,2013/6/7,,,9,11,4,1,0,4.12,,,,25,4,Wes McDowell,,,,,,8,1,4,business
19018501,,ガガガ文庫　RIGHT×LIGHT2～ちいさな占い師と白い部屋で眠る彼女～ (イラスト完全版) (Japanese Edition),,B00BT8OSMI,,,ES,,,,true,1,19018501,1,5,1,0,2008/3/19,,,1,0,0,0,0,5.00,,,,1,0,ツカサ,近衛乙嗣,,,,,,0,,
19019001,,長い間 (ダリアコミックスe) (Japanese Edition),,B00CFIPCQW,,,ES,,,jpn,true,1,19019001,0,0,0,0,2005/8/22,,book,0,0,0,0,0,0.00,,,,0,0,館野とお子,,,,,,,0,,
19019501,,Aura Balancing - 13 Ways to Balance your Aura & Live Satisfying Lives,,B00GB940ZA,,,ES,,,,true,1,19019501,190,310,79,9,2013/10/29,,,34,18,18,5,4,3.92,,,,79,9,Anama Miller,,,,,,31,0,55,
19020001,,Political Philosophy in the Twentieth Century,9781139144391,,,,ES,,,,true,5,13725682,16,11,3,0,2011/8/18,,,0,2,1,0,0,3.67,,,,0,0,,,,Catherine H. Zuckert,,,8,0,2,
19020501,,図解ｖｓ文章 (ビジネスにはどちらが強い？どちらが役立つ？) (Japanese Edition),,B0088K9582,,,ES,,,,true,1,19020501,1,0,0,0,2008/11/10,,,0,0,0,0,0,0.00,,,,0,0,"久恒 啓一,樋口 裕一",,,,,,1,0,,
19021001,,Hanshichi torimonocho 14 Yama iwai no yo 半七捕物帳,,B009IXSA3O,,,ES,,,,true,1,19021001,0,0,0,0,2012/9/27,,,0,0,0,0,0,0.00,,,,0,0,Kidō Okamoto,,,,,,,0,,
19021501,,Die mit dem Hund tanzt: Tierisch menschliche Geschichten,,B004QGYF9Q,,,ES,,,ger,true,4,16153020,47,118,27,2,2011/2/28,,book,17,6,2,1,1,4.37,,,,3,0,Maike Maja Nowak,,,,,,10,3,2,
19022001,,Randa no karuta,,B009IX90BA,,,ES,,,jpn,true,1,19022001,0,0,0,0,2012/9/27,,book,0,0,0,0,0,0.00,,,,0,0,Osamu Dazai,,,,,,,0,,
19022501,,Die Flucht über die Kordilleren,,B004SYA6KI,,,ES,,,ger,true,1,19022501,0,0,0,0,2011/3/19,,book,0,0,0,0,0,0.00,,,,0,0,Friedrich Gerstäcker,,,,,,,0,,
19023001,,The Key: Part Four,9780007521401,,,,ES,,,,true,1,19023001,61,160,41,0,2013/3/7,,,14,14,9,3,1,3.90,,,,41,0,Simon Toyne,,,,,,14,0,1,
19023501,,罪と罰 : 3 (アクションコミックス) (Japanese Edition),,B009DBYX7I,,,ES,,,,true,1,19023501,2,8,2,0,2008/4/28,,,1,0,1,0,0,4.00,,,,2,0,落合 尚之,,,,,,,0,,
19024501,,Echoes Of The Dance,,B003WQAQB2,,,ES,,,eng,true,22,742266,782,1790,475,51,2006/4/1,Echoes of the Dance,book,128,163,138,38,8,3.77,,,,81,5,Marcia Willett,,,,,,189,13,12,"british-literature,chick-lit,contemporary,drama,fiction,romance"
19025001,,Sexy Japanese girl You Asakuras photograph collection Vol1 CHAPTER 1 (Japanese Edition),,B00CDAWQNY,,,ES,,,,true,1,19025001,0,0,0,0,2013/4/14,,,0,0,0,0,0,0.00,,,,0,0,Gold publishing,,,,,,,0,,
19025501,,Conqueror (Raj Whitehall Collection Combo Volumes Book 2),9781618243713,,,,ES,,,,true,3,297858,1278,3978,945,13,2003/2/25,"Conqueror (Raj Whitehall, #3 - #5)",book,436,306,174,23,6,4.21,,,,104,1,"David Drake,S.M. Stirling",,,,,,198,13,10,"adventure,american,fantasy,fiction,post-apocalyptic,science,science-fiction,science-fiction-fantasy,thriller,war"
19026001,,Projekt Genejusha (Wächter der Sonne) (German Edition),9783980909402,,,,ES,,,,true,1,19026001,2,0,0,0,2013/11/26,,,0,0,0,0,0,0.00,,,,0,0,Ava Applesnake,,,,,,,0,,
19026501,,Rim To Rim - Death in the Grand Canyon (Backcountry Mysteries),,B00EKOBR8Q,,,ES,,,,true,3,19026501,135,286,74,10,2013/8/14,,,24,24,19,6,1,3.86,,,,72,9,Jeanne Meeks,,,,,,33,1,19,mystery
19027001,,"31 Almond Flour Recipes: High in Protein, Vitamins and Minerals: A Low-Carb, Gluten-Free Baking Alternative to Standard Wheat Flour",,B00DA1NTGI,,,ES,,,,true,3,19027001,4,9,3,0,2013/6/8,,,0,2,0,0,1,3.00,,,,3,0,Jennifer L. Davids,,,,,,1,0,,
19027501,,土星マンション（７） (IKKI　COMIX) (Japanese Edition),,B00C7Q4TGG,,,ES,,,jpn,true,5,15803926,268,730,171,28,2011/8/30,,book,69,83,15,4,0,4.27,,,,0,0,"Hisae Iwaoka,岩岡 ヒサエ",,,,,,57,11,3,"comics,fiction,graphic-novels,horror,manga,science-fiction,short-stories,speculative-fiction,teen,young-adult"
19028001,,Creating a Beautiful Home,,B00BOQEBUE,,,ES,,,,true,10,1066161,442,1103,271,9,1992/1/1,Creating a Beautiful Home,book,92,114,58,6,1,4.07,,,,5,0,Alexandra Stoddard,,,,,,91,1,12,"art,inspirational,non-fiction,reference,spirituality"
19028501,,"Exile (Star Wars: Legacy of the Force, #4)",,B009EQG82K,,,ES,,,eng,true,16,241103,9409,23376,6070,96,2007/2/27,"Exile (Star Wars: Legacy of the Force, #4)",book,1778,2203,1638,309,142,3.85,,,,17,1,Aaron Allston,,,,,,1795,36,40,"adventure,fantasy,fiction,novels,science,science-fiction,science-fiction-fantasy,speculative-fiction"
19029001,,"The Gila Wars (Josiah Wolfe, Texas Ranger #6)",,B009KUXT9U,,,ES,,,eng,true,6,15808759,72,107,26,6,2013/5/7,,book,11,10,3,1,1,4.12,,,,1,0,Larry D. Sweazy,,,,,,5,1,22,
19029501,,Kale Recipes: Quick Easy And Delicious Superfood Kale Recipes,,B00BXJAV56,,,ES,,,,true,2,19029501,24,23,9,0,2013/3/19,,,2,0,1,4,2,2.56,,,,8,0,Helen Williams,,,,,,10,0,2,"cookbooks,cooking"
19030001,1935667165,At the Heart of Leadership: How to Get Results with Emotional Intelligence,9781935667162,,,,ES,,,eng,false,2,19030001,194,146,39,5,2007/6/1,At the Heart of Leadership: How to Get Results with Emotional Intelligence,book,8,17,11,2,1,3.74,,,3rd Edition,26,2,Joshua Freedman,,,,,,123,3,12,"education,leadership,mental-health,non-fiction"
19030501,1614232032,Historic Indianapolis Crimes: Murder & Mystery in the Circle City,9781614232032,,,,ES,2010/7/16,History Press,,true,1,19030501,9,18,6,1,2011/12/6,,,1,0,3,2,0,3.00,131,ebook,,6,1,Fred D. Cavinder,,,,,,1,0,,
19031001,,BETWEEN THE CRADLE AND THE GRAVE,,B00GGMF8JE,,,ES,,,,true,2,18994038,52,107,24,7,2013/11/26,,book,14,7,3,0,0,4.46,,,,12,1,Firoz Khan,,,,,,24,0,1,mystery
19031501,,Philosophie und Okkultismus (German Edition),,B0057H11Y0,,,ES,,,,true,1,19031501,1,0,0,0,2011/6/21,,,0,0,0,0,0,0.00,,,,0,0,Hanns Freiherr von Gumppenberg,,,,,,1,0,,philosophy
19032001,,Ich will schlank sein (German Edition),,B00DLKGW9O,,,ES,,,,true,1,19032001,1,0,0,0,2013/6/23,,,0,0,0,0,0,0.00,,,,0,0,Frank Demal,,,,,,,0,,
19032501,,HIYOKO BRAND おくさまは女子高生 カラー版 11 (ヤングジャンプコミックスDIGITAL) (Japanese Edition),,B00BQ95VQ2,,,ES,,,,true,1,19032501,3,8,2,1,2006/11/17,,,1,0,1,0,0,4.00,,,,2,1,Hiyoko Kobayashi,,,,,,1,0,,
19033001,,"Tas, kuris žino. Pavojingi klausimai",9789955132653,,,,ES,2010/1/1,Jotema,lit,false,6,1529946,46,125,29,1,2001/1/1,"Тот, кто знает",book,17,5,6,1,0,4.31,300,Hardcover,,4,0,Alexandra Marinina,,,,Jurgis Gimberis,,5,2,,"crime,mystery"
19033501,,"Hello, America",,B005D7FK6Y,,,ES,,,,true,2,127355,650,852,213,23,2005/1/1,"Hello, America: A Refugee's Journey from Auschwitz to the New World",book,76,80,43,9,5,4.00,,,,26,0,Livia E. Bitton-Jackson,,,,,,377,19,9,"american-history,autobiography,biography,biography-memoir,historical,historical-fiction,history,memoir,non-fiction,teen,war,young-adult"
19034001,,The Secret,,B00GL7P9XO,,,ES,,,eng,true,2,19034001,8,9,3,0,2013/11/9,,book,0,2,0,0,1,3.00,,,,3,0,Jonathon  Wise,,,,,,5,1,,
19034501,,Ｓｃｈｏｏｌ　Ｒｕｍｂｌｅ（１２） (少年マガジンコミックス) (Japanese Edition),,B009SN98JE,,,ES,,,,true,7,6659050,238,527,130,7,2006/4/17,"School Rumble, Bd. 12",book,51,42,30,7,0,4.05,,,,0,0,Jin Kobayashi,,,,,,51,10,3,"comedy,comics,fiction,graphic-novels,manga,romance"
19035001,,Coming Clean,9780814738665,,,,ES,,,,true,1,19035001,3,6,2,1,1999/11/1,,,1,0,0,0,1,3.00,,,,2,1,"Robert Granfield,William Cloud",,,,,,1,0,,
19035501,3570380459,"Vereint (Engel-Saga, #5)",,,,,ES,2014/5/1,cbt,ger,false,18,16030817,15880,33902,7362,732,2014/5/1,"Empower (The Violet Eden Chapters, #5)",book,5165,1644,434,80,39,4.60,544,Paperback,German Edition,48,5,Jessica Shirvington,,,,Sonja Häußler,,6612,79,115,"action,adventure,angels,demons,fantasy,fiction,magic,mythology,novels,paranormal,romance,supernatural,teen,thriller,urban-fantasy,young-adult"
19036001,,Freud,,B005DHYF1U,,,ES,,,por,true,5,2885580,84,131,32,8,2010/8/16,Freud,book,10,15,7,0,0,4.09,,,,1,0,Rousas John Rushdoony,,,Felipe Sabino,Marcos Vasconcelos,,40,1,6,"biography,christianity,philosophy,psychology,theology"
19036501,,ダンジョンに出会いを求めるのは間違っているだろうか 3,,B00DQ4AZQ6,,,ES,,SBクリエイティブ株式会社 / GA Bunko,jpn,true,12,23731878,1751,4115,945,23,2013/3/15,ダンジョンに出会いを求めるのは間違っているだろうか 3,book,507,305,106,15,12,4.35,,,,3,0,"Fujino Ōmori,大森 藤ノ",ヤスダ スズヒト,,,,,209,12,76,"action,adventure,comedy,drama,fantasy,fiction,graphic-novels,humor,manga,mythology,romance,young-adult"
19037001,,الثدي المُر,,,,,ES,2011/12/1,دار نشر طنطا بوك هاوس ,ara,false,1,19037001,21,30,8,0,2011/12/1,الثدي المُر,book,3,2,1,2,0,3.75,168,Paperback,الطبعة الأولى ,8,0,مينا عزت عازر,,,,,,12,0,,literature
19037501,,Gettysburg National Military Park (American Civil War History: Battle of Gettysburg and Lincoln's Gettsyburg Address),,B0076BT76E,,,ES,,,,true,2,2693783,17,13,4,0,1992/1/1,Gettysburg National Military Park (024-005-00196-4),,0,1,3,0,0,3.25,,,,2,0,Frederick Tilberg,,,,,,5,1,1,"american-history,history"
19038001,,Bis zur letzten Stunde: Hitlers Sekretärin erzählt ihr Leben (German Edition),9783843705820,,,,ES,,,,true,44,218081,3770,6394,1624,164,2002/1/1,Bis zur letzen Stunde,book,468,689,378,75,14,3.94,,,,0,0,Traudl Junge,,,,,,1599,17,185,"autobiography,biography,biography-memoir,fiction,historical,history,memoir,non-fiction,politics,war"
19038501,,拝み屋横丁顛末記: 8 (ZERO-SUMコミックス) (Japanese Edition),,B00AQWCR6C,,,ES,,,,true,1,19038501,2,0,0,0,2007/3/24,,,0,0,0,0,0,0.00,,,,0,0,宮本 福助,,,,,,2,0,,
19039001,,Don't Read This ... Unless You Want More Money!,,B004DI7NZA,,,ES,,,,true,3,8119945,16,29,8,1,2010/5/4,,,3,1,2,2,0,3.62,,,,1,0,Dov Baron,,,,,,2,0,1,
19039501,,The Manifesting Mindset: Strategies for Deliberate Attraction & Conscious Living,,B004GB0LTE,,,ES,,,eng,true,1,19039501,2,4,1,0,2010/12/13,,book,0,1,0,0,0,4.00,,,,1,0,Kenneth MacLean,,,,,,,0,,
19040001,,No Room To Move: Radical Art And The Regenerate City,,,,,ES,,,,false,1,19040001,0,0,0,0,,,book,0,0,0,0,0,0.00,,,,0,0,Josephine Berry Slater,,,,,,,0,,
19040501,,Sage's Mystery (Shifters of Mystery 1),,B0079LSIJS,,,ES,,,en-US,true,3,12984082,930,2299,603,25,2012/1/21,,book,169,204,187,34,9,3.81,,,,41,0,Lynn Hagen,,,,,,197,7,5,"abuse,contemporary,erotica,fantasy,fiction,gay,paranormal,romance,shapeshifters,urban-fantasy,werewolves"
19041001,,Quest For Lost Heroes (Drenai),9781405512015,,,,ES,,,,false,16,568095,11443,32249,7901,129,1990/1/1,Quest for Lost Heroes ,book,2810,3175,1699,185,32,4.08,,,,214,5,David Gemmell,,,,,,1971,17,70,"action,adventure,epic,epic-fantasy,fantasy,fiction,high-fantasy,historical-fiction,novels,science-fiction,war"
19041501,,"App Development: Secrets to Creating Apps for iPhone, iPad and Android",9781466128095,,,,ES,,,,true,1,19041501,2,5,1,0,2012/1/26,,,1,0,0,0,0,5.00,,,,1,0,Benjamin Bressington,,,,,,,0,1,
19042001,,La curva di Lesmo: Parte prima (Italian Edition),,B00DGYKSIQ,,,ES,,,,true,2,19042001,5,13,3,0,2013/6/17,,,1,2,0,0,0,4.33,,,,2,0,Guido Crepax,,,,,,1,0,,
19042501,,囲碁人 Vol.23 (Japanese Edition),,B00DW7U1X4,,,ES,,,,true,1,19042501,0,0,0,0,2013/7/16,,,0,0,0,0,0,0.00,,,,0,0,"万波 奈穂,内藤 由起子,郭 求真",,,,,,,0,,
19043001,,Indian Ghost Stories,,B0084B5QVU,,,ES,,,eng,true,28,4773211,306,273,79,8,,Indian Ghost Stories,book,15,24,28,6,6,3.46,,,Second Edition,35,1,S. Mukerji,,,,,,166,6,23,"horror,paranormal,short-stories"
19043501,,Davis's Basic Math Review for Nurses: with Step-by-Step Solutions,,B0057CWF1S,,,ES,,,,true,1,19043501,10,14,3,0,2009/12/24,,,2,1,0,0,0,4.67,,,,3,0,Vicki Raines,,,,,,3,0,3,
19044001,,Claimed by the Billionaire,9780987388209,,,,ES,2012/8/24,Smashwords Edition,,true,1,19044001,4,11,3,0,2012/11/1,,,0,2,1,0,0,3.67,,ebook,,3,0,Amber Fire,,,,,,1,0,,
19044501,,アカギ－闇に降り立った天才　６ (highstone comic) (Japanese Edition),,B00DVYTZIA,,,ES,,,,true,1,19044501,1,5,1,1,1996/1/27,,,1,0,0,0,0,5.00,,,,1,1,Nobuyuki Fukumoto,,,,,,,0,,
19045001,,A Few Bites a Day: My Weight Loss Success Story,,B0029NY83Q,,,ES,,,,true,1,19045001,7,6,2,0,2009/5/11,,,0,0,2,0,0,3.00,,,,2,0,Seth McMenemey,,,,,,,0,2,
19045501,,Winterfest (German Edition),,B00946R9IM,,,ES,,,ger,true,44,18617605,3484,7583,2086,181,2011/1/1,Vinterstengt ,book,370,812,709,163,32,3.64,,,,1,0,Jørn Lier Horst,,,,,,880,19,73,"adult,contemporary,crime,fiction,mystery,mystery-thriller,suspense,thriller"
19046001,,最強の英語上達法 (PHP新書) (Japanese Edition),,B009SODJ98,,,ES,,,,true,1,19046001,0,0,0,0,2002/9/30,,,0,0,0,0,0,0.00,,,,0,0,岡本 浩一,,,,,,,0,,
19046501,,三浦綾子 電子全集　旧約聖書入門　_光と愛を求めて (Japanese Edition),,B00AMSBL5I,,,ES,,,,true,1,19046501,0,0,0,0,1984/12/20,,,0,0,0,0,0,0.00,,,,0,0,Ayako Miura,,,,,,,0,,
19047001,,"THE HEALING FOODS - Heal Your Body & Lose Weight with Delicious, Earth-friendly, Healthy Food",B00GT1Y8AM,,,,ES,2013/11/27,THE HEALING FOODS,eng,true,2,19047001,5,13,3,2,2013/11/27,,book,2,0,1,0,0,4.33,172,ebook,1,1,1,Joey Avniel,,,,,,2,0,,
19047501,,水晶世界 (氷結鏡界のエデン #6),,B009HPDF24,,,ES,2012/9/7,,jpn,true,2,17930762,11,26,6,0,2011/3/19,氷結鏡界のエデン 6 水晶世界,book,3,2,1,0,0,4.33,,,,0,0,"Kei Sazane,細音 啓",Akira Kasukabe,,,,,3,0,,"comedy,drama,fantasy,fiction,thriller"
19048001,,ぼっけえ、きょうてえ (角川ホラー文庫) (Japanese Edition),,B009GPMUKS,,,ES,,,,true,2,7999134,14,14,4,1,1999/1/1,,book,0,3,0,1,0,3.50,,,,0,0,岩井 志麻子,甲斐庄 楠音,,,,,7,1,1,historical-fiction
19048501,844069783,Alt 47,9788440697837,,,,ES,2000/11/1,Ediciones B,spa,false,28,172742,3676,7916,2188,80,1997/1/1,Slant,book,381,833,766,173,35,3.62,422,Paperback,,2,1,Greg Bear,,,,Carlos Gardini,,813,14,24,"fantasy,fiction,novels,science,science-fiction,science-fiction-fantasy,speculative-fiction"
19049001,,El fin del poder,,B00G9FZGAY,,,ES,,,spa,true,27,16043519,12348,9845,2723,302,2013/3/5,The End of Power,book,548,978,881,234,82,3.62,,,,145,15,Moisés Naím,,,,,,3615,43,230,"business,economics,historical,history,leadership,non-fiction,philosophy,politics,psychology,reference,society,sociology"
19049501,,The Guardian Pug (Guardian 1),,B00ATSUJNG,,,ES,,,eng,true,2,16179680,92,183,59,5,2012/11/1,,book,8,12,22,12,5,3.10,,,,3,0,Lacey Denair,,,,,,21,3,,"paranormal,shapeshifters"
19050001,,40 Enjoyable Mixed Drinks,,B00GXMLLN4,,,ES,,,,true,1,19050001,3,5,1,0,2013/11/25,,,1,0,0,0,0,5.00,,,,1,0,Shelby Biggs,,,,,,,0,1,
19050501,,Principles and Paradigms: The 7 Habits Foundational Principles (Volume 2): Powerful Lessons in Personal Change,9781614307389,,,,ES,,,,false,1,19050501,6,5,2,0,2011/10/5,,,0,1,0,0,1,2.50,,,,2,0,Stephen R. Covey,,,,,,4,0,,
19051001,,Essex Boys: A Terrifying Expose Of The British Drugs Scene,,B004XIVQH6,,,ES,,,,true,3,2046766,240,515,140,11,2000/4/1,Essex Boys: A Terrifying Expose of the British Drugs Scence,,34,49,41,10,6,3.68,,,,16,0,Bernard O'Mahoney,,,,,,62,1,6,"autobiography,crime,true-crime"
19051501,,"Filosofas, kuris nebuvo išmintingas",9786090111949,,,,ES,2013/1/1,Alma littera,lit,false,17,16048254,1751,3446,923,73,2012/10/4,Le philosophe qui n'était pas sage,book,264,297,250,76,36,3.73,232,Hardcover,,42,3,Laurent Gounelle,,,,Lina Perkauskytė,,525,8,53,"adult,classics,contemporary,fiction,france,inspirational,novels,philosophy,psychology,self-help,thriller"
19052001,,カーニヴァル: 9 (ZERO-SUMコミックス) (Japanese Edition),,B00CEXHXFG,,,ES,,,,true,1,19052001,3,8,2,0,2012/4/25,,,1,0,1,0,0,4.00,,,,2,0,御巫 桃也,,,,,,1,0,,manga
19052501,,神様はじめました 7,,B00DMU8MD2,,,ES,,,jpn,true,8,12325117,3990,11537,2597,49,2010/9/17,神様はじめました 7,book,1523,735,308,27,4,4.44,,,,3,0,Julietta Suzuki,,,,,,827,55,15,"comedy,comics,demons,drama,fantasy,fiction,funny,graphic-novels,graphic-novels-comics,high-school,humor,magic,manga,mystery,mythology,paranormal,romance,supernatural,young-adult"
19053001,,A Walk across Suburbia: One Man's Journey through his Neighborhood,,B00EIKI3RK,,,ES,,,,true,2,19053001,200,204,59,3,2013/8/12,,,10,17,23,8,1,3.46,,,,59,3,Ken Ilgunas,,,,,,129,2,5,"adventure,contemporary,essays,non-fiction,sociology,travel"
19053501,,アフタヌーン四季賞ＣＨＲＯＮＩＣＬＥ　１９８７－２０００（夏） (Japanese Edition),,B00CE3T8IG,,,ES,,,eng,true,1,19053501,0,0,0,0,,,book,0,0,0,0,0,0.00,,,,0,0,"Hiroaki Samura,五十嵐 大介,吉開寛二,安田弘之,小原愼司,芦奈野 ひとし,菅原雅雪,黒田硫黄",,,,,,,0,,
19054001,,Alice's Alpha (Wolf Clan Shifters #1),,B00DQ3BJ62,,,ES,,,eng,true,5,18133028,586,820,221,49,2013/6/30,,book,65,63,64,22,7,3.71,,,,8,0,Ann Gimpel,,,,,,266,7,46,"adult,adult-fiction,erotica,historical,historical-fiction,menage,paranormal,romance,shapeshifters,werewolves"
19054501,,NYC Angels: Tempting Nurse Scarlet (Mills & Boon Medical) (NYC Angels - Book 6),9781472003065,,,,ES,2013/5/1,Mills & Boon Medical,,true,8,17568119,100,175,42,12,2013/1/1,,book,19,13,8,2,0,4.17,,ebook,,6,0,Wendy S. Marcus,,,,,,40,3,2,"chick-lit,contemporary,harlequin,romance"
19055001,,Genuss für Zwischendurch (German Edition),,B00DD1HW2W,,,ES,,,,true,1,19055001,1,0,0,0,2013/6/11,,,0,0,0,0,0,0.00,,,,0,0,Sarah Bünting,,,,,,,0,,
19055501,,Learn the Secrets of Successful Trading (Traders World Online Expo Books),,B00A2ZIJQ0,,,ES,,,,true,1,19055501,12,3,1,0,2013/11/20,,,0,0,1,0,0,3.00,,,,1,0,"Adrienne Toghraie,Enrico Malverti,Hawk Arps,Jack Winkleman,Lars von Thiene,Rande Howell,Sunny Harris,Tim Bost,Wesley Sinks",,,Larry Jacobs,,,8,1,2,
19056001,,ろくでなしBLUES 16 (ジャンプコミックスDIGITAL) (Japanese Edition),,B009LHBQE2,,,ES,,,,true,1,19056001,0,0,0,0,2003/8/8,,,0,0,0,0,0,0.00,,,,0,0,森田 まさのり,,,,,,,0,,
19056501,,"My Pastor, My Friend, My Lover",,B00GXSXYTM,,,ES,2013/11/28,Anystar Publishing,en-GB,true,1,19056501,2,0,0,0,2013/11/28,,book,0,0,0,0,0,0.00,,ebook,,0,0,A. Micheaux,,,,,,2,0,,
19057001,,His Watching Wife,,B00E3KPRCO,,,ES,,,eng,true,2,19057001,4,7,2,0,2013/7/22,,book,1,0,0,1,0,3.50,,,,2,0,K.C. Cain,,,,,,1,0,,
19057501,,One Good Quest Deserves Another: A Crown Of Amaranth Story,,B00CW0PL4Q,,,ES,,,,true,3,19057501,7,3,1,1,2009/1/1,,,0,0,1,0,0,3.00,,,,1,1,"Ashley Winkler,Michael Winkler",,,"Amy Hamm,Norma Roberts",,,6,0,,
19058001,,The Magic,,B006YDG0KG,,,ES,,,,true,78,13237327,35534,49445,11916,738,2012/7/27,The Magic (The Secret #3),book,6061,3037,1771,632,415,4.15,,,,22,0,Rhonda Byrne,,,,,,18597,21,2511,"business,inspirational,magic,non-fiction,personal-development,philosophy,psychology,religion,self-help,spirituality,unfinished"
19058501,,imasarakikenaizatudannotekunikkkuimasugutsukaerunijyuugonokotu (Japanese Edition),,B00BI0MOZK,,,ES,,,,true,1,19058501,0,0,0,0,2013/3/19,,,0,0,0,0,0,0.00,,,,0,0,kurotakimasayuki,,,,,,,0,,
19059001,,Terrific Thanksgiving: America's Favorite Thanksgiving Recipes,,B005JXWJAC,,,ES,,,,true,1,19059001,0,0,0,0,2011/8/29,,,0,0,0,0,0,0.00,,,,0,0,Iva Wise,,,,,,,0,,
19059501,,水の三日 [Mizu no mikka],,B009IWRFNQ,,,ES,,,jpn,true,1,19059501,0,0,0,0,2012/9/27,,book,0,0,0,0,0,0.00,,,,0,0,Ryūnosuke Akutagawa,,,,,,,0,,
19060001,,"Midsummer Meltdown (Truth, Dare, Kiss, Promise)",9781848123045,,,,ES,,,,true,11,1011456,747,1451,386,15,2005/12/31,Midsummer Meltdown (Truth or Dare),book,106,119,126,32,3,3.76,,,,1,0,Cathy Hopkins,,,,,,198,17,2,"amazon,chick-lit,childrens,collections,contemporary,fiction,love,realistic-fiction,romance,teen,young-adult"
19060501,,ササキ様に願いを（１） (バンブーコミックス 4コマセレクション) (Japanese Edition),,B00GBWEKQG,,,ES,,,,true,1,19060501,0,0,0,0,1995/4/17,,,0,0,0,0,0,0.00,,,,0,0,みずしな 孝之,,,,,,,0,,
19061001,,"A Step Beyond Protection (Protection Series, #1)",2940045437189,,,,ES,2013/11/14,Smashwords.com,eng,true,2,19061001,23,27,8,2,2013/11/14,,book,3,1,2,0,2,3.38,183,,Barnes and Noble-Nook Store,8,2,Andie Renee,,,,,,9,0,,
19061501,,কঙ্কাবতী,,,,,ES,,Mitra & Ghosh Publishers,ben,false,3,19056833,81,152,39,12,,,book,10,16,12,1,0,3.90,131,Hardcover,,1,0,Troilokyanath Mukhopadhyay,,,,,,35,0,2,"fantasy,fiction,supernatural"
19062001,,母がしんどい (新人物往来社) (Japanese Edition),,B0096I766I,,,ES,,,,true,1,19062001,4,5,1,0,2012/3/24,,,1,0,0,0,0,5.00,,,,1,0,田房 永子,,,,,,1,0,,
19062501,,Exotic Sex Stories Volume 1,,B005UQRURA,,,ES,,,,true,3,12887204,17,8,2,0,2011/10/10,,,1,0,1,0,0,4.00,,,,0,0,Lauren Hillbrand,,,,,,10,0,,
19063001,,Vintage Fishing Rod Restoration Guide,,B009M83ISW,,,ES,,,,true,2,19559082,12,23,6,0,2012/10/4,,book,1,3,2,0,0,3.83,,,,4,0,Paul  Duffield,,,,,,,0,4,
19063501,,Heritage of Deceit,9781304669599,,,,ES,2014/1/23,Graham Downs,eng,false,10,18746269,32,46,11,7,2013/12/1,,book,4,5,2,0,0,4.18,46,Paperback,,0,0,Graham Downs,,,,,,17,0,2,"short-stories,suspense,thriller"
19064001,,完全版　地獄堂霊界通信 3,,B00GD6ETB6,,,ES,,,jpn,true,1,19064001,0,0,0,0,2009/8/19,,book,0,0,0,0,0,0.00,,,,0,0,"Hinowa Kouzuki,香月日輪",,,,,,,0,,
19064501,,宗像教授異考録（１） (ビッグコミックススペシャル),,B00BEPF4VK,,,ES,,,jpn,true,3,19064501,11,8,2,0,2005/8/30,,book,1,0,1,0,0,4.00,,,,2,0,"Yukinobu Hoshino,星野之宣",,,,,,4,0,1,"comics,manga"
19065001,,Phobos Magazine One: Zugzwang,,B00GL06N5O,,,ES,,,,true,3,19064993,12,27,7,1,2013/11/8,,book,3,1,2,1,0,3.86,,,,0,0,A.E. Decker,,,,,,5,0,,"horror,science-fiction"
19065501,,"Symphony No. 9, Op. 125 - Full score (Beethovens Werke, Serie I)",,B004Z4IW70,,,ES,,,,true,16,254550,29,50,12,2,1863/9/1,"Symphony No. 9 in D Minor: Op. 125 (""Choral"") (Dover Miniature Scores)",book,8,1,1,1,1,4.17,,,,1,0,Ludwig van Beethoven,,,,,,6,0,1,
19066001,,FX (German Edition),,B008RMBC4G,,,ES,,,,true,1,19066001,0,0,0,0,2013/11/22,,,0,0,0,0,0,0.00,,,,0,0,Leaf Schreiber,,,,,,,0,,
19066501,,Princess Margaret: A Life of Contrasts,,B005PXUXL8,,,ES,,,eng,true,9,2461977,443,389,111,12,1983/1/1,Princess Margaret: A Life of Contrasts,,23,32,36,18,2,3.50,,,,32,2,Christopher Warwick,,,,,,286,8,21,"biography,biography-memoir,feminism,history,non-fiction"
19067001,,アイシス！～アナタだけのアイドル妹～ (Japanese Edition),,B00E9M5EAQ,,,ES,,,,true,1,19067001,0,0,0,0,2013/7/18,,,0,0,0,0,0,0.00,,,,0,0,月乃 御伽,鷹乃 ゆき,,,,,,0,,
19067501,,"Auf der Reeperbahn, mittags, halb eins (German Edition)",,B006WS3O7K,,,ES,,,,true,1,19067501,0,0,0,0,2012/1/11,,,0,0,0,0,0,0.00,,,,0,0,Nay Baf,,,,,,,0,,
19068001,,Seven deaths Sette strane storie (Italian Edition),,B00A3YAQ4I,,,ES,,,,true,1,19068001,1,0,0,0,2012/11/7,,,0,0,0,0,0,0.00,,,,0,0,"De Angelis, Ercole",,,,,,1,0,,
19068501,,L'Assassin à la pomme verte,9782363601667,,,,ES,2013/10/4,Feryane,fre,false,5,20656522,53,99,32,7,2012/8/23,L'Assassin à la pomme verte,book,1,10,14,5,2,3.09,,Paperback,,0,0,Christophe Carlier,,,,,,10,2,,literature
19069001,,瑠川リナ　～誕生～　オールヌード写真集Vol．01 (ラビリンス) (Japanese Edition),,B00BHSGRHE,,,ES,,,,true,1,19069001,0,0,0,0,,,,0,0,0,0,0,0.00,,,,0,0,エルプロモーション,,,,,,,0,,
19069501,,結婚の才能 (Japanese Edition),,B009AAE3HM,,,ES,,,,true,1,19069501,0,0,0,0,2010/4/20,,,0,0,0,0,0,0.00,,,,0,0,小倉 千加子,,,,,,,0,,
19070001,,The Boomerang Effect,,B008MC1BV0,,,ES,,,,true,4,15745205,440,272,64,28,2012/7/7,,book,32,20,9,2,1,4.25,,,,9,1,Lindy Spencer,,,,,,338,4,15,"contemporary,crime,horror,mystery,novels,thriller"
19070501,,Why Catholicism Matters: How Catholic Virtues Can Reshape Society in the Twenty-First Century,,B0064C34GU,,,ES,,,,true,2,19070501,15,28,6,0,2012/1/1,,,4,2,0,0,0,4.67,,,,6,0,William Dr Donohue,,,,,,7,0,1,self-help
19071001,,"Dani Sexy:  College Girl Gets Naked [Erotica Nude Photo Ebook] Beautiful Boobs, Sexy Pussy, Lovely Legs, and Hot Body (EroticaSexy Women, #5)",,B00EKLM8A0,,,ES,,,,true,1,19071001,5,5,1,0,2013/8/13,,,1,0,0,0,0,5.00,,,,1,0,EroticaSexy Studio,,,,,,3,0,1,
19071501,,The Knights Revealed,,B004P5P1VY,,,ES,,,,true,2,11944446,3,9,2,0,2011/3/8,The Knights Revealed,,1,1,0,0,0,4.50,,,,0,0,Heidi Jo Lopez,,,,,,1,0,,
19072001,,101 Conversation Starters for Couples,,B007QTLZGG,,,ES,,,,true,3,12907992,663,794,208,9,2012/3/21,,book,72,59,51,19,7,3.82,,,,97,0,"Gary Chapman,Ramon L. Presson",,,,,,250,5,91,"amazon,christian,love,marriage,non-fiction,personal-development,relationships,self-help"
19072501,,Fallen Angels,,,,,ES,2012/5/23,,eng,true,1,19072501,3,4,1,0,2012/5/23,,book,0,1,0,0,0,4.00,284,ebook,,1,0,BuffyMeetsSpike,,,,,,1,0,,
19073001,,The Pack's Reluctant Mate,,B00E01L5YA,,,ES,,,eng,true,2,19073001,18,13,6,0,2013/7/16,,book,0,0,3,1,2,2.17,,,,6,0,Francis Ashe,,,,,,9,1,,
19073501,,The Birth Order Book: Why You Are the Way You Are,,B008L03UI0,,,ES,,,eng,true,8,48760,10382,19239,5101,649,1984/1/1,The Birth Order Book: Why You Are the Way You Are,book,1338,1823,1468,381,91,3.77,,,,143,5,Kevin Leman,,,,,,1172,28,475,"adult,business,christian,education,family,leadership,marriage,non-fiction,parenting,personal-development,philosophy,psychology,reference,relationships,science,self-help,sociology,teen,unfinished"
19074001,,A Well-Heeled Kangaroo (Mental Laxatives for a Constipated Mind),,B00AG3AO8E,,,ES,,,,true,1,19074001,1,0,0,0,2012/11/29,,,0,0,0,0,0,0.00,,,,0,0,Donald E. Pederson,,,,,,1,0,,
19074501,,The Children's Hour Summary & Study Guide | Lillian Hellman,,B005KRAN1E,,,ES,,,,true,1,19074501,0,0,0,0,2011/9/1,,,0,0,0,0,0,0.00,,,,0,0,BookRags,,,,,,,0,,
19075001,,TOEIC High Score Vocabulary List (2013) - A Specially Selected List of TOEIC Vocabulary Words Guaranteed To Increase Your Score (TOEIC Made Easy),,B00ALFSLHS,,,ES,,,,true,1,19075001,5,1,1,0,2012/12/8,,,0,0,0,0,1,1.00,,,,1,0,Timothy Dickeson,,,,,,3,0,,
19075501,,Hellraisers (Sawbones),,B00GAC1KJ2,,,ES,,,,true,1,19075501,1,0,0,0,2013/10/28,,,0,0,0,0,0,0.00,,,,0,0,Marvin W. Bronson,,,,,,1,0,,
19076001,,西炯子エッセイ集　生きても生きても (フラワーコミックス) (Japanese Edition),,B00A7LFXWM,,,ES,,,,true,1,19076001,0,0,0,0,2011/11/15,,,0,0,0,0,0,0.00,,,,0,0,西炯子,,,,,,,0,,
19076501,,Green Screen Glamour Photography Made Easy: How to Create Beautiful Composite Glamour Images Using Green Screen Technology,,B00BPZIUVU,,,ES,,,,true,1,19076501,3,0,0,0,2013/3/6,,,0,0,0,0,0,0.00,,,,0,0,Jack Watson,,,,,,1,0,1,
19077001,,One More Lie,9780910355056,,,,ES,2011/9/28,Smashwords Edition,,true,3,19077001,232,426,111,10,2011/9/28,,book,36,40,21,9,5,3.84,,ebook,,91,4,James Scott Bell,,,,,,71,3,26,"christian,christian-fiction,contemporary,mystery,thriller"
19077501,,A Little Local Affair,,B006RKMGBS,,,ES,,,,true,1,19077501,37,36,11,1,2011/12/29,,,1,4,3,3,0,3.27,,,,11,1,John Barber,,,,,,18,1,2,"cozy-mystery,mystery"
19078001,,"ideals: Soup, Salad, and Sandwich",,,,,ES,1981/1/1,Ideals Publishing Corporation,eng,false,1,19078001,1,0,0,1,1981/1/1,,book,0,0,0,0,0,0.00,63,,,0,1,"June Turner,Naomi Arbit",,,,,,1,0,,
19078501,,新装版 怪異いかさま博覧亭 二: 2 (電撃ジャパンコミックス) (Japanese Edition),,B0093T5HKC,,,ES,,,,true,1,19078501,0,0,0,0,2011/10/15,,,0,0,0,0,0,0.00,,,,0,0,小竹田 貴弘,,,,,,,0,,
19079001,,ゴルゴ13（２２） (Japanese Edition),,B00BTRMKH4,,,ES,,,,true,1,19079001,1,0,0,0,,,,0,0,0,0,0,0.00,,,,0,0,Takao Saito,,,,,,1,0,,
19079501,,夏のあらし！7巻 (デジタル版ガンガンコミックスJOKER) (Japanese Edition),,B009UP3FKS,,,ES,,,,true,2,13485943,3,7,2,0,2010/3/20,,book,0,1,1,0,0,3.50,,,,0,0,Jin Kobayashi,,,,,,1,0,,manga
19080001,,鷺と鴛鴦 [Sagi to oshidori],,B009AKCMQG,,,ES,,,jpn,true,1,19080001,0,0,0,0,2012/9/13,,book,0,0,0,0,0,0.00,,,,0,0,Ryūnosuke Akutagawa,,,,,,,0,,
19080501,,六花の勇者　３ (集英社スーパーダッシュ文庫) (Japanese Edition),,B00C7PU8G2,,,ES,,,,true,3,17696595,292,643,152,13,2012/11/22,六花の勇者 ３,book,64,66,16,5,1,4.23,,,,0,0,Ishio Yamagata,,,,,,104,5,2,"dark,demons,fantasy,high-fantasy,manga,mystery,supernatural,thriller,young-adult"
19081001,,NICHT OHNE MEIN PFERD - interessante Pferdegeschichte (German Edition),,B00EMZYNU2,,,ES,,,,true,1,19081001,0,0,0,0,2013/9/5,,,0,0,0,0,0,0.00,,,,0,0,Rita H Naumann,,,,,Dr. Katarina Habermann,,0,,
19081501,,Bohemian Glass Street 4 (Japanese Edition),,B00CDB2ZL6,,,ES,,,,true,1,19081501,1,0,0,0,2013/4/15,,,0,0,0,0,0,0.00,,,,0,0,Kazumasa Hirai,,,,,,1,0,,
19082001,,Mademoiselle Gigi (Gigi series),,B00H01TTAY,,,ES,,,eng,true,4,18879727,487,186,43,13,2013/11/17,,book,30,4,5,1,3,4.33,,,,7,1,Dennis  Ward,,,,,,431,6,2,"historical,historical-fiction"
19082501,,World of Warcraft: Dark Riders,9781401245658,,,,ES,,,,true,3,15823462,766,759,206,20,2013/5/7,,book,58,56,67,19,6,3.68,,,,23,0,Mike Costa,Neil Googe,,,,,515,10,2,"action,adventure,american,comics,dark,epic-fantasy,fantasy,fiction,graphic-novels,graphic-novels-comics,magic"
19083001,,"Mondo Agnelli: Fiat, Chrysler, and the Power of a Dynasty",,B006DE9TV8,,,ES,,,,true,7,13076997,207,396,99,8,2011/11/21,,,27,48,21,3,0,4.00,,,,31,1,Jennifer Clark,,,,,,83,3,12,"biography,business,history"
19083501,,"Hashi Mo., das Hashimoto-Monster (German Edition)",,B00DV1YQNC,,,ES,,,,true,1,19083501,1,0,0,0,2013/7/9,,,0,0,0,0,0,0.00,,,,0,0,"Kerstin Burkard,Marius Cramer",,,,,,1,0,,medical
19084001,,After the Rain,,B005FZ0RAI,,,ES,,,eng,true,8,44567624,144,144,39,4,2011/8/3,After the Rain,book,9,15,9,6,0,3.69,,,,28,2,Philip  Cox,,,,,,83,15,5,"amazon,contemporary,romance"
19084501,145266918X,Scandal in Skibbereen,9781452669182,,,,ES,2014/2/4,Tantor Media,,false,7,18210674,3632,7862,2032,223,2014/2/4,,book,524,840,559,96,13,3.87,,Audio CD,,0,0,Sheila Connolly,,,,,Amy Rubinate,742,35,98,"adult,art,contemporary,cozy-mystery,crime,fiction,international,murder-mystery,mystery,mystery-thriller"
19085001,0373606230,Danger in the Desert / Strangers When We Meet,9780373606238,,,,ES,2014/4/15,Harlequin,eng,false,3,19085001,15,14,3,0,2014/4/15,,book,2,1,0,0,0,4.67,384,Paperback,,3,0,Merline Lovelace,,,,,,10,0,1,
19085501,,Little Dragon  Toddlers Storytime Series,,,,,ES,,,,false,1,19085501,2,0,0,0,,,book,0,0,0,0,0,0.00,,,,0,0,Lucy Kincaid,Eric Kincaid,,,,,1,0,,
19086001,,Spanier zum Frühstück - Vorsaison (German Edition),,B00EASJQ5I,,,ES,,,,true,1,19086001,3,5,2,0,2013/8/1,,,0,0,1,1,0,2.50,,,,2,0,Kristine Weitzels,,,,,,1,0,,"fiction,romance"
19086501,,"Imus, Mike and the Mad Dog, & Doris from Rego Park: The Groundbreaking History of WFAN",9781623683122,,,,ES,,,,true,5,17802336,96,217,63,6,2013/1/1,,,9,26,17,6,5,3.44,,,,21,0,Tim Sullivan,,,,,,19,1,4,sports
19087001,,Apollo 37,,B00C2GRTOK,,,ES,,,,true,1,19087001,4,3,1,0,2013/3/27,,,0,0,1,0,0,3.00,,,,1,0,Kenneth Burstall,,,,,,1,0,,
19087501,,Die Sache mit Sorge: Stalins Spion in Tokio (German Edition),9783646720174,,,,ES,,,,true,10,3658307,135,302,94,15,2008/4/1,Die Sache mit Sorge: Stalins Spion in Tokio,book,8,26,41,16,3,3.21,,,,0,0,Isabel Kreitz,,,,,,28,4,,"comics,graphic-novels,historical,history,non-fiction,war"
19088001,,Auch wir sind Deutschland: Ohne uns geht nicht. Ohne euch auch nicht. (German Edition),9783864132223,,,,ES,,,,true,1,19088001,3,1,1,0,2013/9/11,,,0,0,0,0,1,1.00,,,,1,0,"Anis Mohamed Youssef Ferchichi,Marcus Staiger",,,,,,1,0,,
19088501,,課長　島耕作（１２） (モーニングKC (249)) (Japanese Edition),,B009KWUI1K,,,ES,,,,true,1,19088501,0,0,0,0,1991/5/23,,,0,0,0,0,0,0.00,,,,0,0,弘兼憲史,,,,,,,0,,manga
19089001,9728487150,O Manuscrito Durruti : uma história em que se promete mais do que se dá e em que todos parecem condenados a nunca se encontrarem,,,,,ES,1999/6/1,Câmara Municipal de Lisboa,por,false,1,19089001,5,16,5,0,1999/6/1,,book,0,2,2,1,0,3.20,20,Paperback,,5,0,Rafael Gouveia,,,,,,,0,,comics
19089501,,Salt Water The Sea Life and Adventures of Neil D'Arcy the Midshipman,,B0082WQJRG,,,ES,,,eng,true,26,19089501,8,12,3,0,1858/1/1,,book,1,1,1,0,0,4.00,,,,3,0,W.H.G. Kingston,C.J. de Lacey,,,,,5,0,,
19090001,,Ich bin - Punkt! (German Edition),,B00FKEERTG,,,ES,,,,true,1,19090001,0,0,0,0,2013/9/30,,,0,0,0,0,0,0.00,,,,0,0,Heike Denzer,,,,,,,0,,
19090501,,The Desperate Fay King (Kidnapped by a Fay 1),,B006OO7ORS,,,ES,,,en-GB,true,3,13064659,117,127,40,5,2011/11/24,,book,8,7,12,10,3,3.17,,,,10,0,Dakota Dawn,,,,,,44,7,2,"contemporary,fantasy,gay,magic,menage,paranormal"
19091001,,Grandmother's Secrets: The Ancient Rituals and Healing Power of Belly Dancing,,B00AAL5IZG,,,ES,,,,true,4,424203,531,961,252,36,1999/1/1,Grandmother's Secrets: The Ancient Rituals and Healing Power of Belly Dancing,book,76,78,76,19,3,3.81,,,,3,1,Rosina-Fawzia Al-Rawi,,,,Monique Arav,,212,12,16,"anthropology,biography,cultural,health,historical,history,inspirational,memoir,music,non-fiction,self-help,spirituality"
19091501,,The Minions of Time: 4 (The Wormling),9781414365268,,,,ES,,,,true,4,2272698,634,1432,337,17,2008/1/10,Minions of Time (The Wormling),book,163,108,54,11,1,4.25,,,,36,3,"Chris Fabry,Jerry B. Jenkins",,,,,,194,14,4,"chapter-books,childrens,christian,christian-fiction,contemporary,fantasy,fiction,middle-grade,science-fiction-fantasy,young-adult"
19092001,,"Matthew in History: Interpretation, Influence, and Effects",9781451419405,,,,ES,,,,true,1,19092001,1,0,0,0,1994/10/1,,,0,0,0,0,0,0.00,,,,0,0,Ulrich Luz,,,,,,1,1,,
19092501,,Flash 52: 52 Writing Prompts for a Year of Flash Fiction,,B007AXE6O6,,,ES,2012/2/18,Brazen Snake Books,en-GB,true,2,19092501,6,3,1,0,2012/2/18,,book,0,0,1,0,0,3.00,61,Kindle Edition,,1,0,Jamie DeBree,,,,,,2,0,1,
19093001,,刺身が生なんだが (Japanese Edition),,B00F3WRXK0,,,ES,,,,true,1,19093001,0,0,0,0,,,,0,0,0,0,0,0.00,,,,0,0,フミコ フミオ,,,,,,,0,,
19093501,,Your Mother's Love (Parent's Love - one of two book set),,B007XL0E0U,,,ES,,,,true,3,14430466,320,61,14,2,2012/4/25,,book,9,3,0,2,0,4.36,,,,9,0,Niki Alling,,,,,,295,2,,fiction
19094001,,Black & White Nude Photography,9781584285168,,,,ES,,,,true,2,6085434,11,11,3,0,1997/7/1,Black & White Nude Photography,,1,0,2,0,0,3.67,,,,0,0,Stan Trampe,,,,,,5,0,,
19094501,,31 Bible Verses By Subject Master Collection Volume 1,,B007JMI9M8,,,ES,,,,true,1,19094501,6,17,4,0,2012/3/11,,,2,1,1,0,0,4.25,,,,4,0,Charis Brown,,,,,,,0,1,
19095001,,The Years Between,,B008400VBG,,,ES,,,,true,50,6640159,78,58,17,4,1919/1/1,The Years Between,book,2,5,8,2,0,3.41,,,,0,0,Rudyard Kipling,,,,,,56,1,,"fiction,non-fiction,poetry"
19095501,,???? (Chinese Edition),,B00CODM1DA,,,ES,,,,true,1,19095501,0,0,0,0,2012/12/1,,,0,0,0,0,0,0.00,,,,0,0,???,,,,,,,0,,
19096001,,Paladins of Shannara: The Black Irix (short story),9780356503240,,,,ES,,,,true,4,17695360,5810,6043,1511,71,2013/1/1,,book,555,490,388,66,12,4.00,,,,76,0,Terry Brooks,,,,,,3731,23,94,"adult,adventure,english-literature,epic,epic-fantasy,fantasy,fiction,high-fantasy,science-fiction,science-fiction-fantasy,short-stories"
19096501,,凍牌（とうはい）-裏レート麻雀闘牌録-(1) (ヤングチャンピオン・コミックス) (Japanese Edition),,B00AQY8CFA,,,ES,,,,true,1,19096501,0,0,0,0,2006/12/20,,,0,0,0,0,0,0.00,,,,0,0,志名坂高次,,,,,,,0,,
19097001,,Zoom City,,,,,ES,,,,false,2,19097001,4,8,2,0,1998/1/1,,book,1,0,1,0,0,4.00,32,,,2,0,"Jonathan Adams,Rob Alcraft",,,,,,1,0,,"non-fiction,picture-books"
19097501,,Lizards: Picture Book (Educational Children's Books Collection) - Level 2 (Planet Collection),,B008FTSQYK,,,ES,,,,true,1,19097501,1,5,1,0,2012/6/28,,,1,0,0,0,0,5.00,,,,1,0,Planet Collection,,,,,,,0,,
19098001,,Voltar do Amanhã,,,,,ES,,Círculo de Leitores,,false,16,824844,4573,9948,2390,382,1978/7/1,Return from Tomorrow,book,1089,776,387,100,38,4.16,,,,1,0,George G. Ritchie,,,,,,1630,11,190,"autobiography,biography,christian,christianity,inspirational,memoir,non-fiction,paranormal,philosophy,religion,self-help,spirituality,theology"
19098501,,How To Recognize A Good Man When You Meet Him,,B0076CN372,,,ES,,,,true,2,13266864,60,48,11,4,2011/8/30,,,7,2,1,1,0,4.36,,,,5,0,Carol Grier,,,,,,45,1,1,relationships
19099001,,Mistress Mercy's Memoirs - Book One,,B00DW0N95S,,,ES,,,,true,1,19099001,5,5,1,0,2013/7/11,,,1,0,0,0,0,5.00,,,,1,0,"DaddyJ,Mistress Mercy",,,,,,2,0,1,
19099501,0062126954,"Watch Out, Hollywood!: More Confessions of a So-called Middle Child",9780062126955,,,,ES,2014/8/26,HarperCollins,,true,5,19346444,445,237,59,8,2014/8/26,,,24,19,11,3,2,4.02,224,ebook,,10,1,Maria T. Lennon,,,,,,376,6,2,"animals,childrens,comedy,contemporary,drama,fiction,humor,middle-grade,nature,realistic-fiction,relationships,school,travel"
19100001,,Cuentos de cabecera,9788494112560,,,,ES,2013/1/1,Satori Ediciones,spa,false,8,12218696,974,965,244,27,1945/1/1,お伽草子 [Otogizōshi],book,71,106,53,13,1,3.95,205,Hardcover,,42,8,Osamu Dazai,,,,,,522,15,20,"anthologies,classics,fairy-tales,fantasy,fiction,literature,manga,mythology,novella,retellings,short-stories"
19100501,,彼方から 7 (白泉社文庫) (Japanese Edition),,B00DMUD9N0,,,ES,,,,true,3,25007442,58,116,26,5,2005/3/1,彼方から 7,book,12,14,0,0,0,4.46,,,,1,0,Kyoko Hikawa,,,,,,25,1,1,"comics,fantasy,manga"
19101001,0307876012,The Arsonist,9780307876010,,,,ES,2014/6/24,Random House Audio,,false,15,19100997,11712,18618,5737,863,2014/1/1,,book,542,1705,2346,906,238,3.25,10,Audio CD,Unabridged,11,1,Sue Miller,,,,,,4876,51,153,"adult,adult-fiction,american,chick-lit,contemporary,crime,drama,family,fiction,historical-fiction,literary-fiction,literature,mystery,mystery-thriller,novels,realistic-fiction,relationships,romance,suspense,unfinished"
19101501,,Vie d'Epicure (Michel Onfray) (French Edition),9782367530499,,,,ES,,,,true,1,19101501,11,12,3,0,2013/2/8,,,0,3,0,0,0,4.00,,,,3,0,Diogene Laerce,,,,,,6,0,,
19102001,,めるぷり メルヘン☆プリンス 2,,B00DMUE82Q,,,ES,,,jpn,true,11,1404466,9769,32831,7727,60,2003/9/5,めるぷり メルヘン☆プリンス 2,book,4389,1679,1075,361,223,4.25,,,,0,0,Matsuri Hino,,,,,,1534,64,12,"adventure,comics,drama,fantasy,fiction,funny,graphic-novels,high-school,humor,magic,manga,paranormal,romance,school,supernatural,teen,young-adult"
19102501,,"Outside, That Door (Outside, That Door ~ Volume One)",,B005CCQQYK,,,ES,,,,true,5,17207733,42,24,6,3,2011/5/13,,book,3,1,1,1,0,4.00,,,,2,0,Judith Johnson Kypta,,,,,,27,3,1,"fantasy,romance,time-travel"
19103001,,Praying to Change Your Life: 1,,B0051GN7VC,,,ES,,,,true,1,19103001,28,57,13,2,2009/4/28,,,10,1,0,1,1,4.38,,,,13,2,Suzette T Caldwell,,,,,,6,0,7,
19103501,,Królowa Jadwiga,,,,,ES,1975/1/1,,pol,false,2,19103501,2,5,2,0,1975/1/1,,book,0,0,1,1,0,2.50,162,Paperback,,1,0,Jadwiga Stabinska,,,,,,,0,,
19104001,0615755283,The Royal Book of Oz,9780615755281,,,,ES,2013/1/22,Wizard of Baum,,false,99,638559,12912,26680,6602,46,1921/1/1,The Royal Book of Oz,book,2764,1910,1470,352,106,4.04,318,Paperback,,5,1,"L. Frank Baum,Ruth Plumly Thompson",,,,,,5964,18,90,"adventure,american,childrens,classic-literature,classics,fairy-tales,fantasy,fiction,humor,juvenile,magic,middle-grade,novels,young-adult"
19104501,061591554X,Zeppelin Tales,9780615915548,,,,ES,2013/11/4,Airship 27,,false,2,19104501,4,5,1,1,2013/11/4,,,1,0,0,0,0,5.00,182,Paperback,,1,1,"I.A. Watson,Jim Beard",,,,,,2,0,,anthologies
19105001,,Yesterday's News (The John Cuddy Mysteries),,B007OZA7MU,,,ES,,,,true,12,2766542,113,235,64,4,1989/7/1,Yesterday's News,book,10,26,25,3,0,3.67,,,,7,1,Jeremiah Healy,,,,,,24,3,2,"cozy-mystery,fiction,mystery,mystery-thriller"
19105501,,جدد حياتك  - ابراهيم الفقي,,,,,ES,,,ara,false,2,19105501,2802,2225,546,11,2012/1/1,,book,274,126,84,37,25,4.08,95,,,538,11,إبراهيم الفقي,,,,,,1881,5,126,"non-fiction,self-help"
19106001,,Berlitz Ireland Travel Guide,,,,,ES,1980/1/1,,eng,false,1,19106001,1,3,1,0,1980/1/1,,book,0,0,1,0,0,3.00,128,Paperback,,1,0,Ken Bernstein,,,,,,,0,,
19106501,0983366373,P.D. (Puppy Dog) Brown: Learns How to Fly,9780983366379,,,,ES,2012/3/4,Laptoppublishing.com,,false,1,19106501,1,5,1,0,2012/3/4,,,1,0,0,0,0,5.00,28,Paperback,,1,0,Karl J. Niemiec,,,,,,,0,,
19107001,0988891638,The Photo Traveler,9780988891630,,,,ES,2013/2/28,Arthur J Gonzalez,eng,false,6,17364276,1562,729,187,67,2013/2/16,,book,64,64,40,14,5,3.90,420,Paperback,,1,0,Arthur J. Gonzalez,,,,,,1325,19,11,"abuse,amazon,fantasy,fiction,historical,paranormal,science-fiction,supernatural,time-travel,urban-fantasy,young-adult"
19107501,,WORST（１４） (少年チャンピオン・コミックス) (Japanese Edition),,B00AQY89O4,,,ES,,,,true,1,19107501,0,0,0,0,2006/4/7,,,0,0,0,0,0,0.00,,,,0,0,高橋 ヒロシ,,,,,,,0,,
19108001,,Living the Season: Zen Practice for Transformative Times,9780835630870,,,,ES,,,,true,1,19108001,0,0,0,0,2013/9/9,,,0,0,0,0,0,0.00,,,,0,0,Ji Hyang Padma,,,,,,,0,,
19108501,,Bound Demon,,,,,ES,2013/11/22,Not So Noble Books Paranormal Romance Publisher,eng,true,3,18884891,134,123,34,7,2013/11/1,,book,11,10,5,5,3,3.62,162,Kindle Edition,,0,0,Claire Spoors,,,,,,76,11,3,"amazon,bdsm,contemporary,erotica,fantasy,paranormal"
19109001,145361169X,"The Historic Significance of the Southern Revolution: A Lecture Delivered by Invitation in Petersburg, Va, March 14th, and April 29th, 1864. and in Richmond, Va., April 7th and April 21st, 1864.",9781453611692,,,,ES,2010/6/7,Createspace Independent Publishing Platform,,false,4,27005770,0,0,0,0,,,book,0,0,0,0,0,0.00,66,Paperback,,0,0,William A. Hall,,,,,,,0,,
19109501,1460953363,I & I Yoga: Inversion & Introversion,9781460953365,,,,ES,2011/4/5,Createspace,,false,1,19109501,0,0,0,0,2011/4/5,,,0,0,0,0,0,0.00,48,Paperback,,0,0,Atma Ananda,,,,,,,0,,
19110001,1461589142,"Fluctuations, Instabilities, and Phase Transitions",9781461589143,,,,ES,2012/11/25,Springer,,false,3,19110001,0,0,0,0,1975/11/1,,,0,0,0,0,0,0.00,389,Paperback,,0,0,,,,Tormod Riste,,,,0,,
19110501,,Deviant Sexual Desires,9781304088130,,,,ES,,,,true,4,18043359,56,63,15,3,2013/5/31,Deviant Sexual Desires,book,10,2,1,0,2,4.20,,,,2,0,Sanina,SuperInk Online,,"Christiana Harrell,Phoenix  Rising",,,37,1,1,
19111001,1466403381,The Crowd: A Study of the Popular Mind,9781466403383,,,,ES,2011/9/21,Createspace,,false,314,12091888,29513,29490,7606,1098,1895/1/1,La Psychologie des Foules ,book,2047,3244,1784,396,135,3.88,126,Paperback,,0,0,Gustave Le Bon,,,,,,17402,28,2004,"anthropology,business,classics,college,economics,education,france,history,non-fiction,philosophy,politics,psychology,science,social,society,sociology,unfinished"
19111501,,Modern One-Block Quilts: 22 Fresh Patchwork Projects,,B00EZZHV12,,,ES,,,,true,3,17723100,112,217,55,7,2013/9/1,,,16,24,11,4,0,3.95,,,,15,1,"Kathleen Whiting,Natalia Bonner",,,,,,32,2,10,"modern,non-fiction"
19112001,146997570X,Black Beauty: The Autobiography of a Horse,9781469975702,,,,ES,2012/1/26,Createspace Independent Publishing Platform,,false,282,3685,274847,844993,213770,4091,1877/11/24,Black Beauty,book,78043,68264,50845,12569,4049,3.95,222,Paperback,,0,0,Anna Sewell,,,,,,54011,450,2293,"adventure,animals,british-literature,childrens,classic-literature,classics,drama,fantasy,fiction,historical,historical-fiction,juvenile,literature,middle-grade,novels,realistic-fiction,school,victorian,young-adult"
19112501,,Face To Face With God: The Ultimate Quest to Experience His Presence,,B004TGT6CO,,,ES,,,,true,13,1758153,2513,4516,997,62,2007/8/21,Face Time With God: Transform Your Life With His Daily Presence,book,682,207,76,18,14,4.53,,,,39,3,Bill Johnson,,,,,,342,15,102,"christian,christianity,faith,non-fiction,personal-development,religion,self-help,spirituality,theology"
19113001,1475247044,Religious Profession: A Commentary on a Chapter of the New Code of Canon Law,9781475247046,,,,ES,2012/4/24,Createspace Independent Publishing Platform,,false,1,19113001,0,0,0,0,2012/4/24,,,0,0,0,0,0,0.00,104,Paperback,,0,0,Hector Papi S J,,,,,,,0,,
19113501,1477451404,Midnight Confession: A Short Story,9781477451403,,,,ES,2012/5/10,Createspace Independent Publishing Platform,,false,2,19113501,0,0,0,0,2012/5/10,,,0,0,0,0,0,0.00,30,Paperback,,0,0,Marie H Castaldi,,,,,,,0,,
19114001,1477646086,The Chessmen of Mars,9781477646083,,,,ES,2012/6/13,Createspace Independent Publishing Platform,,false,2,40378,11704,25168,6582,240,1922/11/1,,book,1739,2397,2044,351,51,3.82,310,Paperback,,0,0,Edgar Rice Burroughs,,,,,,3299,14,297,"action,adventure,aliens,american,classic-literature,classics,fantasy,fiction,novels,romance,science,science-fiction,science-fiction-fantasy,speculative-fiction,young-adult"
19114501,,Wolfengruft (German Edition),9783646924169,,,,ES,,,,true,5,11358250,297,317,78,5,2011/6/1,"Wolven. Bad Wolf Rising (Wolven, #3)",book,35,20,16,7,0,4.06,,,,2,0,Di Toft,,,,Ilse Rothfuss,,48,3,,"adventure,british-literature,childrens,fantasy,horror,paranormal,teen,time-travel,vampires,werewolves,young-adult"
19115001,1478252901,Germinal,9781478252900,,,,ES,2012/7/17,Createspace Independent Publishing Platform,,false,79,28407,53689,104279,25319,1024,1885/3/1,Germinal,book,10978,8534,4151,1144,512,4.12,374,Paperback,,0,0,Émile Zola,,,,,,23198,212,782,"adult,classic-literature,classics,college,cultural,drama,european-literature,fiction,france,historical,historical-fiction,history,literary-fiction,literature,novels,philosophy,politics,school"
19115501,,No Buttons Or Beaux,,B00CKD91HS,,,ES,,,en-GB,true,3,922798,253,430,105,8,2006/6/1,No Buttons or Beaux (Heartsong Presents #704),,43,35,21,6,0,4.10,,,,29,1,Cathy Marie Hake,,,,,,101,4,3,"christian,christian-fiction,historical,romance"
19116001,,Komodo Dragons! Learn About Komodo Dragons and Enjoy Colorful Pictures - Look and Learn! (50+ Photos of Komodo Dragons),,B008UZYOZO,,,ES,,,,true,2,19116001,16,13,5,2,2012/8/7,,book,1,1,0,1,2,2.60,,,,5,2,Becky Wolff,,,,,,7,1,2,"animals,nature,non-fiction"
19116501,1479260606,Chicot the Jester,9781479260607,,,,ES,2012/9/11,Createspace Independent Publishing Platform,,false,169,577060,2094,3777,898,57,,,book,404,318,141,27,8,4.21,748,Paperback,,0,0,Alexandre Dumas,,,,,,940,10,34,"adventure,classic-literature,classics,european-literature,fiction,france,historical,historical-fiction,history,literature,novels,politics,romance"
19117001,1479373893,Nan� a Milano,9781479373895,,,,ES,2012/9/24,Createspace Independent Publishing Platform,,false,6,13722779,10,12,4,0,2011/3/25,,book,0,1,2,1,0,3.00,212,Paperback,,0,0,Cletto Arrighi,,,,,,3,0,,
19117501,1480065536,Mon Frere Yves,9781480065536,,,,ES,2012/10/7,Createspace Independent Publishing Platform,,false,27,10912044,44,60,16,2,1883/1/1,Mon frère Yves,book,2,8,6,0,0,3.75,192,Paperback,,0,0,Pierre Loti,,,,,,19,1,1,
19118001,1480205273,Under Western Eyes,9781480205277,,,,ES,2012/10/29,Createspace Independent Publishing Platform,,false,3,143511,6189,9158,2467,205,1911/1/1,Under Western Eyes,book,568,927,724,190,58,3.71,266,Paperback,,0,0,Joseph Conrad,,,,,,2897,24,166,"british-literature,classics,crime,english-literature,fiction,historical,historical-fiction,history,literary-fiction,literature,mystery,novels,politics,unfinished"
19118501,1481008692,The Unclassed,9781481008693,,,,ES,2012/11/14,Createspace Independent Publishing Platform,,false,13,1323790,165,322,81,7,1883/1/1,The Unclassed,book,23,36,20,1,1,3.98,292,Paperback,,0,0,George Gissing,,,,,,69,2,,"classic-literature,classics,fiction,literary-fiction,literature,novels,victorian"
19119001,1481121863,"Secrets and Shadows of the Missing (Living Dreams, #3)",9781481121866,,,,ES,2012/11/29,Createspace Independent Publishing Platform,,false,7,15761928,52,40,8,4,2012/3/19,The Warning,book,8,0,0,0,0,5.00,238,Paperback,,0,0,Tarian Green,,,,,,41,1,,mystery
19119501,1481244957,Adventures of a Feckless Serial Dater,9781481244954,,,,ES,2012/12/13,Createspace,,false,1,19119501,0,0,0,0,2012/12/13,,book,0,0,0,0,0,0.00,150,Paperback,,0,0,Jim Green,,,,,,,0,,
19120001,1481846140,The Eagle Cliff,9781481846141,,,,ES,2012/12/26,Createspace Independent Publishing Platform,,false,25,5813583,21,17,4,2,1889/1/1,The Eagle Cliff,book,1,3,0,0,0,4.25,168,Paperback,,0,0,R.M. Ballantyne,,,,,,14,0,,"adventure,fiction"
19120501,1481963929,"The Pioneers: Or, the Sources of the Susquehanna",9781481963923,,,,ES,2013/1/11,Createspace Independent Publishing Platform,,false,320,38290,7191,9035,2674,121,1823/1/1,"The Pioneers, or The Sources of the Susquehanna; a Descriptive Tale",book,480,795,846,364,189,3.38,392,Paperback,,0,0,James Fenimore Cooper,,,,,,3844,21,103,"academic,adult-fiction,adventure,american,american-history,canon,classic-literature,classics,college,fiction,grad-school,historical,historical-fiction,history,literary-fiction,literature,novels,school,unfinished,war"
19121001,1482094916,Ungez�hltes: Eine Reihe Zuf�lliger Begebenheiten,9781482094916,,,,ES,2013/1/28,Createspace Independent Publishing Platform,,false,1,19121001,1,5,1,0,2013/1/28,,,1,0,0,0,0,5.00,204,Paperback,,1,0,Daniela Noitz,,,,,,1,0,,
19121501,1482517604,Wyoming 3rd Grade Math Test Prep: Common Core Learning Standards,9781482517606,,,,ES,2013/2/11,Createspace,,false,1,19121501,0,0,0,0,2013/2/11,,,0,0,0,0,0,0.00,218,Paperback,,0,0,Teachers' Treasures,,,,,,,0,,
19122001,1482665085,Die Chronik der Sperlingsgasse,9781482665086,,,,ES,2013/3/1,Createspace,ger,false,42,2000236,85,132,40,3,1856/1/1,Die Chronik der Sperlingsgasse,book,3,12,19,6,0,3.30,130,Paperback,,0,0,Wilhelm Raabe,,,,,,26,2,2,"biography,classics,fiction,literature"
19122501,1482759950,Der Wittiber: Ein Bauernroman,9781482759952,,,,ES,2013/3/13,Edition Holzinger,ger,false,9,14637257,8,15,5,1,1911/1/1,Der Wittiber,book,0,2,2,0,1,3.00,144,Paperback,,0,0,Ludwig Thoma,,,,,,1,1,,fiction
19123001,1483967840,Pierre Grassou,9781483967844,,,,ES,2013/3/26,Createspace Independent Publishing Platform,,false,12,6597519,156,227,68,5,1840/1/1,Pierre Grassou,book,9,21,24,12,2,3.34,50,Paperback,,0,0,Honoré de Balzac,,,,,,75,6,,"art,classics,fiction,france,short-stories,social"
19123501,1484109627,The Life of St. Stanislas Kostka: Of the Society of Jesus,9781484109625,,,,ES,2013/4/13,Createspace Independent Publishing Platform,,false,1,19123501,0,0,0,0,2013/4/13,,,0,0,0,0,0,0.00,352,Paperback,,0,0,Anonymous Jesuit,,,,,,,0,,
19124001,1484809750,100 of the Top Video Games of All Time,9781484809754,,,,ES,2013/4/25,Createspace Independent Publishing Platform,,false,1,19124001,0,0,0,0,2013/4/25,,,0,0,0,0,0,0.00,30,Paperback,,0,0,"Alexander Trost,Vadim Kravetsky",,,,,,,0,,
19124501,1484904079,Vorschule Der Asthetik (Grodruck),9781484904077,,,,ES,2013/5/8,Createspace Independent Publishing Platform,,false,10,30817960,1,0,0,0,,,,0,0,0,0,0,0.00,572,Paperback,,0,0,Jean Paul Friedrich Richter,,,,,,1,0,,
19125001,1489511903,All's Well That Ends Well,9781489511904,,,,ES,2013/5/20,Createspace Independent Publishing Platform,,false,615,104790,25792,46375,12697,514,1602/1/1,All's Well That Ends Well,book,2750,4234,4461,1054,198,3.65,92,Paperback,,0,0,William Shakespeare,,,,,,9102,100,321,"adult,adult-fiction,british-literature,classic-literature,classics,college,comedy,drama,english-literature,fiction,historical,historical-fiction,humor,literary-fiction,literature,plays,poetry,romance,school,theatre"
19125501,1490341420,"The Best Ever Book of Money Saving Tips for Uruguayans: Creative Ways to Cut Your Costs, Conserve Your Capital and Keep Your Cash",9781490341422,,,,ES,2013/7/21,Createspace Independent Publishing Platform,,false,1,19125501,0,0,0,0,2013/7/21,,,0,0,0,0,0,0.00,106,Paperback,,0,0,Mark Geoffrey Young,,,,,,,0,,
19126001,1490434267,The English Fairy Tales of Joseph Jacobs for Modern Reader,9781490434261,,,,ES,2013/6/13,Createspace Independent Publishing Platform,eng,false,136,8228407,4654,5579,1512,80,1890/1/1,English Fairy Tales,book,400,480,453,121,58,3.69,256,Paperback,,0,0,"Joseph Jacobs,Kidlit-O",,,,,,2236,16,534,"amazon,anthologies,childrens,classics,collections,cultural,fairy-tales,fantasy,fiction,literature,mythology,non-fiction,novels,philosophy,reference,retellings,short-stories"
19126501,1490576797,"Growing Inmate Crowding Negatively Affects Inmates, Staff, and Infrastructure",9781490576794,,,,ES,2013/6/30,Createspace,,false,1,19126501,1,0,0,0,2013/6/30,,,0,0,0,0,0,0.00,94,Paperback,,0,0,Bureau of Prisons,,,,,,1,0,,
19127001,1490954333,The White Door: The Divine Mortals,9781490954332,,,,ES,2013/7/30,Createspace,,false,1,19127001,0,0,0,0,2013/7/30,,,0,0,0,0,0,0.00,270,Paperback,,0,0,Meghan a. Martin,,,,,,,0,,
19127501,1491054395,You Want Us to Write about What?,9781491054390,,,,ES,2013/11/22,Createspace,,false,1,19127501,0,0,0,0,2013/11/22,,,0,0,0,0,0,0.00,130,Paperback,,0,0,Frances Byrd,,,,,,,0,,
19128001,1491267852,The Infiltrator: Beware the Fool Not on His Stool...,9781491267851,,,,ES,2013/8/7,Createspace,,false,3,19128001,0,0,0,0,2013/8/7,,,0,0,0,0,0,0.00,94,Paperback,,0,0,Ronnie Robinson,,,,,,,0,,
19128501,1492153656,Judith Shakespeare,9781492153658,,,,ES,2013/8/13,Createspace,,false,22,18963843,9,0,0,0,2000/8/18,,,0,0,0,0,0,0.00,204,Paperback,,0,0,William   Black,,,,,,6,0,1,
19129001,1492212717,Rollo's Experiments,9781492212713,,,,ES,2013/8/20,Createspace,,false,38,20776264,18,22,7,0,1839/1/1,,book,1,2,1,3,0,3.14,60,Paperback,,0,0,Jacob Abbott,,,,,,9,1,1,
19129501,1492262226,A Collection of Short Poetry,9781492262220,,,,ES,2013/8/26,Createspace Independent Publishing Platform,,false,1,19129501,0,0,0,0,2013/8/26,,,0,0,0,0,0,0.00,178,Paperback,,0,0,Mac McGovern,,,,,,,0,,
19130001,1492318566,The Hunter Cats of Connorloa,9781492318569,,,,ES,2013/9/2,Createspace,,false,17,20755863,8,10,3,2,2009/4/14,,book,1,0,1,1,0,3.33,50,Paperback,,0,0,Helen Hunt Jackson,,,,,,5,0,,"cultural,fiction,history"
19130501,1492381799,"The Best Ever Guide to Getting Out of Debt for Chemists: Hundreds of Ways to Ditch Your Debt, Manage Your Money and Fix Your Finances",9781492381792,,,,ES,2013/10/10,Createspace Independent Publishing Platform,,false,1,19130501,0,0,0,0,2013/10/10,,,0,0,0,0,0,0.00,106,Paperback,,0,0,Mark Geoffrey Young,,,,,,,0,,
19131001,1492713023,Samba,9781492713029,,,,ES,2013/9/12,Createspace,,false,8,22543367,11,25,6,0,1906/1/1,,book,2,3,1,0,0,4.17,176,Paperback,,0,0,Herbert Strang,,,,,,4,0,1,
19131501,,The Grief Book,,B009Y7FO06,,,ES,,,,true,2,19131501,47,128,32,1,2012/10/27,,,9,14,9,0,0,4.00,,,,29,1,"Carolyn Cowperthwaite,Debbie Moore",,,,,,6,0,5,
19132001,1492907308,The Life of Christ,9781492907305,,,,ES,2013/10/5,Createspace Independent Publishing Platform,,false,1,19132001,0,0,0,0,2013/10/5,,,0,0,0,0,0,0.00,88,Paperback,,0,0,Phil Fernandes,,,,,,,0,,
19132501,1492990981,Un Cadre Imparfait,9781492990987,,,,ES,2013/10/14,Createspace,,false,20,19241881,53,102,31,2,2012/8/1,,,3,9,13,6,0,3.29,94,Paperback,,0,0,Claudio Ruggeri,,,,,,8,0,4,
19133001,1493535781,Better World Quotes: Kindness,9781493535781,,,,ES,2013/10/26,Createspace Independent Publishing Platform,,false,1,19133001,2,0,0,0,2013/10/26,,,0,0,0,0,0,0.00,44,Paperback,,0,0,"Noelani Musicaro,Robert Alan Silverstein",,,,,,2,0,,
19133501,1493605011,Ava's Christmas Colouring Book,9781493605019,,,,ES,2013/10/28,Createspace,,false,1,19133501,1,0,0,0,2013/10/28,,,0,0,0,0,0,0.00,82,Paperback,,0,0,Lisa     Jones,,,,,,1,0,,
19134001,1493663267,Aidan's Christmas Colouring Book,9781493663262,,,,ES,2013/11/3,Createspace Independent Publishing Platform,,false,1,19134001,1,0,0,0,2013/11/3,,,0,0,0,0,0,0.00,82,Paperback,,0,0,Lisa     Jones,,,,,,1,0,,
19134501,1493709267,Denise and John,9781493709267,,,,ES,2013/11/9,Createspace,,false,2,19134501,0,0,0,0,2013/10/30,,,0,0,0,0,0,0.00,484,Paperback,,0,0,D.J. Wells,,,,,,,0,,
19135001,1493737716,Alternative Non-Toxic Treatments for Breast Cancer,9781493737710,,,,ES,2013/11/12,Createspace,,false,1,19135001,0,0,0,0,2013/11/12,,,0,0,0,0,0,0.00,332,Paperback,,0,0,Michael Braham,,,,,,,0,,
19135501,1493762567,Samuel the Seeker,9781493762569,,,,ES,2013/11/14,Createspace,,false,38,6211413,55,61,17,1,1910/1/1,Samuel the Seeker,book,4,5,5,3,0,3.59,118,Paperback,,0,0,Upton Sinclair,,,,,,32,1,1,"american,classics,fiction,novels"
19136001,1493789937,"Bounce, Roll, & Fly: The Science of Balls: Data and Graphs for Science Lab: Volume 3",9781493789931,,,,ES,2013/11/17,Createspace Independent Publishing Platform,,false,2,19135955,0,0,0,0,2013/11/17,,,0,0,0,0,0,0.00,82,Paperback,,0,0,M. Schottenbauer,,,,,,,0,,
19136501,1494216531,The Battle of Franklin: Chapter XVI: From Henry M. Field's 1890 Edition of Bright Skies and Dark Shadows,9781494216535,,,,ES,2013/11/22,Createspace Independent Publishing Platform,,false,1,19136501,4,4,1,0,2013/11/22,,,0,1,0,0,0,4.00,68,Paperback,,1,0,Henry M. Field,,,,,,1,0,,
19137001,1494254646,The King's Sons,9781494254643,,,,ES,2013/11/23,Createspace,,false,9,7190316,3,6,2,1,1901/1/1,The King's Sons,book,0,1,0,1,0,3.00,52,Paperback,,0,0,George Manville Fenn,,,,,,1,0,,
19137501,149427275X,"Shalia's Diary: Book 2 (Shalia's Diary, #2; World of Kalquor, #3.2)",9781494272753,,,,ES,2013/11/25,Createspace,eng,false,3,18963938,493,1204,287,9,2013/11/22,,book,125,112,34,13,3,4.20,224,Paperback,,2,0,Tracy St. John,,,,,,139,13,8,"adult,aliens,bdsm,dystopia,erotica,fantasy,fiction,menage,paranormal,post-apocalyptic,romance,science-fiction"
19138001,1494293617,La Genese Selon Le Spiritisme: Les Miracles Et Les Predictions Selon Le Spiritisme,9781494293611,,,,ES,2013/11/27,Createspace Independent Publishing Platform,,false,58,3189622,422,995,223,4,1868/1/6,La Genèse selon le spiritisme,book,159,32,15,10,7,4.46,316,Paperback,,0,0,Allan Kardec,,,,,,125,4,29,"non-fiction,reference,religion,spirituality"
19138501,,恋はGOGO！ (GUSH COMICS) (Japanese Edition),,B00EVMBKBG,,,ES,,,eng,true,1,19138501,2,3,1,0,,,book,0,0,1,0,0,3.00,201,,,1,0,山本 小鉄子,,,,,,,1,1,manga
19139001,1622084799,Whispers from Forbidden Earth,9781622084791,,,,ES,2013/11/26,Helping Hands Press,,false,2,19139001,365,70,17,9,2013/8/31,,book,7,7,2,0,1,4.12,216,Paperback,,9,3,Mark Venturini,,,,,,344,3,,paranormal
19139501,1742207421,Lonely Planet Western USA,9781742207421,,,,ES,2014/5/1,Lonely Planet,,false,1,19139501,31,81,20,0,2014/5/1,,,7,8,4,1,0,4.05,488,Paperback,,20,0,Amy C. Balfour,,,,,,5,1,1,travel
19140001,1908756160,Advfn Guide: 101 Charts for Trading Success,9781908756169,,,,ES,2012/9/3,Advfn Books,,false,1,19140001,2,0,0,0,2012/9/3,,,0,0,0,0,0,0.00,198,Paperback,,0,0,Zak Mir,,,,,,2,0,,
19140501,1937769267,Jur: A Story of Pre Dawn Earth,9781937769260,,,,ES,2013/6/24,Night to Dawn Magazine & Books,,false,4,6539274,16,10,3,2,2002/7/1,Jur: A Story of Predawn Earth,,0,1,2,0,0,3.33,162,Paperback,,0,0,"James Reasoner,Tom Johnson",,,,,,7,0,1,"adventure,fantasy,science-fiction,time-travel"
19141001,,The Badger City Gang (Bride Train 7),,B00913OUE4,,,ES,,,en-US,true,3,15775333,322,617,150,4,2012/7/1,The Badger City Gang,book,63,49,33,2,3,4.11,,,,25,1,Reece Butler,,,,,,64,7,7,"bdsm,erotica,family,historical,historical-fiction,love,menage,romance"
19141501,,Waiting in Joyful Hope,9780814634806,,,,ES,,,,true,3,19141501,12,40,9,0,2011/8/23,,,5,3,1,0,0,4.44,,,,7,0,Jay Cormier,,,,,,1,0,2,
19142001,3662233827,Lehrbuch Der Pharmakognosie,9783662233825,,,,ES,1922/1/1,Springer,,false,2,18676285,0,0,0,0,1922/1/1,,,0,0,0,0,0,0.00,426,Paperback,,0,0,"Ernst Gilg,Na Gilg-Brandt,Wilhelm Brandt",,,,,,,0,,
19142501,3663064166,Tensoren Und Dyaden Im Dreidimensionalen Raum: Ein Lehrbuch,9783663064169,,,,ES,1914/1/1,Vieweg+teubner Verlag,,false,3,19142501,0,0,0,0,1914/1/1,,,0,0,0,0,0,0.00,254,Paperback,,0,0,Emil Budde,,,,,,,0,,
19143001,3847365371,La Participacion Legislativa de Las Mujeres En Mendoza,9783847365372,,,,ES,2012/3/21,Eae Editorial Academia Espanola,,false,1,19143001,0,0,0,0,2012/3/21,,,0,0,0,0,0,0.00,180,Paperback,,0,0,Vera Paola Fernanda,,,,,,,0,,
19143501,3934826105,Waldroschen 4 Der Furst Des Felsens: Abenteuerroman,9783934826106,,,,ES,2012/6/26,Benu Verlag,,false,2,18815788,7,19,6,0,2011/11/8,,,0,3,1,2,0,3.17,334,Paperback,,0,0,Karl May,,,,,,,0,,classics
19144001,,ストラテジック・マインド ─ 変革期の企業戦略論,,B00DCQWI0O,,,ES,,,jpn,true,16,206396,1819,1666,416,35,1982/1/1,The Mind of the Strategist,book,149,149,94,19,5,4.00,,,,0,0,"Kenichi Ohmae,大前 研一",,,,"湯沢 章伍,田口 統吾",,1164,12,85,"business,leadership,non-fiction,politics,reference"
19144501,,cosplay The beautiful woman who fights004 (Japanese Edition),,B00FK6J6WW,,,ES,,,,true,1,19144501,0,0,0,0,2013/9/30,,,0,0,0,0,0,0.00,,,,0,0,klathkel,,,"COSPRO,perfectsunday",,,,0,,
19145001,0231168012,The Elements of Academic Style: Writing for the Humanities,9780231168014,,,,ES,2014/8/26,Columbia University Press,,false,5,19145000,607,862,215,20,2014/7/15,,,63,103,39,8,2,4.01,256,Paperback,,46,1,Eric Hayot,,,,,,267,10,66,"academic,class,education,grad-school,language,non-fiction,reference,school,teaching,textbooks,writing"
19145501,,Weight Watchers New Points Plus Plan The Very Best Indian Recipes Cookbook,,B00A2VKL4M,,,ES,,,,true,2,19145501,8,0,0,0,2012/11/5,,book,0,0,0,0,0,0.00,,,,0,0,Janelle Johannson,,,,,,5,0,,cookbooks
19146001,,砂の栄冠（１２） (Japanese Edition),,B00DRZTVHS,,,ES,,,,true,1,19146001,0,0,0,0,2013/4/5,,,0,0,0,0,0,0.00,,,,0,0,三田紀房,,,,,,,0,,
19146501,0575110430,Twin Planets,9780575110434,,,,ES,2011/9/29,Gateway,,true,5,6099783,63,132,34,4,1967/1/1,Twin Planets,book,11,12,7,4,0,3.88,,ebook,,0,0,Philip E. High,,,,,,18,2,2,"aliens,fiction,science,science-fiction"
19147001,0733626920,Winter Close,9780733626920,,,,ES,2010/7/1,Hachette Australia,,true,3,2144561,65,121,36,4,2002/1/1,Winter close,book,4,9,19,4,0,3.36,,ebook,,0,0,Hugh Mackay,,,,,,19,1,,"fiction,mystery"
19147501,0748131604,The Sleeping Beauty,9780748131600,,,,ES,2011/11/3,Virago Press (UK),,true,10,1294335,387,712,189,31,1953/1/1,The Sleeping Beauty,book,42,74,62,9,2,3.77,256,ebook,,0,0,Elizabeth Taylor,,,,,,137,14,5,"british-literature,classics,fiction,historical-fiction,literary-fiction,marriage,modern-classics,romance"
19148001,0778704491,Jack and the Bean Pie,9780778704492,,,,ES,2014/2/28,Crabtree Publishing Company,,false,4,15003532,28,54,14,2,2010/8/12,,book,4,4,6,0,0,3.86,31,Paperback,,1,0,Laura North,Mike    Phillips,,,,,8,6,,
19148501,,Danger at Wolf Rock,,B009WQ99TQ,,,ES,,,,true,2,19148501,14,17,4,1,2012/6/1,,,2,1,1,0,0,4.25,,,,3,1,Sandra Waggoner,,,,,,8,0,,juvenile
19149001,1107635160,Lamartine: Pages Choisies,9781107635166,,,,ES,2013/11/11,Cambridge University Press,,false,1,19149001,0,0,0,0,2013/11/11,,,0,0,0,0,0,0.00,130,Paperback,,0,0,,,,Arthur Wilson-Green,,,,0,,
19149501,1135163383,British Broadcasting: A Study in Monopoly,9781135163389,,,,ES,2013/11/26,Routledge,,true,7,19149501,3,0,0,0,1956/1/1,,,0,0,0,0,0,0.00,220,ebook,,0,0,R.H. Coase,,,,,,3,0,,
19150001,1138024686,Negotiating Privilege and Identity in Educational Contexts,9781138024687,,,,ES,2014/6/2,Routledge,,false,6,19150001,7,0,0,0,2014/1/1,,,0,0,0,0,0,0.00,223,Hardcover,,0,0,"Adam Howard,Aimee Polimeno,Brianne Wheeler",,,,,,7,0,,education
19150501,,一流の部下力 (Japanese Edition),,B007EMQEMA,,,ES,,,,true,1,19150501,1,0,0,0,2009/9/18,,,0,0,0,0,0,0.00,,,,0,0,上村 光弼,,,,,,,0,,
19151001,,Dem Feuer versprochen (German Edition),,B00DS8BVAO,,,ES,,,,true,2,17289195,3,3,2,1,2012/7/30,,book,0,0,0,1,1,1.50,,,,1,1,Patricia Bellasie,F. Riedel,,,,,1,0,,fantasy
19151501,,What are the Planets like?,,B00A6DL7B2,,,ES,,,,true,2,18141467,1,0,0,0,2012/11/11,,book,0,0,0,0,0,0.00,,,,0,0,Rhys Gronow,,,,,,,0,,
19152001,1444162233,Aqa(b) as Psychology Student Unit Guide New Edition: Unit 1 Introducing Psychology,9781444162233,,,,ES,2012/6/8,Philip Allan,,true,2,19152001,0,0,0,0,2012/1/1,,,0,0,0,0,0,0.00,,ebook,,0,0,Julie McCloughlin,,,,,,,0,,
19152501,1444744941,The Island Wife,9781444744941,,,,ES,2012/3/29,Hodder & Stoughton,,true,11,660576,199,457,128,8,1997/6/1,The Island Wife,book,33,40,32,13,10,3.57,410,ebook,,0,0,Jessica Stirling,,,,,,34,3,15,"adult-fiction,fiction,historical"
19153001,,"Ben's Barnyard Adventure: Learning Spanish for Kids, Farm Animals (Bilingual English-Spanish Picture Book) (Learning a Second Language for Kids)",,B0088F0P4U,,,ES,,,,true,3,19153001,4,0,0,0,2012/6/2,,,0,0,0,0,0,0.00,,,,0,0,Timothy Church,,,,,,1,0,,
19153501,1462514901,Expressive Therapies,9781462514908,,,,ES,2013/11/27,Guilford Publications,,true,8,1218616,106,153,36,1,2004/11/1,Expressive Therapies,,16,14,5,1,0,4.25,220,ebook,,0,0,,,,Cathy A. Malchiodi,,,29,0,10,"grad-school,health,non-fiction,school,science"
19154001,1479288640,Building a State in Apache Land: From Articles of Charles D. Poston in the Overland Express,9781479288649,,,,ES,2012/9/1,Createspace Independent Publishing Platform,,false,8,6612081,1,0,0,0,1894/1/1,Building a State in Apache Land,book,0,0,0,0,0,0.00,110,Paperback,,0,0,Charles D. Poston,,,,,,1,0,,
19154501,1483339955,Transitioning to Concept-Based Curriculum and Instruction: How to Bring Content and Process Together,9781483339955,,,,ES,2013/12/10,Corwin Publishers,,true,5,21054592,89,147,38,6,2013/12/24,,,12,15,6,4,1,3.87,224,ebook,,0,0,"H. Lynn Erickson,Lois A. Lanning",,,,,,32,2,11,"adult,education,non-fiction"
19155001,1491217901,Tracy's Kenpo: Orange Belt Requirements Reference Manual,9781491217900,,,,ES,2013/7/27,Createspace Independent Publishing Platform,,false,2,19155001,0,0,0,0,2013/7/27,,,0,0,0,0,0,0.00,26,Paperback,,0,0,LeAnn Rathbone,,,,,,,0,,
19155501,149421492X,Greatest Southern Cuisine Dishes: Top 100,9781494214920,,,,ES,2013/11/18,Createspace Independent Publishing Platform,,false,1,19155501,0,0,0,0,2013/11/18,,,0,0,0,0,0,0.00,30,Paperback,,0,0,"Alex Trost,Vadim Kravetsky",,,,,,,0,,
19156001,1596357568,"Cut It, Sew It, Stow It: Organizers for Your Home",9781596357563,,,,ES,2013/12/1,Annie's Attic,,true,3,18467520,13,15,5,0,2013/1/1,,,0,1,3,1,0,3.00,56,ebook,,0,0,Ebony Love,,,,,,2,0,1,non-fiction
19156501,1622957644,His Lily Among Thorns: Intimate Poems Expressing the Unique Relationship Between God and His Daughters,9781622957644,,,,ES,2013/12/10,Tate Publishing & Enterprises,eng,false,2,19788444,0,0,0,0,2013/12/10,,,0,0,0,0,0,0.00,44,Paperback,,0,0,Paulon Shelton,,,,,,,0,,
19157001,1780225245,Iron Fist: Classic Armoured Warfare,9781780225241,,,,ES,2012/10/11,George Weidenfeld & Nicholson,,true,7,2941475,97,178,46,5,1995/7/1,Iron Fist: Classic Armoured Warfare Case Studies,book,13,16,15,2,0,3.87,224,ebook,,0,0,Bryan Perrett,,,,,,28,0,3,"history,non-fiction"
19157501,1848943024,The Charmer,9781848943025,,,,ES,2009/9/3,Hodder & Stoughton,,true,10,1773737,1051,2754,670,31,2005/10/1,The Charmer,,306,196,119,34,15,4.11,300,ebook,,0,0,Mandasue Heller,,,,,,226,13,16,"contemporary,crime,drama,fiction,mystery,thriller"
19158001,1927616018,Shorelines,9781927616017,,,,ES,2013/5/1,Silver Bow Publishing,,false,2,19158001,1,5,1,0,2013/5/1,,,1,0,0,0,0,5.00,,Paperback,,1,0,Candice James,,,,,,,0,,
19158501,3110347164,"Aristarch, Aristophanes Byzantios, Demetrios Ixion, Zenodot: Fragmente Zur Ilias Gesammelt, Neu Herausgegeben Und Kommentiert",9783110347166,,,,ES,2014/2/27,de Gruyter,,true,3,18844168,0,0,0,0,2014/1/1,,,0,0,0,0,0,0.00,2492,ebook,,0,0,Helmut van Thiel,,,,,,,0,,
19159001,3319022326,Strong and Weak Approximation of Semilinear Stochastic Evolution Equations,9783319022321,,,,ES,2013/11/30,Springer,,false,2,19159001,0,0,0,0,2013/11/30,,,0,0,0,0,0,0.00,196,Paperback,,0,0,Raphael Kruse,,,,,,,0,,
19159501,3642367461,Electromagnetic Wave Scattering on Nonspherical Particles: Basic Methodology and Simulations,9783642367465,,,,ES,2013/10/31,Springer,,false,4,18294905,1,0,0,0,2009/12/18,,,0,0,0,0,0,0.00,380,Paperback,,0,0,"Michael Kahnert,Tom Rother",,,,,,,0,,
19160001,3642416322,Produktivitat Im Baubetrieb: Bauablaufstorungen Und Produktivitatsverluste,9783642416323,,,,ES,2013/11/20,Springer Vieweg,,false,1,19160001,1,0,0,0,2013/11/30,,,0,0,0,0,0,0.00,580,Hardcover,,0,0,Christian Hofstadler,,,,,,,0,,
19160501,3868385401,"Modern Thomistic Philosophy, Volume 1: An Explanation for Students: The Philosophy of Nature",9783868385403,,,,ES,2015/4/15,Editions Scholasticae,,false,1,19160501,2,5,1,0,2014/5/31,,,1,0,0,0,0,5.00,400,Paperback,,1,0,R P Phillips,,,,,,,0,,
19161001,8847053951,Le Malattie Rare del Sistema Immunitario: Una Guida Per I Pazienti,9788847053953,,,,ES,2013/3/9,Springer,,false,1,19161001,1,3,1,0,2013/3/9,,,0,0,1,0,0,3.00,212,Paperback,,1,0,,,,Lorenzo Emmi,,,,0,,
19161501,9401037922,"Prerational Intelligence: Adaptive Behavior and Intelligent Systems Without Symbols and Logic, Volume 1, Volume 2 Prerational Intelligence: Interdisciplinary Perspectives on the Behavior of Natural and Artificial Systems, Volume 3",9789401037921,,,,ES,2013/11/20,Springer,,false,5,14912571,1,0,0,0,2000/12/31,,,0,0,0,0,0,0.00,1611,Paperback,,0,0,,,,"Helge Ritter,Holk Cruse,Jeffrey Dean",,,,0,,
19162001,9781493752,The Her Stories Project,,,,,ES,2013/11/30,HSP Press,eng,false,3,18867020,292,225,57,9,2013/11/1,,book,25,15,11,1,5,3.95,262,Paperback,,1,1,,,"Alexandra Rosas,Galit Breen","Jessica Smock,Stephanie Sprenger",,,223,2,5,non-fiction
19162501,,The King,,B00GLQ4B5C,,,ES,2014/1/16,Canongate Books Ltd,en-GB,true,23,10734339,1542,2642,723,96,2002/1/1,De Koning,book,127,309,212,60,15,3.65,448,Kindle Edition,,16,1,Kader Abdolah,,,,Nancy Forest Flier,,627,13,34,"classics,cultural,fiction,historical,historical-fiction,history,literary-fiction,literature,non-fiction,novels"
19163001,,Dancing in the Dark (Cooper's Corner),,B00BNRHJZI,,,ES,,,,true,9,2427556,156,235,65,6,2002/12/1,Dancing in the Dark (Cooper's Corner 5),book,18,20,16,6,5,3.62,,,,0,0,Sandra Marton,,,,,,46,5,11,adult-fiction
19163501,,Jamaican Christmas Recipes: 21 Most Wanted Jamaican Christmas Recipes (Christmas Recipes Book),,B009JVSBCK,,,ES,,,,true,2,19163501,8,0,0,0,2012/9/29,,,0,0,0,0,0,0.00,,,,0,0,K. Reynolds-James,,,,,,3,0,2,
19164001,,GENEZ_4,,B009KZBU5U,,,ES,,,jpn,true,2,8482515,4,12,3,0,2010/1/1,,book,2,0,0,1,0,4.00,,,,1,0,"Makoto Fukami,Makoto Fukami,mebae",,,,,,1,0,,"action,romance"
19164501,,C comme cadavre (Suspense) (French Edition),9782809813548,,,,ES,2013/10/2,Archipel,,true,46,10808010,15066,33570,8973,730,2012/1/1,Gideon's Corpse,book,2049,3500,2649,603,172,3.74,,,,2,1,"Douglas Preston,Lincoln Child",,,,,,3436,52,382,"action,adult,adventure,crime,detective,fiction,mystery,mystery-thriller,novels,science-fiction,suspense,thriller"
19165001,,A Journey to America in 1834,,B0082RYR8O,,,ES,,,,true,2,5310608,3,6,2,0,2009/12/3,A Journey to America in 1834,,0,0,2,0,0,3.00,,,,0,0,Robert Heywood,,,,,,1,0,,
19165501,,Bird Dinosaurs: Dinosaurs with Feathers - Explore Series Picture Book for Kids (Feathered Dinosaurs - Photo & Fact Picture Book for Children),,B007NO5T2A,,,ES,,,,true,1,19165501,1,0,0,0,2012/3/22,,,0,0,0,0,0,0.00,,,,0,0,Explore Series,,,,,,,0,1,
19166001,,Not a Monster of a Chance (A Scumble River Mystery #2.5),,B009KNR28G,,,ES,,,eng,true,2,16065845,506,554,146,8,2012/10/1,,book,51,34,44,14,3,3.79,,,,63,3,Denise Swanson,,,,,,309,5,4,"cozy-mystery,humor,mystery,short-stories"
19166501,,Iqbal: The 20th Century Reformer (The Islamic Renaissance Series),9781871031287,,,,ES,,,,true,2,19166501,15,16,4,0,2012/7/5,,,1,2,1,0,0,4.00,,,,4,0,Ali Shariati,,,Laleh Bakhtiar,,,11,1,,
19167001,,万葉集　全訳注原文付（一） (講談社文庫) (Japanese Edition),,B00GY19NKC,,,ES,,,,true,1,19167001,1,0,0,0,1978/8/15,,,0,0,0,0,0,0.00,,,,0,0,,,,,,,1,0,,
19167501,,"Skip Beat!, Vol. 4",9781421569987,,,,ES,,,,true,9,282267,7105,23919,5316,76,2003/7/18,スキップ・ビート! 4,book,3441,1241,517,82,35,4.50,,,,47,1,Yoshiki Nakamura,,,,,,728,97,18,"comedy,comics,contemporary,drama,fantasy,fiction,funny,graphic-novels,humor,love,manga,realistic-fiction,romance,teen,young-adult"
19168001,,"Thanksgiving Turkey Trouble (Ready, Freddy! #15)",,B005HE2PC0,,,ES,,,eng,true,8,4768526,458,715,180,23,2008/1/1,"Thanksgiving Turkey Trouble (Ready, Freddy!)",book,73,51,38,14,4,3.97,,,,9,0,Abby Klein,John McKinley,,,,,147,23,16,"chapter-books,childrens,fiction,funny,humor,middle-grade,realistic-fiction,school"
19168501,1614660352,The Radical Leap Re-Energized,9781614660354,,,,ES,2011/11/1,No Limit Publishing,,true,5,12086649,281,490,114,16,2011/1/1,,,56,39,17,1,1,4.30,368,ebook,,9,0,Steve Farber,,,,,,132,5,15,"business,fiction,humor,leadership,non-fiction"
19169001,,O efeito Marina - Bastidores da campanha que mudou o rumo das eleições (Portuguese Edition),9788520935606,,,,ES,,,,true,1,19169001,2,3,1,1,2013/6/7,,,0,0,1,0,0,3.00,,,,1,1,Alfredo Sirkis,,,,,,,0,1,
19169501,,Star Wars: Boba Fett--Man With A Mission,9781621152767,,,,ES,,,,true,4,1834910,466,790,202,18,2007/3/14,Star Wars: Boba Fett - Man with a Mission (Star Wars),book,68,62,59,12,1,3.91,,,,23,1,"John Ostrander,John Wagner,Ron Marz,Thomas Andrews","Adriana Melo,Cam Kennedy,Ruiz Velasco, Francisco,Tsuneo Sanda",,,,,141,7,7,"comics,graphic-novels,science-fiction,short-stories"
19170001,,You Need Balls to Juggle,,B00GZBE5CC,,,ES,,,,true,1,19170001,1,5,1,0,2013/11/28,,,1,0,0,0,0,5.00,,,,1,0,Tobias Nergarden,,,,,,,0,,
19170501,,How to Make the Best 500 Choices in Life in 60 Seconds,,B006VXAZXM,,,ES,,,,true,1,19170501,2,0,0,0,2012/1/9,,,0,0,0,0,0,0.00,,,,0,0,Mechoices Books,,,,,,2,0,,personal-development
19171001,,The Philosophy of Metacognition: Mental Agency and Self-Awareness,9780191022562,,,,ES,,,,true,3,18012286,23,7,2,1,2013/11/20,,,0,1,1,0,0,3.50,,,,0,0,Joelle Proust,,,,,,16,0,3,"non-fiction,philosophy,psychology,self-help"
19171501,,I 55 giorni che hanno cambiato l'Italia,,B00CM5N0QM,,,ES,,,ita,true,3,17998788,84,134,35,7,2013/4/30,,book,10,11,12,2,0,3.83,,,,3,1,Ferdinando Imposimato,,,,,,31,0,3,history
19172001,,Bitter Almonds: The true story of a domestic terrorist and the greed that drove her to murder,,B00BP3QUMS,,,ES,,,,true,7,96507,1135,1777,487,41,1993/12/1,"Bitter Almonds : The True Story of Mothers, Daughters, and the Seattle Cyanide Murders",book,125,147,148,53,14,3.65,,,,65,4,Gregg Olsen,,,,,,534,14,18,"american-history,biography,biography-memoir,crime,history,non-fiction,true-crime"
19172501,,Woman in Christ: Toward a New Feminism,9781467404457,,,,ES,,,,true,1,19172501,0,0,0,0,2004/1/8,,,0,0,0,0,0,0.00,,,,0,0,,,,Mrs. Michele M. Schumacher,,,,0,,
19173001,,The Mongol Objective (Morpheus Initiative),,B00D5D1P76,,,ES,,,,true,9,12830690,265,563,145,5,2011/10/3,,book,46,51,34,13,1,3.88,,,,11,1,David Sakmyster,,,,,,80,2,13,"adventure,fiction,mystery,science-fiction,thriller"
19173501,,When God Was a Woman by Merlin Stone | Summary & Study Guide,,B004TO5FZ8,,,ES,,,,true,2,11886076,7,17,4,1,,,,1,3,0,0,0,4.25,,,,1,0,BookRags,,,,,,4,0,1,
19174001,,The Myth of the 'Islamic' headscarf,,B006T5JUXS,,,ES,,,,true,2,6142196,2,0,0,0,2008/6/23,The Myth of the 'Islamic' headscarf,,0,0,0,0,0,0.00,,,,0,0,Omar Hussein Ibrahim,,,,,,2,0,,
19174501,,Hulk ja Möykky,,,,,ES,1988/1/1,Semic,fin,false,3,1421447,158,302,86,9,1987/1/1,The Incredible Hulk and the Thing: The Big Change,book,18,26,25,16,1,3.51,64,Paperback,,4,1,Jim Starlin,Bernie Wrightson,,,,,45,0,,"comics,fiction,graphic-novels,marvel,superheroes"
19175001,,Flammen im Sand: Ein Sylt-Krimi (Mamma Carlotta),,B008F7TG5K,,,ES,,,ger,true,4,8068028,62,105,28,1,2010/1/1,Flammen im Sand,book,5,15,5,2,1,3.75,,,,1,0,Gisa Pauly,,,,,,16,0,1,crime
19175501,,"Porn Shop Princess (A Chastity, Feminization, Sissy Training, Crossdressing Tale)",,B00DXY3M9Q,,,ES,,,,true,2,19175501,5,0,0,0,2013/7/14,,,0,0,0,0,0,0.00,,,,0,0,Chastity Foelds,,,,,,5,0,,erotica
19176001,,弃父行 (Chinese Edition),,B00BLYZQIK,,,ES,,,,true,1,19176001,0,0,0,0,2012/11/23,,,0,0,0,0,0,0.00,,,,0,0,胡适,,,,,,,0,,
19176501,,Kyokutei Bakin (Japanese Edition),,B009MBQPE8,,,ES,,,,true,1,19176501,4,0,0,0,2012/10/4,,,0,0,0,0,0,0.00,,,,0,0,Kanji Kunieda,,,,,,4,0,,
19177001,,航路 Vol. 2,,B00FKSJ59Y,,,ES,,,jpn,true,3,18220913,18,14,5,1,2013/8/10,,book,1,1,1,0,2,2.80,,,,0,0,"Connie Willis,コニー ウィリス",,,,大森 望,,6,0,,science-fiction
19177501,,"Paleo Muffin Recipes: Mouthwatering Muffin Recipes For Paleo, Celiac, And Gluten Free Diets. (Simple Paleo Recipe Series)",,B00GLQH294,,,ES,,,,true,1,19177501,12,20,6,1,2013/11/10,,,2,1,1,1,1,3.33,,,,6,1,Elle Jean Pierre,,,,,,4,0,,"amazon,cookbooks"
19178001,,Drupal 7 Explained: Your Step-by-Step Guide,,B00CST6OO2,,,ES,,,,true,4,17986263,80,118,33,6,2012/12/27,,,4,15,10,4,0,3.58,,,,12,1,Stephen Burge,,,,,,34,1,7,"non-fiction,technology"
19178501,,ウザい奴を言い負かす技術　エディターズカット版 (Japanese Edition),,B00DC14OTW,,,ES,,,,true,1,19178501,0,0,0,0,2011/9/21,,,0,0,0,0,0,0.00,,,,0,0,北野 真事,,,,,,,0,,
19179001,1494265516,Interviews with a Porn Star (Excerpts from a novel in progress),9781494265519,,,,ES,2013/11/25,Createspace Independent Publishing Platform,eng,false,2,19179001,200,3,1,1,2013/11/25,,book,0,0,1,0,0,3.00,54,Paperback,Limited edition,1,1,Max Harrick Shenk,,,,,,199,0,,
19179501,,Amor inevitable,,B00FB4JGPA,,,ES,,,spa,true,18,2496186,767,1217,299,32,2001/11/1,We Saw Mommy Kissing Santa Claus,book,121,97,64,15,2,4.07,,,,10,1,Brenda Novak,,,,"Ana Belén Fletes Valera,Ana Peralta de Andrés",,282,16,40,"chick-lit,christmas,contemporary,family,fiction,harlequin,holiday,romance"
19180001,,Gamberi: Ricette golose,,B007NI9K3U,,,ES,,,ita,true,1,19180001,0,0,0,0,2012/3/29,,book,0,0,0,0,0,0.00,,,,0,0,Allan Bay,,,,,,,0,,
19180501,,"Le pacte de sang (La promesse interdite, #3)",,B00CQ21202,,,ES,,,fre,true,25,10479340,14707,21337,5355,421,2011/8/30,Twisted,book,2140,1644,1080,330,161,3.98,,,,0,0,Gena Showalter,,,,,,1587,54,104,"action,adult,demons,fantasy,fiction,ghosts,horror,love,magic,mystery,paranormal,romance,shapeshifters,supernatural,teen,time-travel,urban-fantasy,vampires,werewolves,witches,young-adult,zombies"
19181001,,Doctored Evidence (Commissario Brunetti #13),,B0097D78Y2,,,ES,,,eng,true,51,372713,8017,19663,5062,322,2004/1/1,"Doctored Evidence (Commissario Brunetti, #13)",book,1162,2370,1342,159,29,3.88,,,,314,11,Donna Leon,,,,,,1257,19,326,"american,contemporary,crime,detective,fiction,literature,murder-mystery,mystery,mystery-thriller,novels,thriller"
19182001,,La Patria sublevada. De Perón a Kirchner (1945-2010) (Spanish Edition),9789876345347,,,,ES,,,,true,1,19182001,5,17,4,0,2011/8/2,,,2,1,1,0,0,4.25,,,,4,0,Alfredo Silletta,,,,,,1,0,,
19182501,,Uncovering the Silveri Secret (Mills & Boon Modern),,B009UR0RH0,,,ES,,,,true,22,15825764,390,567,175,23,2013/1/1,,book,28,44,61,26,16,3.24,,,,3,0,Melanie Milburne,,,,,,139,11,11,"abuse,harlequin,romance"
19183001,,Den Jakobsweg erfahren: Drei Freunde mit dem Fahrrad von Lingen-Biene nach Santiago de Compostela,9783844251555,,,,ES,2013/3/26,epubli,,true,1,19183001,0,0,0,0,2013/3/26,,,0,0,0,0,0,0.00,,ebook,,0,0,Jürgen  Frömmert,,,,,,,0,,
19183501,,Les Fidélités successives (LITT.GENERALE) (French Edition),9782226273505,,,,ES,,,,true,3,21817827,41,78,22,4,2012/8/22,Les Fidélités successives,book,2,12,5,2,1,3.55,,,,1,0,Nicolas d'Estienne d'Orves,,,,,,14,0,1,novels
19184001,,1001 Questions to Ask Before You Get Married,,B005K8H0U0,,,ES,,,,true,1,19184001,171,241,62,2,2004/4/6,,,19,23,16,2,2,3.89,,,,62,2,Monica Leahy,,,,,,38,0,61,relationships
19184501,,Monsieur Optimiste,,B00FEQG47S,,,ES,,,eng,true,6,19184501,62,125,37,9,2013/1/1,Monsieur Optimiste,book,6,11,13,5,2,3.38,,,,22,7,Alain Berenboom,,,,,,19,2,2,
19185001,,Nursing2013 Drug Handbook (Nursing Drug Handbook),,B0096G352E,,,ES,,,,true,3,13592418,46,127,28,0,,,,20,3,5,0,0,4.54,,,,2,0,"Lippincott Williams & Wilkins,Wilkins",,,,,,12,0,1,medical
19185501,,Terry:: My Daughter's Life-and-Death Struggle with Alcoholism,,B00C0AM204,,,ES,,,,true,7,379484,621,1252,323,44,1996/1/1,Terry: My Daughter's Life-and-Death Struggle with Alcoholism,,97,121,75,28,2,3.88,,,,25,0,George S. McGovern,,,,,,228,5,12,"adult,biography,biography-memoir,family,history,memoir,mental-health,non-fiction,psychology"
19186001,,La proposta del conte,,B006ZJ93CG,,,ES,,Harlequin Mondadori,ita,true,4,8625588,365,548,161,11,2010/1/1,His Black Sheep Bride,book,25,50,55,27,4,3.40,,,,1,0,Anna DePalo,,,,,,125,14,1,"adult,contemporary,fiction,harlequin,love,romance"
19186501,,The Father of Fomoria (The Chronicles of Angkor: Ronin),,B009CN2KCC,,,ES,,,,true,2,16037568,16,24,6,0,2012/9/17,,book,2,2,2,0,0,4.00,,,,3,0,John W. Schreiber,,,,,,9,1,,fantasy
19187001,,Fern the Green Fairy (Rainbow Magic: The Rainbow Fairies: 4),,B004N62CL2,,,ES,,,eng,true,17,662162,4545,9463,2467,86,2003/5/29,"Fern The Green Fairy (Rainbow Magic, #4)",book,1018,499,593,241,116,3.84,,,,20,1,Daisy Meadows,,,,,,1073,32,28,"adventure,chapter-books,childrens,fantasy,fiction,juvenile,magic,novels,school"
19187501,,Law and the Gospel,9781626302587,,,,ES,,,,true,1,19187501,6,9,2,0,2013/6/7,,,1,1,0,0,0,4.50,,,,2,0,Theodore Beza,,,,,,2,0,2,christian
19188001,,Schwangerschaft und Geburt erleichtern mit der Naturheilkunde: Ein naturheilkundlicher Ratgeber (German Edition),9783955008314,,,,ES,,,,true,1,19188001,0,0,0,0,2012/11/28,,,0,0,0,0,0,0.00,,,,0,0,"Heilpraktiker, Robert Kopf",,,,,,,0,,
19188501,,Millionaire's Wedding Revenge / Stranded with the Tempting Stranger (Mills & Boon Desire) (The Garrisons - Book 3),9781408900628,,,,ES,2008/10/1,Mills & Boon Desire,,true,2,19188501,9,9,3,0,2008/10/1,,,1,0,1,0,1,3.00,,ebook,,3,0,"Anna DePalo,Brenda Jackson",,,,,,4,0,,
19189001,,"Deep Black (Deep Black, #1)",,B0089XJV8W,,,ES,,,eng,true,32,529833,4781,10420,2699,62,2003/5/18,Deep Black,book,820,961,699,160,59,3.86,,,,26,0,Stephen Coonts,,,,,,1602,3,43,"action,adventure,crime,detective,fiction,mystery,suspense,thriller,unfinished"
19189501,,Autism 24/7: A Family Guide to Learning at Home and in the Community (Topics in Autism),9781606131381,,,,ES,,,,true,1,19189501,0,0,0,0,2012/9/9,,,0,0,0,0,0,0.00,,,,0,0,"Andy Bondy,Lori Frost",,,,,,,0,,
19190001,,快感レッスン (フレジェロマンス文庫) (Japanese Edition),,B009IKECWA,,,ES,,,,true,1,19190001,0,0,0,0,,,,0,0,0,0,0,0.00,,,,0,0,水城のあ,,,,,,,0,,
19190501,0297865331,Lost City of the Incas,9780297865339,,,,ES,2010/12/16,Phoenix,,true,22,54143,2098,2739,779,87,1948/1/1,Lost City of the Incas (Phoenix Press),book,124,256,306,84,9,3.52,224,ebook,,66,1,Hiram Bingham,,,Hugh Thomson,,,962,14,165,"adventure,biography,biography-memoir,historical,history,memoir,non-fiction,travel,unfinished"
19191001,,Human Genetics: From Molecules to Medicine,,B008MB3S08,,,ES,,,,true,4,17042716,4,5,1,0,2011/12/15,,book,1,0,0,0,0,5.00,,,,0,0,"Christian P. Schaaf,Johannes Zschocke,Lorraine Potocki",,,,,,3,0,1,
19191501,0486133699,Better Chess for Average Players,9780486133690,,,,ES,2012/5/23,Dover Publications,,true,5,1426112,146,171,45,2,1978/1/12,Better Chess for Average Players (Dover Books on Chess),,14,17,7,5,2,3.80,387,ebook,,0,0,Tim Harding,,,,,,64,2,8,"non-fiction,reference"
19192001,,21 Fast Vegetarian Salad Recipes for Woman (Only the Best Vegetarian Recipes),,B007X6XZQ0,,,ES,,,,true,1,19192001,3,2,1,0,2012/4/23,,,0,0,0,1,0,2.00,,,,1,0,Ashley Thomas,,,,,,1,1,,
19192501,,Dünyanın Sonu,9781311378750,,,,ES,2013/11/23,hristiyankitaplar,tur,true,1,19192501,5,6,2,1,2013/11/23,,book,0,1,0,1,0,3.00,,ebook,,2,1,Can Nuroğlu,,,,,,2,0,1,
19193001,,"Ni Dieu Ni Diable, Vierge Noire, Livre Premier (French Edition)",9782924163023,,,,ES,,,,true,3,19193001,2,4,1,0,2012/2/14,,,0,1,0,0,0,4.00,,,,1,0,Emanuel Abran,,,,,,1,0,,
19193501,148870175X,Her Texan To Tame,9781488701757,,,,ES,2014/2/1,Mills  Boon Desire,,true,9,18343291,101,151,43,5,2014/1/1,,book,12,7,16,7,1,3.51,192,ebook,,0,0,Sara Orwig,,,,,,43,2,4,"harlequin,romance"
19194001,,Blackwell's Five-Minute Veterinary Consult Clinical Companion: Small Animal Emergency and Critical Care,,B005C673G6,,,ES,,,,true,11,9274384,8,22,5,0,2010/8/2,,,2,3,0,0,0,4.40,,,,2,0,,,,Elisa M. Mazzaferro,,,2,0,1,
19195001,,The Music Box,,B0099HZG40,,,ES,,,,true,10,163273,444,728,205,12,1998/2/1,,book,47,58,72,17,11,3.55,,,,12,0,Andrea Kane,,,,,,144,15,2,"fiction,historical,historical-fiction,mystery,regency,romance,suspense"
19195501,,Aftershocks,,B00AEDDRD0,,,ES,,,,true,23,588859,1890,3426,920,38,1985/1/1,Aftershocks ,book,263,280,267,80,30,3.72,,,Revised Edition,182,6,Catherine Coulter,,,,,,473,9,121,"adult,chick-lit,contemporary,fiction,harlequin,modern,mystery,romance"
19196001,,"Cast in Courtlight (Chronicles of Elantra, #2)",,B000SEI7C6,,,ES,,,eng,true,26,30189,14286,39692,9655,328,2006/7/18,Cast in Courtlight,book,3606,3939,1754,288,68,4.11,,,,1,0,Michelle Sagara,,,,,,481,58,76,"action,adult,adult-fiction,adventure,crime,epic-fantasy,fantasy,fiction,high-fantasy,magic,mystery,paranormal,romance,science-fiction-fantasy,supernatural,urban-fantasy,young-adult"
19196501,,Alt.kh: A Short Story,,B00DX1Z580,,,ES,,,,true,1,19196501,1,0,0,0,2013/7/12,,,0,0,0,0,0,0.00,,,,0,0,falconyx,,,,,,1,0,,
19197001,,Cause for Change: The Why and How of Nonprofit Millennial Engagement,,B00B9W34GU,,,ES,,,,true,6,17034072,84,63,17,0,2013/1/30,,book,4,6,5,2,0,3.71,,,,3,0,"Derrick Feldmann,Kari Dunn Saratovsky",,,,,,56,2,1,"business,politics,psychology,school"
19197501,,Woodcutter's Revival,,B00943VPT4,,,ES,,,,true,6,15984989,110,109,30,7,2012/8/1,,book,9,7,9,4,1,3.63,,,,3,0,Jerry Slauter,,,,,,51,-1,12,"christian,christian-fiction,historical"
19198001,,Handbook to Life in the Ancient Maya World (Facts on File Library of World History),,B005EXWMMC,,,ES,,,eng,true,3,714397,87,106,29,1,2001/11/30,Handbook to Life in the Ancient Maya World,book,3,17,6,2,1,3.66,,,,13,0,Lynn Vasco Foster,,,,,,38,2,7,"academic,history"
19198501,,Thai-Western Relationships (More Thailand Fever),,B0071MH45O,,,ES,,,,true,1,19198501,12,25,6,0,2012/1/24,,,4,0,1,1,0,4.17,,,,6,0,Benjawan Poomsan Becker,,,,,,1,0,3,
19199501,,The Works of Robert Barr (12 books),,B002LSIJA2,,,ES,,,,true,1,19199501,1,0,0,0,2009/8/16,,,0,0,0,0,0,0.00,,,,0,0,Robert Barr,,,,,,1,0,,
19200001,,How to Raise the Perfect Puppy,,B00BNXORHU,,,ES,,,eng,true,1,19200001,12,28,7,1,2013/3/1,,book,2,3,2,0,0,4.00,,,,7,1,Sam Walker,,,,,,2,0,1,
19200501,,The Spellbinding Power of Palmistry,,B005V546WW,,,ES,,,eng,true,3,1564365,125,159,41,2,2005/8/15,The Spellbinding Power of Palmistry,,11,19,7,3,1,3.88,,,,12,1,Johnny Fincham,,,,,,26,0,23,
19201001,,細川忠興戦記 本能寺将星録 下 (歴史群像新書) (Japanese Edition),9784059114437,,,,ES,,,,true,1,19201001,0,0,0,0,2011/1/25,,,0,0,0,0,0,0.00,,,,0,0,智本光隆,,,,,,,0,,
19201501,,The Ten Commandments,,B00961HU84,,,ES,,,,true,1,19201501,13,11,4,0,2012/9/4,,,0,2,0,1,1,2.75,,,,4,0,Cornelius Van Til,,,,,,9,0,1,"philosophy,theology"
19202001,,Cut to the Chase: Writing Feature Films with the Pros at UCLA Extension Writers' Program,9780698138360,,,,ES,,,,true,2,17381856,208,312,72,5,2013/8/6,,,34,29,8,1,0,4.33,,,,12,0,Linda Venis,,,,,,89,3,31,"art,business,film,language,non-fiction,teaching,writing,young-adult"
19202501,,Moon Time: A Guide to Celebrating Your Menstrual Cycle,,B00AKIUB7Y,,,ES,,,eng,true,6,25569078,1008,893,209,28,2012/1/1,,book,107,61,34,5,2,4.27,,,,27,1,Lucy H. Pearce,,,,,,690,13,45,"feminism,health,non-fiction,parenting,philosophy,psychology,self-help,spirituality"
19203001,,神速InDesign (アスキー書籍) (Japanese Edition),,B00FB5SJZW,,,ES,,,,true,1,19203001,0,0,0,0,2013/9/30,,,0,0,0,0,0,0.00,,,,0,0,"たけうち とおる,宮地 知,尾花 暁,森 裕司",,,,,,,0,,
19203501,,グッドモーニング・キス 4 (りぼんマスコットコミックスDIGITAL) (Japanese Edition),,B00CH3Y1XA,,,ES,,,,true,1,19203501,0,0,0,0,2009/7/15,,,0,0,0,0,0,0.00,,,,0,0,高須賀由枝,,,,,,,0,,
19204001,,GOLD WOLF4 (魔法のiらんど文庫) (Japanese Edition),,B009KZC38I,,,ES,,,,true,1,19204001,0,0,0,0,2012/3/24,,,0,0,0,0,0,0.00,,,,0,0,星,,,,,,,0,,
19204501,,THE AR-15 RIFLE VOLUME 1: A COMPILATION OF JMT PUBLISHING ARTICLES ABOUT THE AR-15 RIFLE,,B004K6MCTM,,,ES,,,,true,1,19204501,0,0,0,0,2011/1/20,,,0,0,0,0,0,0.00,,,,0,0,"Jamie Mangrum,R. W.  Simms",,,,,,,0,,
19205001,,"JUST THE FACTS: The Complete Study Guide For All Amateur Radio Tests: Presenting the Questions and Answers to the Technician, General, and Extra Class Ham Radio Exams, and the Volunteer Examiners Test",,B008VIFVUC,,,ES,,,,true,2,17387409,5,0,0,0,2012/8/8,,,0,0,0,0,0,0.00,,,,0,0,Joseph B. Lumpkin,,,,,,5,0,,
19205501,,It's Not Christmas Without You (The Holloway Series),,B005Z1CFU2,,,ES,,,,true,2,12967912,939,894,246,44,2011/12/5,It's Not Christmas Without You,book,60,82,68,26,10,3.63,,,,17,3,HelenKay Dimon,,,,,,615,21,2,"christmas,contemporary,fiction,holiday,novella,romance"
19206001,,甘く、かわいく、おいしいお菓子 (Japanese Edition),,B008OCJRZU,,,ES,,,,true,1,19206001,0,0,0,0,2006/3/25,,,0,0,0,0,0,0.00,,,,0,0,甲斐 みのり,,,,,,,0,,
19206501,,隣のみなの先生2 (ワニマガジンコミックススペシャル) (Japanese Edition),,B00C9ZWOW6,,,ES,,,,true,1,19206501,1,5,1,0,2007/2/20,,,1,0,0,0,0,5.00,,,,1,0,ＭＧジョー,,,,,,,0,,
19207001,,テツワンレイダー4 (富士見ファンタジア文庫) (Japanese Edition),,B009KZBQOK,,,ES,,,,true,1,19207001,0,0,0,0,2010/11/20,,,0,0,0,0,0,0.00,,,,0,0,"大楽 絢太,桜沢 いづみ",,,,,,,0,,
19207501,,"My Slave, Still on His Knees",9780857791870,,,,ES,2011/6/14,Smashwords Edition,,true,1,19207501,7,0,0,0,2011/6/13,,,0,0,0,0,0,0.00,,ebook,,0,0,Jane Foxx,,,,,,7,0,,bdsm
19208001,,王妃の館　上,,B00CBE4YKA,,,ES,,,jpn,true,1,19208001,10,13,5,1,2004/6/18,,book,0,1,2,1,1,2.60,,,,5,1,"Jirō Asada,浅田 次郎",,,,,,2,0,,
19208501,,Beautiful Naked Girls 2 (Erotica) (Japanese Edition),,B00E4TSQHW,,,ES,,,,true,1,19208501,0,0,0,0,2013/7/23,,,0,0,0,0,0,0.00,,,,0,0,Lucy Honeycomb,,,,,,,0,,
19209001,,What every woman thinks about apart from money,,B00CRPE85Y,,,ES,,,,true,1,19209001,2,4,1,0,2013/5/12,,,0,1,0,0,0,4.00,,,,1,0,Melissa Marshall,,,,,,,0,,
19209501,,A Colossal Failure of Common Sense: The Incredible Inside Story of the Collapse of Lehman Brothers,,B0035X1BSO,,,ES,,,eng,true,13,6390457,4556,9261,2400,176,2009/7/21,A Colossal Failure of Common Sense: The Inside Story of the Collapse of Lehman Brothers,book,704,921,571,140,64,3.86,,,,35,0,"Lawrence G. McDonald,Patrick Robinson",,,,,,1714,13,82,"autobiography,biography,business,contemporary,economics,history,memoir,non-fiction,politics,unfinished"
19210001,,Adauchi santai (Japanese Edition),,B009IXT9DO,,,ES,,,,true,1,19210001,0,0,0,0,2012/9/27,,,0,0,0,0,0,0.00,,,,0,0,Kan Kikuchi,,,,,,,0,,
19210501,,Charleston South Carolina Walking Tour & Guidebook,,B008AY9BRG,,,ES,,,,true,1,19210501,37,70,17,1,2012/6/11,,,6,7,4,0,0,4.12,,,,17,1,Alan Hartley,,,,,,8,0,11,"reference,travel"
19211001,1481098578,21,9781481098571,,,,ES,2013/11/23,8Ball Press,eng,false,1,19211001,1,5,1,1,2013/11/23,,book,1,0,0,0,0,5.00,214,Paperback,1st,1,1,Noah Anderson,,,,,,,0,,
19211501,,The Adventures of Miss Twiggs and Company,9781626202375,,,,ES,,,,true,1,19211501,2,3,1,0,2013/2/19,,,0,0,1,0,0,3.00,,,,1,0,Lucy Forsting,Arrolynn Weiderhold,,,,,1,0,,
19212001,,Revolutionary Iran: A History of the Islamic Republic,,B00ADNP414,,,ES,,,,true,12,17356877,1991,2006,483,43,2013/1/1,,book,177,224,65,13,4,4.15,,,,28,2,Michael Axworthy,,,,,,1280,19,113,"historical,history,non-fiction,politics,religion"
19212501,,Au Crépuscule (La Trilogie du sang #2),,B00GUY74XQ,,,ES,,,fre,true,1,19212501,6,9,3,1,2013/11/22,,book,0,1,1,1,0,3.00,,,,3,1,Nathalie Badiali,,,,,,3,0,,
19213001,,Songwriting: Essential Guide to Lyric Form and Structure: Tools and Techniques for Writing Better Lyrics (Songwriting Guides),9781617743955,,,,ES,,,,true,3,339010,382,361,87,4,1991/12/1,Songwriting: Essential Guide to Lyric Form and Structure: Tools and Techniques for Writing Better Lyrics (Songwriting Guides),,31,38,18,0,0,4.15,,,,11,0,Pat Pattison,,,,,,211,2,52,"art,education,music,writing"
19213501,1493517872,A Congress of Angels (The Collective #2),1397814935178,,,,ES,2013/10/1,Createspace,eng,true,3,19213501,4,5,1,0,2013/10/1,,book,1,0,0,0,0,5.00,319,Kindle Edition,,1,0,Jonathan Fore,,,,,,3,0,,
19214001,,"What Learning Looks Like: Mediated Learning in Theory and Practice, K-6",9780807771037,,,,ES,,,,true,2,13790902,27,22,6,1,2012/5/1,,,2,1,2,1,0,3.67,,,,1,0,"Ann Lewin-Benham,Reuven Feuerstein",,,,,,16,0,3,education
19214501,,"Complete Submission: Part One (First Time Sub, Erotic, BDSM, Boss and Secretary)",,B00EX4UIU6,,,ES,,,,true,2,19214501,5,5,2,0,2013/8/31,,,0,1,0,0,1,2.50,,,,2,0,Stacy Wood,,,,,,2,0,,
19215001,,ピンクチェリー・ぱい (ワニマガジンコミックススペシャル) (Japanese Edition),,B00C9ZWOXK,,,ES,,,,true,1,19215001,1,5,1,0,2010/1/20,,,1,0,0,0,0,5.00,,,,1,0,さめだ小判,,,,,,,0,,
19215501,0473240467,A Heat Of The Moment Thing,9780473240462,,,,ES,2013/12/2,Karen Browning,eng,false,6,19162374,1958,2322,651,83,2013/3/13,,book,138,210,216,57,30,3.57,342,Paperback,1st edition,2,1,Maggie Le Page,,,,,,845,26,208,"amazon,chick-lit,contemporary,drama,fiction,humor,romance"
19216001,,Autumn Breeze (Orgasmic Texas Dawn #6),,B00CCI2W22,,,ES,,,eng,true,5,17728029,211,299,76,8,2013/4/6,,book,22,29,23,2,0,3.93,,,,6,0,"A.J. Llewellyn,D.J. Manly",,,,,,87,17,,"contemporary,crime,detective,erotica,family,gay,mystery,novels,romance,thriller"
19216501,1139372971,The International Law of the Sea,9781139372978,,,,ES,2012/5/24,Cambridge University Press,,true,14,13726056,37,36,9,0,2012/3/22,,,4,3,1,0,1,4.00,,ebook,,0,0,Yoshifumi Tanaka,,,,,,18,0,5,
19217001,,"Your Turn, Alice - Lesbian Ménage Erotica (Girlfriends Next Door)",,B005Y3YN9C,,,ES,,,,true,1,19217001,6,1,1,0,2011/10/20,,,0,0,0,0,1,1.00,,,,1,0,Sidonie Spice,,,,,,1,0,3,
19217501,,La Condition humaine (Folioplus classiques) (French Edition),9782072441684,,,,ES,,,,true,121,109830,11668,14404,3832,216,1933/4/28,La Condition humaine,book,1044,1382,959,332,115,3.76,,,,2,0,André Malraux,,,,,,6654,75,154,"classics,contemporary,fiction,france,historical,historical-fiction,history,literary-fiction,literature,modern-classics,non-fiction,novels,philosophy,politics,psychology,romance,unfinished,war"
19218001,,Lethal Deception,,B00BTK07TO,,,ES,,,en-GB,true,10,1608633,59,62,15,1,2013/3/12,Honeysuckle Rose,book,7,3,5,0,0,4.13,,,,4,1,Kate Douglas,,,,,,36,1,,bdsm
19218501,,突然のウエディング,,B0093XMV6Q,,,ES,,,jpn,true,3,26131323,13,25,7,0,2009/11/11,,book,3,1,1,1,1,3.57,,,,0,0,"Colleen Collins,コリーン ・コリンズ","Karin Miyamoto,宮本 果林",,,,,1,0,1,
19219001,,Brividi di morte per l'ispettore Dalgliesh,,B005UKSAY8,,,ES,,Mondadori,ita,true,64,3826,17948,46023,12070,836,2005/11/22,,book,2732,5200,3433,559,146,3.81,,,,4,0,P.D. James,,,,Maria Grazia Griffini,,3013,18,250,"adult,adult-fiction,british-literature,contemporary,crime,detective,fiction,literary-fiction,literature,murder-mystery,mystery,mystery-thriller,novels,suspense,thriller"
19219501,,Courted by the Captain (Officers and Gentlemen #1),,B00FEDBF7A,,,ES,,Mills & Boon,eng,true,10,18748148,114,140,44,8,2013/12/1,Courted by the Captain,book,4,15,13,9,3,3.18,,,Mills &amp; Boon Historical #1460,6,0,Anne Herries,,,,,,43,5,2,"harlequin,historical,international,love-story,mystery"
19220001,,I'm (No Longer) a Mormon: A Confessional - Christian Edition,,B00CGPQX6C,,,ES,,,,true,4,17915520,34,96,25,2,2013/4/18,,,8,7,8,2,0,3.84,,,,7,0,Regina Samuelson,,,,,,7,1,,
19220501,,The Golden Falcon,,,,,ES,1975/1/1,Dell,eng,false,1,19220501,2,0,0,0,1975/1/1,,book,0,0,0,0,0,0.00,176,Mass Market Paperback,,0,0,Betty Hale Hyatt,,,,,,,1,,
19221001,,Setting Boundaries (The Edge Series),,B00B55ISMQ,,,ES,,,,true,2,17305341,20,39,11,5,2013/1/23,,book,1,6,2,2,0,3.55,,,,3,0,Layla Chase,,,,,,7,2,1,erotica
19221501,,You Know You Are An Engineer... (You Know You Are... Book 3),,B00GB9EC08,,,ES,,,,true,2,18751979,192,54,14,1,2013/10/22,You Know You Are An Engineer...,book,4,7,0,3,0,3.86,,,,9,0,Richard McChesney,Paul Wooldridge,,,,,174,1,,"art,humor"
19222001,,Simple Word Find : Volume 2,,B004FEFD4A,,,ES,,,,true,1,19222001,3,6,2,0,2010/12/5,,,1,0,0,0,1,3.00,,,,2,0,K. Lenart,,,,,,1,0,,
19222501,0752495593,Ad 33: The Year That Changed the World,9780752495590,,,,ES,2014/5/27,Not Avail,,true,6,301886,97,107,31,6,2007/1/1,AD 33: The Year That Changed the World,,1,17,9,3,1,3.45,161,ebook,,0,0,Colin Duriez,,,,,,52,2,2,"christianity,history,religion"
19223001,,Hot Wheels  Forty Years (Hot Wheels (Krause Publications)),,B005G14K7M,,,ES,,,,true,1,19223001,4,4,1,0,2007/10/12,,,0,1,0,0,0,4.00,,,,1,0,Angelo Vanbogart,,,,,,1,0,1,
19223501,,Superstring Theory: 1 (Cambridge Monographs on Mathematical Physics),,B009ZRNSJO,,,ES,,,,true,5,265819,128,125,29,2,1987/1/1,Superstring Theory: Volume 1 (Cambridge Monographs on Mathematical Physics),book,12,14,3,0,0,4.31,,,,3,0,"Edward Witten,J.H. Schwarz,Michael B. Green",,,,,,75,2,6,"non-fiction,science,textbooks"
19224001,,The Viva Mayr Diet: 14 days to a flatter stomach and a younger you,9780007516636,,,,ES,,,,true,1,19224001,46,70,19,1,2013/2/14,,,5,5,8,0,1,3.68,,,,19,1,"Harald Stossier,Helena Frith Powell",,,,,,11,0,11,cooking
19224501,,Digital Mars C++ Compiler and Tools Guide,,B0055COMG6,,,ES,,,,true,1,19224501,0,0,0,0,2011/6/9,,,0,0,0,0,0,0.00,,,,0,0,Walter Bright,,,,,,,0,,
19225001,,The Bread-winners A Social Study,,B00849RLNS,,,ES,,,,true,16,6316798,48,54,16,3,1883/1/1,The Bread-winners A Social Study,book,3,4,6,2,1,3.38,,,,2,0,John Hay,,,,,,24,2,2,"fiction,politics"
19225501,,"The Founders and Finance: how Hamilton, Gallatin, and other immigrants forged a new economy",9780674071346,,,,ES,,,,true,4,15728041,614,611,155,28,2012/10/8,,book,43,68,38,4,2,3.94,,,,23,1,Thomas K. McCraw,,,,,,401,4,18,"american-history,business,economics,fiction,history,non-fiction,politics"
19226001,,In The Stink of Life Smell The ROSE of Sharon,9781624192548,,,,ES,,,,true,2,19226001,1,5,1,0,2007/11/27,,,1,0,0,0,0,5.00,,,,1,0,Carol Lebeda Johnson,,,,,,,0,,
19226501,,"Engelkunde - Einführung in Geschichte, Wirkung und Wissenschaft (German Edition)",,B00EICW9UA,,,ES,,,,true,1,19226501,0,0,0,0,2013/11/25,,,0,0,0,0,0,0.00,,,,0,0,Michael Blume,,,,,,,0,,
19227001,,"The Skin of the Film: Intercultural Cinema, Embodiment, and the Senses",,B00EE5NX2O,,,ES,,,,true,6,650627,217,265,66,3,1999/3/1,"The Skin of the Film: Intercultural Cinema, Embodiment, and the Senses",book,19,32,12,3,0,4.02,,,,1,0,"Dana Polan,Laura U. Marks",,,,,,114,3,8,"academic,art,criticism,feminism,film,music,non-fiction"
19227501,,Ben - Liebe ist ...: Band II (German Edition),,B00H1NWUSE,,,ES,,,ger,true,1,19227501,4,19,4,0,2013/11/26,,book,3,1,0,0,0,4.75,,,,4,0,Adora Belle,,,,,,,0,,
19228001,,エリック・クラプトン (光文社新書) (Japanese Edition),,B009KZ43L8,,,ES,,,,true,1,19228001,0,0,0,0,2011/12/16,,,0,0,0,0,0,0.00,,,,0,0,大友 博,,,,,,,0,,
19228501,,旧唐书 (Chinese Edition),,B00C4PGG6G,,,ES,,,,true,1,19228501,1,0,0,0,,,,0,0,0,0,0,0.00,,,,0,0,刘昫等,,,,,,,0,,
19229001,,¿Puedo comprar una empresa?: Todo un mundo de posibilidades,,B00BM3J7PI,,,ES,,,spa,true,1,19229001,3,8,2,0,2011/11/14,,book,0,2,0,0,0,4.00,,,,2,0,Enrique Quemada Clariana,,,,,,1,0,,
19229501,,クライ、くらい夜の終わりに,,B006ZKUXOC,,,ES,2012/1/1,,jpn,true,2,36003955,1,4,1,0,2011/5/10,クライ、くらい夜の終わりに,book,0,1,0,0,0,4.00,,,ショコラ文庫,0,0,佐田 三季,,,,,,,0,,
19230001,,Le Droit à la paresse: Paul Lafargue (French Edition),9782363074676,,,,ES,,,,true,114,24485,4097,6994,1933,133,1880/1/1,Le Droit à la Paresse,book,370,705,637,192,29,3.62,,,,8,0,Paul Lafargue,,,,,,1431,7,79,"classics,essays,fiction,france,history,literature,non-fiction,philosophy,politics,social,society,sociology"
19230501,,Das Kultur-Spiel: Das Spiel Azad / Einsatz der Waffen,,B008PIKZAY,,,ES,,,ger,true,3,1502701,72,121,28,3,2004/1/1,The Player of Games / Use of Weapons,book,14,9,5,0,0,4.32,,,,2,0,Iain M. Banks,,,,,,32,3,3,"fiction,science-fiction"
19231001,,"Uma indiazinha no mundo das fadas (Contos, fábulas de histórias hurbanas) (Portuguese Edition)",,B00G3AOQUG,,,ES,,,,true,1,19231001,0,0,0,0,2011/1/21,,,0,0,0,0,0,0.00,,,,0,0,Vanilza Pereira,,,,,,,0,,
19231501,,Wood-Fired Cooking,,B004IK8PQE,,,ES,,,,true,4,6039090,87,132,37,4,2009/2/17,"Wood-Fired Cooking: Techniques and Recipes for the Grill, Backyard Oven, Fireplace, and Campfire",book,8,12,12,3,2,3.57,,,,2,0,Mary Karlin,,,,,,27,1,4,"cookbooks,cooking,food,non-fiction,reference"
19232001,,Fifty Shades of Green (Irish Mammy Porn),,B009TEVOC6,,,ES,,,,true,1,19232001,2,0,0,0,2012/10/18,,,0,0,0,0,0,0.00,,,,0,0,Jon Duffy,,,,,,2,0,,
19232501,,"The Four Last Things (Roth, #1)",,B00AXPJOMW,,,ES,,,eng,true,22,1257531,1494,2425,658,64,1997/1/1,The Four Last Things,book,156,245,175,58,24,3.69,,,,73,1,Andrew  Taylor,,,,,,62,16,19,"crime,drama,fiction,historical-fiction,horror,mystery,suspense,thriller,unfinished"
19233001,,The Normandy Campaign 1944 (World War II From Primary Sources),,B005P1ZMIY,,,ES,,,,true,5,19233001,9,16,5,0,2011/9/22,,,0,1,4,0,0,3.20,,,,5,0,Bob Carruthers,,,,,,4,0,,
19233501,,荒漠甘泉中英对照本 (Chinese Edition),,B00EJBM5FY,,,ES,,,,true,92,19169617,15717,46148,10452,258,1904/6/30,Streams in the Desert,book,6405,2450,1236,254,107,4.42,,,,3,0,考门夫人,,,,,,3934,22,845,"christian,christian-fiction,christianity,classics,faith,historical,inspirational,non-fiction,personal-development,reference,religion,spirituality,theology"
19234001,,Set In Stone,,B003GDFR6A,,,ES,,,,true,17,535640,1603,3514,947,61,1999/1/1,Set in Stone,book,184,394,295,59,15,3.71,,,,44,0,Robert Goddard,,,,,,362,12,6,"contemporary,crime,fiction,ghosts,historical-fiction,horror,mystery,mystery-thriller,suspense,thriller"
19234501,,The Decline And Fall Of The British Empire,,B003VYAH3W,,,ES,,,,true,10,387885,1853,1972,511,88,2007/10/18,"The Decline and Fall of the British Empire, 1781-1997",book,123,228,131,23,6,3.86,,,,6,1,Piers Brendon,,,,,,1052,15,74,"amazon,historical,history,non-fiction,politics,victorian"
19235001,,A Tale of Two Beverages,,B00B9ZNKMK,,,ES,,,,true,1,19235001,0,0,0,0,2013/2/1,,,0,0,0,0,0,0.00,,,,0,0,Tim Muncaster,,,,,,,0,,
19235501,,Indian and Scout: A Tale of the Gold Rush to California,,B00AQMO9I6,,,ES,,,eng,true,16,19235501,92,105,28,0,1905/1/1,Indian and Scout: A Tale of the Gold Rush to California,book,11,8,2,5,2,3.75,,,,27,0,Frederick Sadleir Brereton,Cyrus Cuneo,,,,,15,0,29,
19236001,,"Saris, Götter, Sandokan - Ein Reisetagebuch",9783844248265,,,,ES,2013/2/19,epubli,,true,1,19236001,0,0,0,0,2013/2/19,,,0,0,0,0,0,0.00,,ebook,,0,0,Karin  Itzigehl,,,,,,,0,,
19236501,,桃色団地の日情 (バンブーコミックス COLORFULセレクト) (Japanese Edition),,B00AEKNEI6,,,ES,,,,true,1,19236501,1,5,1,0,2010/7/10,,,1,0,0,0,0,5.00,,,,1,0,はらざきたくま,,,,,,,0,,
19237001,,Rainy Season: Haiti-Then and Now,,B008GTYD5K,,,ES,,,,true,1,244847,666,882,215,28,1989/1/1,The Rainy Season: Haiti Since Duvalier,book,74,98,34,9,0,4.10,,,,6,0,Amy Wilentz,,,,,,380,6,17,"anthropology,historical,history,literature,memoir,modern,non-fiction,politics,travel"
19237501,,24時間イキ放題★やわはだ花魁遊戯 1 (乙女チック) (Japanese Edition),,B00BN9R00K,,,ES,,,,true,1,19237501,0,0,0,0,,,,0,0,0,0,0,0.00,,,,0,0,瑞色あき,,,,,,,0,,
19238001,,Deflation and Liberty (LvMI),,B005FSHC80,,,ES,,,,true,5,7544624,141,265,74,5,2008/10/1,Deflation and Liberty,book,17,21,27,6,3,3.58,,,,7,0,Jörg Guido Hülsmann,,,,,,57,5,2,"economics,non-fiction,politics,unfinished"
19238501,,100-Calorie Sweets:  Amazing Recipes for Guilt-Free Desserts,,B00AXHNJVW,,,ES,,,,true,1,19238501,45,36,11,1,2013/1/5,,,3,2,3,1,2,3.27,,,,11,1,Janie Samuels,,,,,,23,0,5,"cookbooks,food"
19239001,,How To Play Poker For Beginners: Learn To Play Poker Like A Pro For Newbies & Dummies - Discover Poker Strategies & Tips,,B009NGPHDC,,,ES,,,,true,1,19239001,1,0,0,0,2012/10/7,,,0,0,0,0,0,0.00,,,,0,0,Jessie Sassano,,,,,,1,0,,
19239501,,海に降る (Japanese Edition),,B009CTWXMI,,,ES,,,,true,1,19239501,0,0,0,0,2012/1/13,,,0,0,0,0,0,0.00,,,,0,0,朱野 帰子,,,,,,,0,,
19240001,,Demon Blade: The Chains That Bind,,,,,ES,2013/11/21,Imbria Arts,eng,true,3,19240001,1,4,1,0,2013/11/21,,book,0,1,0,0,0,4.00,24,ebook,first,1,0,Brittany Dodson,,,,,,,0,,
19240501,8582181639,A Trajetória dos Corpos,9788582181638,,,,ES,2013/12/15,Dracaena,por,false,1,19240501,0,0,0,0,2013/12/15,,book,0,0,0,0,0,0.00,285,Paperback,1ª,0,0,Wolff Rothstein,,,,,,,0,,
19241001,,Jerry Cotton - Folge 2900: Der Master-Code (German Edition),9783838725819,,,,ES,,,,true,1,19241001,0,0,0,0,2013/1/15,,,0,0,0,0,0,0.00,,,,0,0,Jerry Cotton,,,,,,,0,,
19241501,,En Finir Avec Les Forces Malefiques De La Maison De Ton Pere‏ (French Edition),,B0096TKEYI,,,ES,,,,true,2,27312699,2,5,1,0,2012/9/5,,,1,0,0,0,0,5.00,,,,0,0,D.K. Olukoya,,,,,,,0,1,
19242001,,A Sunday in Ordinary Time,9781630017415,,,,ES,,,,true,2,17656833,2,0,0,0,2013/2/15,,,0,0,0,0,0,0.00,,,,0,0,Mary Ann Grossman,,,,,,,0,,
19242501,,決算書のワナ　危ない会社の見破り方 (Japanese Edition),,B00EPVA46U,,,ES,,,,true,1,19242501,0,0,0,0,2008/12/10,,,0,0,0,0,0,0.00,,,,0,0,永野 良佑,,,,,,,0,,
19243001,,Amore proibito,,B00FQDQXH0,,,ES,,Harlequin Mondadori,ita,true,11,8540690,108,116,36,7,2008/2/1,Forbidden Lord,book,4,8,18,4,2,3.22,,,,3,0,Helen Dickson,,,,,,44,3,,"fiction,harlequin,historical,history,regency,romance"
19243501,,Erlesenes Leben bei Amalthea (German Edition),9783902862822,,,,ES,,,,true,1,19243501,0,0,0,0,2013/11/27,,,0,0,0,0,0,0.00,,,,0,0,,,,Amalthea Verlag,,,,0,,
19244001,,Enjoy The Silence,,B00FMHJJJ4,,,ES,,,en-GB,true,2,18594083,270,337,102,16,2013/9/28,,book,9,32,44,15,2,3.30,,,,12,0,L.A. Witt,,,,,,116,12,2,"adult,contemporary,erotica,fiction,lgbt,music,novella,romance"
19244501,,To Protect And Serve? A History Of The Police Force And Its Place In Society,,B006J6HSWW,,,ES,,,,true,1,19244501,6,7,2,0,2011/12/6,,,1,0,0,1,0,3.50,,,,2,0,History Today,,,,,,2,0,1,
19245001,,The Enchanter (The Crusaders),9780758909213,,,,ES,,,,true,3,2452953,23,52,14,1,2007/11/1,The Enchanter,,5,5,1,1,2,3.71,,,,9,1,Jack T. Chick,,,,,,2,0,,
19245501,,Loopy Lizard and the King's Pardon,,B00E5SGR6E,,,ES,,,,true,1,19245501,5,9,2,0,2013/7/25,,,1,1,0,0,0,4.50,,,,2,0,Lee Kimber,Paul Elder,,,,,2,0,,
19246501,,Vitals,9780007321858,,,,ES,,,,true,24,1103561,1879,3144,961,63,2002/1/1,Vitals,book,110,265,395,158,33,3.27,,,,8,0,Greg Bear,,,,,,496,8,6,"american,dystopia,fantasy,fiction,medical,mystery,novels,science,science-fiction,suspense,thriller"
19247001,,Angry Horses,,B00BFZVWII,,,ES,,,,true,1,19247001,2,4,1,0,2013/2/13,,,0,1,0,0,0,4.00,,,,1,0,Stephen Blair,,,,,,2,0,,
19247501,,純情メトロ (GUSH mania COMICS) (Japanese Edition),,B00BN9AYKI,,,ES,,,,true,1,19247501,0,0,0,0,,,,0,0,0,0,0,0.00,,,,0,0,あきば じろぉ,,,,,,,0,,
19248001,,Rages of the Night,,B004T38Y0M,,,ES,,,,true,2,19248001,4,0,0,0,2005/8/15,,,0,0,0,0,0,0.00,,,,0,0,Marijoyce Porcelli,,,,,,4,0,,
19248501,,Candie Wants the Professor,,B007VU3TNM,,,ES,,,,true,2,19248501,1,0,0,0,2012/4/19,,,0,0,0,0,0,0.00,,,,0,0,Saffron Sands,,,,,,1,0,,
19249001,,"The Everything Tarot Book: Reveal Your Past, Inform Your Present, And Predict Your Future (Everything®)",,B005DIASU6,,,ES,,,,true,6,496504,104,87,23,3,2006/1/1,"The Everything Tarot Book: Reveal Your Past, Inform Your Present, And Predict Your Future (Everything: Philosophy and Spirituality)",book,5,11,4,3,0,3.78,,,,4,1,Skye Alexander,,,,,,52,4,13,"amazon,non-fiction,novels,spirituality"
19249501,,Prince's Submissive: An Heir for Succession,,B0084V7A00,,,ES,,,,true,1,19249501,13,15,6,0,2012/5/19,,,0,1,2,2,1,2.50,,,,6,0,Arthur  Mitchell,,,,,,5,1,1,
19250001,,ROUGH TREADS,,B00H52FKXI,,,ES,,,,true,1,19250001,0,0,0,0,2013/12/6,,,0,0,0,0,0,0.00,,,,0,0,Lester Gibbons,,,,,,,0,,
19250501,,The Agamben Dictionary,9780748688630,,,,ES,,,,true,4,13763398,15,24,6,0,2011/6/6,The Agamben Dictionary,book,3,0,3,0,0,4.00,,,,0,0,,,,"Alex Murray,Jessica Whyte",,,3,0,3,"philosophy,reference"
19251001,,Dating and Online Dating (Everything You Need to Know about Dating and Online Dating),,B006OTB96A,,,ES,,,,true,1,19251001,2,0,0,0,2011/12/14,,,0,0,0,0,0,0.00,,,,0,0,Jesse Weller,,,,,,2,0,,
19251501,,Decisions To Destiny: Becoming World Changers One Decision At A Time!,9781301162499,,,,ES,2013/1/31,Smashwords Edition,,true,1,19251501,0,0,0,0,2013/1/31,,,0,0,0,0,0,0.00,,ebook,,0,0,Dr. Travis J Hedrick,,,,,,,0,,
19252001,,"The Senior Cohousing Handbook, 2nd Edition: A Community Approach to Independent Living (Senior Cohousing Handbook: A Community Approach to Independent)",,B0035YPIGY,,,ES,,,,true,6,5375844,65,83,21,1,2005/8/15,"The Senior Cohousing Handbook, 2nd Edition: A Community Approach to Independent Living",,5,11,4,1,0,3.95,,,,1,0,Charles Durrett,,,,,,28,0,8,"non-fiction,psychology"
19252501,,Forgiveness: A Guide for Prayer (Take and Receive Series),9780829436631,,,,ES,,,,true,5,5036319,32,42,10,1,1985/6/1,Forgiveness: A Guide for Prayer (Take and Receive Series),,4,4,2,0,0,4.20,,,,1,0,"Jacqueline Syrup Bergan,S. Marie Schwan",,,,,,12,1,1,"christianity,spirituality"
19253001,,An Eye for An I: Living Philosophy,,B004G8OZKI,,,ES,,,,true,6,3574861,18,20,5,0,2007/7/8,An Eye For An I: Living Philosophy,,3,0,1,1,0,4.00,,,,0,0,Robert Spillane,,,,,,9,0,,
19253501,,上と外（下）,,B00GSLH7MO,,,ES,,,jpn,true,2,19253501,6,8,2,0,2007/1/1,,book,1,0,1,0,0,4.00,,,,1,0,"Riku Onda,恩田 陸",,,,,,3,0,1,
19254001,,Life After Theft,9780007515578,,,,ES,,,,true,11,16065465,10272,10434,2919,543,2013/4/1,,book,625,938,947,307,102,3.57,,,,5,0,Aprilynne Pike,,,,,,6583,73,57,"chick-lit,contemporary,death,fantasy,fiction,funny,ghosts,high-school,mystery,paranormal,retellings,romance,school,supernatural,teen,thriller,urban-fantasy,young-adult"
19254501,,"Memoria MEMS; Veloce, cruciverba mini intelligente così divertente, così impegnativo, non avrete bisogno di una penna! (Italian Edition)",,B006RM6KRC,,,ES,,,,true,5,20505165,5,6,2,0,2011/5/1,,,0,0,2,0,0,3.00,,,,0,0,Sarah Silver,,,,,,1,0,2,
19255001,,Secret Thoughts,,B005BON7LE,,,ES,,,,true,5,11447317,102,177,49,3,2011/6/6,Secret Thoughts,book,11,19,10,7,2,3.61,,,,1,0,David Lodge,,,,,,42,1,,"drama,fiction,novels,philosophy,plays,relationships"
19255501,,Odessa Star,,B00CW44FVM,,,ES,,Kiepenheuer&Witsch,ger,true,20,6620646,1016,1951,594,37,2003/1/1,Odessa Star,book,54,182,255,85,18,3.28,,,,3,0,Herman Koch,,,,Christiane Kuby,,255,10,11,"fiction,novels"
19256001,,Breve historia de Roma,9788499672922,,,,ES,,,,true,3,19256001,27,41,10,0,2012/2/6,,,5,2,2,1,0,4.10,,,,10,0,Miguel Ángel Novillo López,,,,,,13,1,4,
19256501,,The World English Bible (WEB): Zechariah,,B000JQUYWY,,,ES,,,eng,true,7,15770192,284,574,130,20,2005/6/1,,book,87,22,12,6,3,4.42,,,,0,0,Anonymous,,,,,,71,15,6,"christian,christianity,non-fiction,theology"
19257001,,Male Order,,B00BA1EVR6,,,ES,,,,true,4,12351549,159,174,57,16,2011/8/4,Male Order,book,7,16,17,7,10,3.05,,,,1,1,Cassandre Dayne,,,,,,20,7,9,"bdsm,contemporary"
19257501,,斐多:柏拉图对话录 (Chinese Edition),,B0088FZ7IO,,,ES,,,zho,true,400,982310,16751,33477,8317,265,-380/1/1,Φαίδων,book,3115,2886,1830,382,104,4.03,,,,1,0,"Jiang Yang,Plato",,,,杨绛,,6024,27,295,"classics,college,death,fiction,historical,history,literature,non-fiction,philosophy,religion,school,unfinished"
19258001,1937716406,Smart Marathon Training: Run Your Best Without Running Yourself Ragged,9781937716400,,,,ES,,,,true,2,12888935,158,312,81,7,2011/10/1,,,19,35,24,2,1,3.85,,,,5,0,Jeff Horowitz,,,,,,4,4,1,"health,non-fiction,personal-development"
19258501,,Alex and the Demon,,B00AMQ6B3C,,,ES,,,eng,true,3,16667680,41,42,16,4,2012/12/11,Alex and the Demon,book,1,2,6,4,3,2.62,,,,2,0,K. Matthew,,,,,,18,4,,"erotica,fantasy,horror"
19259001,,Poesías,9791021369924,,,,ES,,,,false,2,23225265,3,8,2,1,2013/11/6,,,1,0,1,0,0,4.00,,,,0,0,Manuel Acuña,,,,,,1,0,,
19259501,,"Destiny Prevails:  My life with Aristotle, Alexander, Christina Onassis and her daughter, Athina",9789601426440,,,,ES,,,,true,1,19259501,10,12,4,1,2013/5/24,,,0,1,2,1,0,3.00,,,,4,1,Paul Ioannidis,,,Dody Tsiantar,,,6,0,,
19260001,1780337612,The Glass Half Full,9781780337616,,,,ES,2014/5/14,Not Avail,,true,1,19260001,21,13,3,0,2012/3/1,,,1,2,0,0,0,4.33,162,ebook,,3,0,Suzanne Segerstrom,,,,,,15,0,,self-help
19260501,,Il rumore dei tuoi passi,,B0080K3ITM,,,ES,,,ita,true,7,13643427,2456,5974,1423,139,2012/1/1,Il rumore dei tuoi passi,book,676,460,202,63,22,4.20,,,,14,3,Valentina D'Urbano,,,,,,580,8,21,"abuse,contemporary,drama,fiction,love,romance,teen,young-adult"
19261001,,DER GEIST DES CHRISTENTUMS UND SEIN SCHICKSAL (1798-1800) Scan mit kleinen Fehlern (German Edition),,B0055KSJU8,,,ES,,,,true,1,19261001,3,7,2,0,2011/6/11,,,0,1,1,0,0,3.50,,,,2,0,Georg Wilhelm Friedrich Hegel,,,,,,1,0,,philosophy
19261501,,Das Geheimnis des goldenen Salamanders (German Edition),9783760798363,,,,ES,,,,true,2,18044970,9,24,5,1,2013/4/3,Das Geheimnis des goldenen Salamanders,book,4,1,0,0,0,4.80,,,,0,0,Renée Holler,Bernd Lehmann,,,,,4,0,,
19262001,,小象巴巴的故事全集 (Chinese Edition),,B00BOH78M6,,,ES,,,,true,1,19262001,1,5,1,0,2012/11/1,,,1,0,0,0,0,5.00,,,,1,0,让·德·布鲁诺夫,,,,,,,0,,
19262501,1407436538,Genesis,9781407436531,,,,ES,2009/1/1,W. F. Howes Limited,eng,false,74,6171892,31330,40022,10355,1693,2006/1/1,Genesis,book,3364,3664,2243,733,351,3.86,193,Paperback,large print,1,0,Bernard Beckett,,,,,,19352,120,202,"adult,adult-fiction,dystopia,fantasy,fiction,novella,novels,philosophy,post-apocalyptic,science,science-fiction,science-fiction-fantasy,short-stories,speculative-fiction,teen,young-adult"
19263001,,The Game Behind the Game: Mastering The Art Of Bullshit,,B004VRWZLA,,,ES,,,,true,2,12441822,9,8,3,0,2011/3/29,,,1,0,0,1,1,2.67,,,,2,0,Russ Parr,,,,,,5,0,1,
19263501,,oyakodesiawaseninaruadarutochirudorennnokosodate anatahahitorinannkajyanai imakosojinnseiwoikinaosutoki (oyakodesiawaseninaru adarutochirudorennnokosodate) (Japanese Edition),,B00C1NC4YE,,,ES,,,,true,1,19263501,0,0,0,0,2013/3/25,,,0,0,0,0,0,0.00,,,,0,0,sakuramiruku,,,,,,,0,,
19264001,,The Naughty Mule (Freaked Out Fairy Tales),,B00BNGXQI8,,,ES,,,,true,1,19264001,0,0,0,0,2013/12/5,,,0,0,0,0,0,0.00,,,,0,0,Piper Bishop,,,,,,,0,,
19264501,,Heart Of Matter,,B004YDM79Q,,,ES,,,,true,12,126639,309,261,62,7,1979/1/1,The Heart of Matter,book,30,18,12,1,1,4.21,,,,5,0,Pierre Teilhard de Chardin,,,,,,168,5,47,"christianity,non-fiction,philosophy,religion,science,spirituality,theology"
19265001,,ラストイニング（２７） (ビッグコミックス) (Japanese Edition),,B00G9QO7NU,,,ES,,,,true,1,19265001,0,0,0,0,2010/10/29,,,0,0,0,0,0,0.00,,,,0,0,"加藤 潔,神尾 龍",中原 裕,,,,,,0,,
19265501,,Das Periodensystem Referenzblatt (German Edition),,B006ZDQ604,,,ES,,,,true,1,19265501,0,0,0,0,2012/1/18,,,0,0,0,0,0,0.00,,,,0,0,John Bain,,,,,,,0,,
19266001,,Das kalte Herz,,B00AK018Z6,,,ES,,,ger,true,3,425294,1,0,0,0,2002/1/1,Coco Zamis 03. Das kalte Herz. Die Abenteuer einer jungen Hexe.,book,0,0,0,0,0,0.00,,,,0,0,"Ernst Vlcek,Neal Davenport",,,,,,,0,,
19266501,,The Invisible Constitution (Inalienable Rights),,B001FA0HHU,,,ES,,,,true,4,3276118,260,303,87,11,2008/1/1,The Invisible Constitution (Inalienable Rights),,12,37,23,11,4,3.48,,,,4,0,Laurence H. Tribe,,,,,,135,0,17,"history,non-fiction,politics"
19267001,,La macchina nuova (Peppa Pig),,B00H56P2UU,,,ES,,,ita,true,1,19267001,3,3,1,0,2013/12/6,,book,0,0,1,0,0,3.00,,,,1,0,"Neville Astley,Silvia D'Achille",,,,,,2,0,,
19267501,,Papa a de la classe (Cédric #4),,B00DZ3YH9E,,,ES,,,fre,true,5,6591403,98,191,53,2,1991/1/1,Papa a de la classe,book,10,17,21,5,0,3.60,,,,12,0,Raoul Cauvin,Laudec,,,,,9,1,,"comics,graphic-novels,humor"
19268001,,Les vraies clés de la confiance en soi (Comment) (French Edition),9782848997827,,,,ES,,,,true,1,19268001,2,1,1,0,2013/11/14,,,0,0,0,0,1,1.00,,,,1,0,Kenneth Hambly,,,,,,1,0,,
19268501,,剣の女王と烙印の仔 VIII: 8 (MF文庫J) (Japanese Edition),,B0095F1HXA,,,ES,,,,true,1,19268501,3,6,2,0,2011/11/23,,,1,0,0,0,1,3.00,,,,2,0,"夕仁,杉井光",,,,,,1,0,,
19269001,,"Commentaries on the Laws of England, Vol. 2 - The Rights of Things",,B004EEPOJ0,,,ES,,,,true,41,1714249,100,62,16,1,1766/1/1,Commentaries on the Laws of England Vol.2,,7,3,4,1,1,3.88,,,,1,0,William Blackstone,,,,,,67,0,1,"classics,economics,historical,history,politics,reference"
19269501,,Pecking Order,,B00ATNFJSG,,,ES,,,,true,4,1474452,75,122,33,4,2004/1/1,Pecking Order,,9,8,13,3,0,3.70,,,,7,0,Chris Simms,,,,,,28,5,1,fiction
19270001,8858810597,Il giardino dei Finzi-Contini,9788858810590,,,,ES,2013/1/2,Feltrinelli,ita,true,27,355789,12194,21884,5747,343,1962/1/1,ll giardino dei Finzi-Contini,book,1616,2139,1420,416,156,3.81,223,ebook,,5,1,Giorgio Bassani,,,,,,4645,91,170,"adult-fiction,classics,cultural,european-literature,fiction,historical,historical-fiction,history,literary-fiction,literature,love,modern-classics,novels,romance,unfinished,war"
19270501,,Leviathan and Dreadnought (Ward Z 1.5 and 1.6),,B00H26W8NW,,,ES,,,,true,1,19270501,21,20,4,1,2013/12/1,,,4,0,0,0,0,5.00,,,,4,1,Amy Cross,,,,,,16,1,,
19271001,,"Il coraggio di sognare - Noi, gli One Direction (Italian Edition)",,B0089MXOQS,,,ES,,,eng,true,20,11792612,17288,33130,7192,571,2011/1/1,Dare to Dream: Life As One Direction (100% Official),book,5587,799,513,167,126,4.61,,,,19,1,"Harry Styles,Liam Payne,Louis Tomlinson,Niall Horan,One Direction,Zayn Malik",,,,,,7080,49,611,"autobiography,biography,contemporary,funny,love,memoir,music,non-fiction,young-adult"
19271501,,Bread for the Pharaoh,,B00H2W1WY2,,,ES,,,,true,2,18605155,1,4,1,1,2013/9/26,,,0,1,0,0,0,4.00,,,,0,0,Jason  Black,,,,,,,0,,
19272001,,Fun With Science: Class 7,,B005K0095Q,,,ES,,,,true,1,19272001,2,0,0,0,2011/8/29,,,0,0,0,0,0,0.00,,,,0,0,Payal Walia,,,,,,2,0,,
19272501,,Forbidden Jewel of India (Mills & Boon Historical),9781472003546,,,,ES,2013/1/1,Mills & Boon Historical,,true,14,15803352,581,725,202,31,2012/12/18,Forbidden Jewel of India,book,43,70,59,23,7,3.59,,ebook,,9,0,Louise Allen,,,,,,297,6,7,"adult,chick-lit,fiction,harlequin,historical,historical-fiction,regency,romance"
19273001,,"Autismus: Adlerblick und Tunnelsicht. Tipps für Kids  (Geschwister, Mitschüler/-innen, Freunde und Co von Kindern mit Autismus-Spektrum-Störungen) (German Edition)",,B00F43O42S,,,ES,,,,true,2,22354828,3,2,1,1,2013/10/30,,,0,0,0,1,0,2.00,,,,1,1,Melanie Matzies-Köhler,,,,,,2,0,,mental-health
19273501,,His Firm Hand 2,,B0087TUH68,,,ES,,,,true,2,19273501,2,0,0,0,2012/5/30,,,0,0,0,0,0,0.00,,,,0,0,Ellie Saxx,,,,,,2,0,,
19274001,,Der Schimmelreiter (Zweisprachige illustrierte Gold Edition (Deutsch / Englisch)) (German Edition),,B00G513FUK,,,ES,,,,true,153,1210271,7403,16810,4898,146,1888/1/1,Der Schimmelreiter,book,968,1492,1462,640,336,3.43,,,,0,0,Theodor Storm,,,Christian Schmidt,,,1339,72,67,"classic-literature,classics,fiction,ghosts,gothic,historical,historical-fiction,horror,literary-fiction,literature,mystery,novella,novels,plays,school,short-stories"
19274501,,Los orígenes históricos del Cristianismo (Spanish Edition),9788499207117,,,,ES,,,,true,1,19274501,1,4,1,0,2012/6/12,,,0,1,0,0,0,4.00,,,,1,0,José Miguel García Pérez,,,,,,,0,,
19275001,,山響呼 (Japanese Edition),,B00GWVP6RS,,,ES,,,,true,1,19275001,0,0,0,0,2013/8/7,,,0,0,0,0,0,0.00,,,,0,0,カム,,,,,,,0,,
19275501,,Pure Magic: A Complete Course in Spellcasting,,B007L4SYSI,,,ES,,,,true,4,1244553,684,766,184,12,2007/8/1,Pure Magic: A Complete Course in Spellcasting,book,80,65,31,5,3,4.16,,,,7,0,Judika Illes,,,,,,416,7,12,"fantasy,magic,non-fiction,reference,research,spirituality,witches"
19276001,,Psicologia Gerencial (2a Edición) (Spanish Edition),,B00BRYXIU2,,,ES,,,,true,1,19276001,2,3,1,0,2013/3/9,,,0,0,1,0,0,3.00,,,,1,0,Jorge Flores,,,,,,,0,,
19276501,,"Notorious (Seaclusion, #2)",,B00GVKMCJA,,,ES,,,en-GB,true,4,17907469,364,622,146,24,2013/11/23,,book,66,56,21,2,1,4.26,,,,14,0,Leanne Davis,,,,,,141,8,19,"contemporary,romance"
19277001,,パパイヤ軍団★（１） (Japanese Edition),,B00G267752,,,ES,,,,true,1,19277001,0,0,0,0,,,,0,0,0,0,0,0.00,,,,0,0,青木 光恵,,,,,,,0,,
19277501,,Nathalie - tome 1 - Mon premier tour du monde (Première ligne) (French Edition),9782203056664,,,,ES,,,,true,2,19277501,2,1,1,0,2010/3/26,,,0,0,0,0,1,1.00,,,,1,0,Sergio Salma,,,,,,1,0,,
19278001,,"God's Outrageous Claims: Discover What They Mean for You (Strobel, Lee)",,B000SF52U0,,,ES,,,,true,1,214334,533,686,175,18,1998/9/1,"God's Outrageous Claims: Discover What They Mean for You (Strobel, Lee)",,55,66,41,11,2,3.92,,,,8,1,Lee Strobel,,,,,,233,10,47,"christian,christianity,faith,non-fiction,reference,religion,spirituality,theology"
19278501,,蒸し暑いからぬぐー (マジキューコミックス) (Japanese Edition),,B00DSGG7AU,,,ES,,,,true,1,19278501,1,5,1,0,,,,1,0,0,0,0,5.00,,,,1,0,ボマーン,,,,,,,0,,
19279001,,The Back Country,,B00E4G6DQG,,,ES,,,,true,5,99435,1149,2491,588,31,1967/1/1,The Back Country,,273,202,97,11,5,4.24,,,,6,1,Gary Snyder,,,,,,437,14,13,"american,classics,fiction,literature,nature,philosophy,poetry,religion,spirituality"
19279501,,買いの法則、売りの原則 (Japanese Edition),,B00BB7DF9Y,,,ES,,,,true,1,19279501,0,0,0,0,,,,0,0,0,0,0,0.00,,,,0,0,金子哲雄,,,,,,,0,,
19280001,,Abisso senza fine,,B00EC8Z9F2,,,ES,2013/8/2,,ita,true,62,9635495,48605,124899,29513,1583,2011/1/1,Fallen,book,12624,12003,4144,593,149,4.23,,,,5,1,Karin Slaughter,,,,Annalisa Biasci,,11294,178,860,"adult,adult-fiction,contemporary,crime,detective,fiction,murder-mystery,mystery,mystery-thriller,romance,suspense,thriller"
19280501,,The Donation of Constantine,,B00FQ70MAU,,,ES,,,,true,2,18673462,58,80,22,7,2013/10/8,,,6,8,4,2,2,3.64,,,,3,0,Simon LeVay,,,,,,31,3,2,"historical-fiction,research"
19281001,,The Major Works of Fyodor M. Dostoevsky,,B0013XW2PO,,,ES,,,,true,18,19007626,304,359,80,2,2007/12/21,,,50,23,4,2,1,4.49,,,,1,0,Fyodor Dostoyevsky,,,,,,153,3,30,"classics,fiction,novels"
19281501,,Dream Lover,,B00FCHOAFM,,,ES,,,eng,true,1,19281501,190,190,49,6,2013/9/20,Dream Lover,book,17,16,12,1,3,3.88,,,No Ordinary Lovers Collection,49,6,Jennifer Blake,,,,,,115,9,4,"anthologies,fantasy,historical,historical-fiction,novella,romance,science-fiction,time-travel"
19282001,,Bargaining with the Billionaire: The Blackmail Bargain / The Billion-Dollar Bride / How To Marry a Billionaire,,B002RI9ILA,,,ES,,,eng,true,3,7647622,20,18,5,0,2009/4/21,Bargaining with the Billionaire,book,1,2,1,1,0,3.60,,,,1,0,Robyn Donald,,,,,,13,0,1,
19282501,,491 Days: Prisoner number 1323/69,,B00E96ICNS,,,ES,,,eng,true,7,18427087,587,402,103,17,2013/8/9,,book,32,44,16,7,4,3.90,,,,14,1,Winnie Madikizela-Mandela,,,,,,379,5,55,"autobiography,biography,history,memoir,non-fiction,politics,school"
19283001,,"Austin, Texas. The Willy & Waylon Years - From The Rock & Roll Side of Town 1974 - 1976 (Don Buford's Bedside Companion)",,B00CTYBPZ4,,,ES,,,,true,1,19283001,1,0,0,0,2013/5/15,,,0,0,0,0,0,0.00,,,,0,0,Donald L. Buford,,,Denniger Bolton,,,1,0,,
19283501,,Marijuana Indoors: Five Easy Gardens,9781878823489,,,,ES,,,,true,4,61434,60,99,22,0,1999/1/1,Marijuana Indoors: Five Easy Gardens,,13,7,2,0,0,4.50,,,,1,0,Jorge Cervantes,,,,,,31,0,1,
19284001,,全開（フル・スロットル）で飛ばせ (光文社文庫) (Japanese Edition),,B009KZ4UD4,,,ES,,,,true,1,19284001,0,0,0,0,1990/8/20,,,0,0,0,0,0,0.00,,,,0,0,大藪 春彦,,,,,,,0,,
19284501,,Domina,9781596528871,,,,ES,,,,true,37,45911,1487,3513,849,76,1983/1/1,Domina,book,352,310,146,34,7,4.14,,,,35,0,Barbara Wood,,,,,,427,11,24,"feminism,fiction,health,historical,historical-fiction,history,literature,romance,victorian"
19285001,,Just A Minute: 52 Seconds Simplified Motivation (EnjoyLife Series),,B007JAY44W,,,ES,,,,true,3,13626387,28,32,7,1,2012/3/9,,book,4,3,0,0,0,4.57,,,,1,0,Bernard Kelvin Clive,,,,,,20,2,2,
19285501,,The Taming of Mei Lin (Mills & Boon Historical Undone),9781408905159,,,,ES,2010/10/1,Mills & Boon Historical Undone,,true,6,8939370,844,1026,293,56,2010/1/1,,book,56,95,96,32,14,3.50,,ebook,,1,0,Jeannie Lin,,,,,,460,12,6,"adult,erotica,fiction,harlequin,historical,historical-fiction,novella,romance,short-stories"
19286001,,Explode Your Email Opt-In Rate Using These 56 Free And Proven Strategies,,B008ZO8JM4,,,ES,,,,true,1,19286001,1,0,0,0,2012/8/18,,,0,0,0,0,0,0.00,,,,0,0,Anthony P,,,,,,1,0,,
19286501,,The Ugly Truth,,,,,ES,2014/1/6,,eng,true,4,19286501,77,130,31,2,2014/1/1,,book,13,11,7,0,0,4.19,,ebook,,19,1,G.A. Hauser,,,,,,37,0,1,contemporary
19287001,,モノケロスの魔杖は穿つ 3 (MF文庫J) (Japanese Edition),,B0095F21G2,,,ES,,,,true,1,19287001,0,0,0,0,2007/6/30,,,0,0,0,0,0,0.00,,,,0,0,"伊都 工平,巳島",,,,,,,0,,
19287501,,人間交差点（１３） (ビッグコミックス) (Japanese Edition),,B00AQ9I7QY,,,ES,,,,true,1,19287501,0,0,0,0,1986/11/29,,,0,0,0,0,0,0.00,,,,0,0,矢島正雄,弘兼憲史,,,,,,0,,
19288001,0307279642,On Paper: The Everything of Its Two-Thousand-Year History,9780307279644,,,,ES,2014/7/1,Vintage,,false,7,17262099,1887,1145,297,88,2013/1/1,,book,84,109,84,17,3,3.86,430,Paperback,,22,6,Nicholas A. Basbanes,,,,,,1425,21,35,"adult,essays,historical,history,non-fiction,science,technology,writing"
19288501,,"La faculté de Harpe est amoureuse - Une nouvelle du recueil ""Quelque chose est là-dehors"" (Du monde entier) (French Edition)",,B00G3DAPWQ,,,ES,,,fre,true,1,19288501,0,0,0,0,2013/10/22,,book,0,0,0,0,0,0.00,,,,0,0,Richard Bausch,,,,,,,0,,
19289001,8071067083,Dějiny Taiwanu,,,,,ES,2004/1/1,Nakladatelství Lidové noviny,cze,false,1,19289001,7,17,4,0,2004/1/1,,book,1,3,0,0,0,4.25,304,Hardcover,,4,0,"Ivana Bakešová,Rudolf Fürst,Zdenka Heřmanová",,,,,,1,0,1,
19289501,,Skinny Thinking Chew On This!,,B0052F4RUW,,,ES,,,,true,3,19289501,63,58,19,2,2011/5/23,,,6,3,2,2,6,3.05,,,,15,1,Laura Katleman,,,,,,31,0,6,"cooking,health,non-fiction"
19290001,,porutogarunosatoyamawoaruku (Japanese Edition),,B00BL87990,,,ES,,,,true,1,19290001,0,0,0,0,2013/11/29,,,0,0,0,0,0,0.00,,,,0,0,TatenoOsamu,,,,,,,0,,
19290501,,Nice and Sweet: Five Explicit Erotic Romance Stories,,B00H5WVN9I,,,ES,,,,true,1,19290501,2,0,0,0,2013/12/6,,,0,0,0,0,0,0.00,,,,0,0,"Amy Dupont,Angela Ward,Connie Hastings,Nycole Folk,Sarah Blitz",,,,,,2,0,,
19291001,,Alzheimer (ESSAIS DOC.) (French Edition),9782226295439,,,,ES,,,,true,1,19291001,0,0,0,0,2013/9/18,,,0,0,0,0,0,0.00,,,,0,0,Dominique-Alice Decelle,,,,,,,0,,
19291501,,Zwei Welten,,B004UO8068,,,ES,,,ger,true,6,34851848,2,8,2,0,1926/1/1,Zwei Welten. Ein Marco-Polo-Roman,book,0,2,0,0,0,4.00,,,,0,0,Egmont Colerus,,,,,,,0,,
19292001,,Heian / Pinan Kata & Bunkai The Fundamentals,9781291337051,,,,ES,,,,true,1,19292001,4,11,3,0,2013/2/28,,,1,1,0,1,0,3.67,,,,3,0,Lee Taylor,,,,,,1,0,,
19292501,,Houses History and People Pratt,,,,,ES,,,,false,1,19292501,1,3,1,0,,,book,0,0,1,0,0,3.00,,,,1,0,Richard Pratt,,,,,,,0,,
19293001,,Passions d'Orient,,B00EEA6CV8,,,ES,,,fre,true,4,19293001,10,4,1,0,2011/7/15,Promised to the Sheikh / The Sheikh's Virgin / Kept for the Sheikh's Pleasure,book,0,1,0,0,0,4.00,,,,1,0,"Lynn Raye Harris,Sharon Kendrick,Susan Mallery",,,,"Carole Masseaut,Marie Villani",,9,0,,
19293501,,How to get 300 extra  moves on candy crush saga.for kindle fire.,,B00ELO8VLG,,,ES,,,,true,1,19293501,0,0,0,0,2013/11/30,,,0,0,0,0,0,0.00,,,,0,0,Peter Small,,,,,,,0,,
19294001,,"Kristin, wo steckst du? #1 (German Edition)",9783845005584,,,,ES,,,,true,1,19294001,0,0,0,0,2011/12/15,,,0,0,0,0,0,0.00,,,,0,0,Oliver Becker,,,,,,,0,,
19294501,,Teen Titans Annual #2,,B00FY575Q8,,,ES,,,eng,true,1,19294501,21,39,12,0,,,book,3,3,2,2,2,3.25,,,,12,0,Scott Lobdell,"Barry Kitson,Jesús Merino,Scott McDaniel",,,,,4,1,1,"comics,young-adult"
19295001,,Archaeology and the Bible,,B00DT74S3Q,,,ES,,,eng,true,22,19295001,52,57,13,1,1916/1/1,,book,7,4,2,0,0,4.38,,,,12,0,George Aaron Barton,,,,,,11,1,19,
19295501,8585418796,Traçando Madrid,,,,,ES,1997/1/1,Artes e Ofícios Editora,por,false,2,12387277,18,40,10,1,1997/1/1,,book,4,2,4,0,0,4.00,144,,,2,0,Luis Fernando Verissimo,,,,,,7,0,,
19296001,,"The Prophet Armed: Trotsky, 1879-1921",,,,,ES,1963/1/1,OXFORD UNIVERSITY PRESS,eng,false,18,184654,2906,3340,775,48,1954/1/1,The Prophet Armed: Trotsky 1879-1921,book,410,237,98,18,12,4.31,540,Hardcover,SECOND PRINTING,3,1,Isaac Deutscher,,,,,,260,10,3,"biography,biography-memoir,classics,history,memoir,non-fiction,politics,war"
19296501,,"Works of Frank Norris. The Octopus: A Story of California, The Pit, McTeague and more (mobi)",,B004L9L1IQ,,,ES,,,,true,4,9537914,31,30,7,0,2010/5/6,,book,3,3,1,0,0,4.29,,,,1,0,Frank Norris,,,,,,21,0,1,fiction
19297001,,Inside the Poker Mind: Essays on Hold 'em and General Poker Concepts,,B003TXSRKK,,,ES,,,,true,2,113689,123,248,71,2,2000/5/1,Inside the Poker Mind: Essays on Hold 'em and General Poker Concepts,,11,21,31,8,0,3.49,,,,1,0,"David Sklansky,John Feeney",,,,,,27,5,3,non-fiction
19297501,,怪盗レッド－５　レッド、誘拐される☆の巻 (角川つばさ文庫) (Japanese Edition),,B00GUBVLEM,,,ES,,,,true,1,19297501,2,4,1,0,2013/11/15,,,0,1,0,0,0,4.00,,,,1,0,"しゅー,秋木 真",,,,,,1,0,,
19298001,,Das Maikäfermädchen,,B008SB58QE,,,ES,,,ger,true,2,14059225,75,165,38,2,2012/8/1,,book,18,16,3,1,0,4.34,,,,0,0,Gina  Mayer,,,,,,24,1,,"fiction,historical,historical-fiction,novels"
19298501,,Der innere Kompass: Wege der Spiritualität (German Edition),9783104026206,,,,ES,,,,true,15,10868022,359,561,137,9,2010/1/1,El camino de la espiritualidad: Llegar a la cima y seguir subiendo,book,54,50,26,6,1,4.09,,,,0,0,Jorge Bucay,,,,Lisa Grüneisen,,151,3,30,"inspirational,philosophy,psychology"
19299001,,Astérix - Obélix et Compagnie - nº23 (French Edition),,B00FMOI0PQ,,,ES,,,,true,64,71301,6484,18929,4595,95,1976/1/1,Obélix et Compagnie ,book,1819,1695,908,157,16,4.12,,,,3,0,"Albert Uderzo,René Goscinny",,,,,,507,27,14,"adventure,childrens,classics,comedy,comics,economics,fantasy,fiction,france,funny,graphic-novels,graphic-novels-comics,historical,historical-fiction,history,humor,young-adult"
19299501,0857730258,The University of Oxford,9780857730251,,,,ES,2015/3/2,I. B. Tauris & Company,,true,5,8501915,48,50,16,0,2010/1/1,,,1,6,5,2,2,3.12,390,ebook,,1,0,G.R. Evans,,,,,,22,0,1,"education,history,reference"
19300001,,Amelia Earhart Flies Into History,9781612306346,,,,ES,,,,true,4,20809452,292,453,126,13,2013/5/31,,,19,48,50,7,2,3.60,,,,7,0,Nancy Nahra,,,,,,28,4,14,"amazon,biography,biography-memoir,non-fiction"
19300501,,A Mixed Up Christmas,,B00H07FV5U,,,ES,,,,true,2,19300501,6,14,3,1,2013/12/1,,,2,1,0,0,0,4.67,,,,3,1,L. Hollar,Sarah Sprague,,,,,3,0,,
19301001,1596250100,The Adventures of Huckleberry Finn,9781596250109,,,,ES,2004/1/1,Digireads.com,,true,391,2956,1463576,4090434,1073124,13977,1884/12/10,Adventures of Huckleberry Finn,book,320837,370072,271485,80776,29954,3.81,,ebook,,43,2,Mark Twain,,,,,,255979,2874,23347,"adult,adult-fiction,adventure,american,americana,childrens,classic-literature,classics,fiction,high-school,historical,historical-fiction,history,humor,literary-fiction,literature,novels,realistic-fiction,school,unfinished,young-adult"
19301501,,"Perry Rhodan 1083: Der Kometenmann (Heftroman): Perry Rhodan-Zyklus ""Die kosmische Hanse"" (Perry Rhodan-Erstauflage) (German Edition)",9783845310824,,,,ES,,,,true,1,19301501,1,0,0,0,2012/5/2,,,0,0,0,0,0,0.00,,,,0,0,K.H. Scheer,,,,,,,0,,
19302001,,Lara the Black Cat Fairy (Rainbow Magic),9780795324260,,,,ES,,,,true,7,7140921,886,1354,334,7,2009/1/1,,book,165,70,62,26,11,4.05,,,,0,0,Daisy Meadows,,,,,,339,12,10,"chapter-books,childrens,fantasy,literature,magic,middle-grade"
19302501,0373446012,Forced Alliance,9780373446018,,,,ES,2014/6/3,Love Inspired,,false,10,19302501,183,271,73,15,2014/1/1,Forced Alliance,book,18,27,19,7,2,3.71,224,Paperback,,54,15,Lenora Worth,,,,,,80,8,7,"christian,christian-fiction,contemporary,cozy-mystery,fiction,inspirational,mystery,romance,suspense,thriller"
19303001,,The Complete Guide to Lowering Cholesterol,,B00G8PFWEA,,,ES,,,,true,1,19303001,1,0,0,0,2013/10/26,,,0,0,0,0,0,0.00,,,,0,0,Brandon Ruse,,,,,,1,0,,
19303501,,"Heartwork, How To Get What You Really REALLY Want",,B00AUIH226,,,ES,,,,true,1,19303501,5,12,3,0,2012/12/28,,,0,3,0,0,0,4.00,,,,3,0,Dale Goldstein,Richard Wehrman,,,,,1,0,,
19304001,,Investing in the Right Property Now!,,B005EYSVTO,,,ES,,,,true,3,13358352,35,57,16,3,2011/7/1,,book,1,9,5,0,1,3.56,,,,6,0,Margaret Lomas,,,,,,10,0,2,non-fiction
19304501,1616494131,The 12 Step Prayer Book Volume 1  The 12 Step Prayer Book Volume 2: A collection of 12 Step Prayer Books Volume 1 and 2,9781616494131,,,,ES,2011/11/11,Hazelden Publishing,,true,2,19304501,30,42,10,0,2011/11/11,,,4,4,2,0,0,4.20,298,ebook,,7,0,Bill Pittman,,,,,,7,0,12,
19305001,,Custom and Myth (免费公版书),,B00AIHID7C,,,ES,,,,true,76,5002395,122,81,25,2,,,book,2,9,7,7,0,3.24,,,,0,0,Andrew Lang,,,,,,82,4,4,"amazon,classics,mythology,non-fiction,philosophy,reference"
19305501,,Twelve Days of Christmas...Fucking,,B006GRSRTM,,,ES,,,,true,1,19305501,4,5,2,0,2011/11/30,,,0,1,0,0,1,2.50,,,,2,0,Robin Scott,,,,,,1,0,,amazon
19306001,,Twisted Shadow (The Continuing Adventures of Glen Wilson),,B00ADCTRBS,,,ES,,,,true,2,3113895,4,9,2,0,2005/7/30,Twisted Shadow,book,1,1,0,0,0,4.50,,,,1,0,"Ken Coffman,Mark Bothum",,,,,,1,0,,
19306501,,絶対可憐チルドレン（５） (少年サンデーコミックス) (Japanese Edition),,B009JZHO8I,,,ES,,,,true,1,19306501,2,5,1,0,2006/6/16,,,1,0,0,0,0,5.00,,,,1,0,椎名 高志,,,,,,,0,,
19307001,,１・２の三四郎（３） (Japanese Edition),,B00AIFYOAE,,,ES,,,,true,1,19307001,1,0,0,0,1979/7/18,,,0,0,0,0,0,0.00,,,,0,0,小林まこと,,,,,,1,0,,
19307501,,約束のワルツ [Yakusoku no warutsu],,B007SRY8BU,,,ES,,,jpn,true,8,3031869,68,102,28,0,2002/5/3,Mr. Rushford's Honour ,book,6,11,6,5,0,3.64,,,,0,0,"Meg Alexander,メグ・アレクサンダー",,,,飯原 裕美,,22,1,,"harlequin,historical,regency,romance"
19308001,,非常班级:男生都是挨整的命 (Chinese Edition),,B008D8QM6W,,,ES,,,,true,1,19308001,1,0,0,0,2009/10/1,,,0,0,0,0,0,0.00,,,,0,0,伍美珍,,,,,,1,0,,
19308501,,Haunted,,B00930CCAY,,,ES,,,,true,1,19308501,3,12,3,0,2012/8/27,,,0,3,0,0,0,4.00,,,,3,0,K.C. Davis,,,,,,,0,,
19309001,,"Cyber as a ""Team Sport"": Operationalizing A Whole-of-Government Approach to Cyberspace Operations",,B00H4FTXBQ,,,ES,,,,true,2,19309001,0,0,0,0,2013/12/4,,,0,0,0,0,0,0.00,,,,0,0,National Defense University Institute,,,,,,,0,,
19310001,,Cuentos basados en el teatro de Shakespeare,9788467840544,,,,ES,2013/1/1,Anaya,spa,false,430,42036,10534,17334,4393,309,1899/1/1,Tales from Shakespear,book,1534,1473,1069,248,69,3.95,,Paperback,,4,0,"Charles Lamb,Mary Lamb",,,,,,4114,24,466,"adventure,british-literature,childrens,classic-literature,classics,collections,drama,education,english-literature,fantasy,fiction,historical,historical-fiction,history,juvenile,literature,non-fiction,novels,plays,poetry,reference,romance,school,short-stories,teen,theatre,unfinished,young-adult"
19310501,,Le Rire : Essai sur la signification du comique,,B005D1DEMC,,,ES,,,fre,true,192,710015,3200,4032,1085,85,1900/1/1,Le Rire,book,267,390,309,91,28,3.72,,,,1,0,Henri Bergson,,,,,,1545,4,119,"classics,comedy,education,essays,france,humor,language,literature,non-fiction,philosophy,psychology,school,sociology,unfinished,writing"
19311001,,Des Todes dunkler Bruder,,B00B4M0I00,,,ES,,,ger,true,101,17231,285167,664193,170444,6093,2004/7/10,Darkly Dreaming Dexter,book,58324,57380,38682,10949,5109,3.90,,,,8,1,Jeff Lindsay,,,,Frauke Czwikla,,103922,259,2292,"adult,adult-fiction,american,contemporary,crime,dark,detective,drama,fiction,horror,humor,murder-mystery,mystery,mystery-thriller,novels,suspense,thriller"
19311501,,Thomas Henry Huxley; A Sketch Of His Life And Work,,B004TQGJVA,,,ES,,,,true,4,19311501,4,2,1,0,2010/1/29,,,0,0,0,1,0,2.00,,,,1,0,P. Chalmers Mitchell,,,,,,3,0,,
19312001,,Hold Me Tight: Your Guide to the Most Successful Approach to Building Loving Relationships,9780748126323,,,,ES,,,,false,44,2153780,16621,23001,5583,429,2008/1/1,Hold Me Tight: Seven Conversations for a Lifetime of Love,book,2359,1958,936,236,94,4.12,,,,74,5,Sue Johnson,,,,,,8116,47,1950,"adult,education,family,health,love,marriage,mental-health,non-fiction,parenting,personal-development,psychology,reference,relationships,romance,self-help,spirituality,unfinished"
19312501,,Calming the Storm:  10 Tips for Coping with Anxiety,,B0075QL98E,,,ES,,,,true,2,19312501,2,4,1,0,2012/11/1,,,0,1,0,0,0,4.00,,,,1,0,Christine Kruger-Remus,,,,,,,0,,
19313001,,Explode Your Salon Business,,B0050VAMDY,,,ES,,,,true,1,19313001,4,5,1,0,2011/5/13,,,1,0,0,0,0,5.00,,,,1,0,Anthony Presotto,,,,,,3,0,,
19313501,,検診で寿命は延びない (PHP新書),,B008CY1C2G,,,ES,,,,true,1,19313501,0,0,0,0,2010/5/15,,,0,0,0,0,0,0.00,,,,0,0,岡田正彦,,,,,,,0,,
19314001,,The Essential Galileo (Hackett Classics),9781603840965,,,,ES,,,,true,5,6370493,396,282,76,4,2008/9/30,The Essential Galileo,,17,26,28,4,1,3.71,,,,9,0,"Galileo Galilei,Maurice A. Finocchiaro",,,,,,247,10,21,"biography,canon,classics,education,faith,historical-fiction,history,non-fiction,philosophy,science,textbooks,theology"
19314501,,Storie - La guerra del Peloponneso,,B00EXK4J6O,,,ES,,Rizzoli,ita,true,4,19314501,39,27,6,0,,,,3,3,0,0,0,4.50,,,,3,0,"Herodotus,Thucydides",,,"Claudio Moreschini,Franco Ferrari,Giovanna Daverio Rocchi",,,12,1,13,"classics,history"
19315001,,Paranoia,,B00F7Q0SVS,,,ES,,,,true,3,16152634,20,59,12,3,2012/10/22,Paranoia,book,11,1,0,0,0,4.92,,,,0,0,Francesco Urbano,,,,,,9,0,,
19315501,,The Living Lamp,,B004IARVOQ,,,ES,,,,true,1,19315501,2,0,0,0,2011/1/6,,,0,0,0,0,0,0.00,,,,0,0,,,,Pete Pawelek,,,2,0,,
19316001,,Turning the Tables,,B00EXS23JQ,,,ES,,,,true,3,18842196,253,32,9,3,2013/8/30,,book,1,5,2,0,1,3.56,,,,1,0,"Angelia Sparrow,Devin Wood,Julian Griffith,V.K. Foxe",,,Kathleen Tudor,,,238,0,1,"anthologies,bdsm,erotica,fantasy,fiction,historical,humor"
19316501,,Protege: Developing Your Next Generation of Church Leaders,9780830863785,,,,ES,,,,true,1,19316501,19,22,6,0,2012/5/18,,,2,0,4,0,0,3.67,,,,6,0,Steve Saccone,,Cheri Saccone,,,,9,0,3,
19317001,,それは突然、運命の相手が(2) (電撃コミックス) (Japanese Edition),,B00CFJJZVY,,,ES,,,,true,1,19317001,2,8,2,0,,,,1,0,1,0,0,4.00,,,,2,0,ヒロモト ヒロキ,,,,,,,1,,manga
19317501,,78 races de chevaux (French Edition),9782359320442,,,,ES,,,,true,1,19317501,1,0,0,0,2011/11/24,,,0,0,0,0,0,0.00,,,,0,0,"Caroline Hemery,Vincent Fournier",Helen Zubriichuk,,,,,1,0,,
19318001,,Verbandskommunikation und Kommunikationsmanagement: Eine systemtheoretische Perspektive (essentials) (German Edition),9783658038618,,,,ES,,,,true,1,19318001,0,0,0,0,2013/11/19,,,0,0,0,0,0,0.00,,,,0,0,Olaf Hoffjann,,,,,,,0,,
19318501,,My Berlin Kitchen: Eine Liebesgeschichte (German Edition),9783641109592,,,,ES,,,,true,17,13551147,10672,12393,3327,465,2012/9/12,My Berlin Kitchen: A Love Story (with Recipes) ,book,765,1284,949,256,73,3.72,,,,3,1,Luisa Weiss,,,,"Andrea Stumpf,Gabriele Werbeck",,1729,53,12,"adult,autobiography,biography,biography-memoir,chick-lit,contemporary,cookbooks,cooking,family,fiction,food,memoir,non-fiction,relationships,romance,travel"
19319001,,Revenge of the Nerd (The Big Bang Series 1),,B00FO659YM,,,ES,,,,true,2,18661663,20,20,5,2,2013/10/5,,book,3,0,1,1,0,4.00,,,,2,0,Stella Starke,,,,,,11,1,1,
19319501,,"How to Change Your Life: An Inspirational, Life-Changing Classic from the Ernest Holmes Library",,B004FN1TF8,,,ES,,,,true,1,19319501,49,78,19,1,2010/1/1,,,9,4,5,1,0,4.11,,,,19,1,"Ernest Holmes,Michael Bernard Beckwith",,,,,,11,0,13,
19320501,,The Atheist's Bible,,B000ROKXRY,,,ES,,,,true,16,769787,2955,4684,1189,93,2007/1/1,The Atheist's Bible: An Illustrious Collection of Irreverent Thoughts,book,438,387,252,78,34,3.94,,,,24,4,Joan Konner,,,,,,1581,8,27,"comedy,humor,non-fiction,philosophy,reference,religion,science,spirituality"
19321001,,"In Defence of Sociology: Essays, Interpretations and Rejoinders",,B00E6OT21E,,,ES,,,,true,7,1249348,45,39,12,0,1996/9/1,"In Defence of Sociology: Essays, Interpretations and Rejoinders",,1,3,6,2,0,3.25,,,,0,0,Anthony Giddens,,,,,,21,1,2,"non-fiction,sociology"
19321501,,"Pottery, for Artists Craftsmen & Teachers",,B006LS530C,,,ES,,,,true,16,19321501,27,24,6,0,2015/8/20,,book,2,2,2,0,0,4.00,,,,6,0,George J. Cox,,,,,,12,0,6,
19322001,,How to Write a Book and How to Market a Book,,B00CK4QCYM,,,ES,,,,true,1,19322001,1,0,0,0,2013/4/27,,,0,0,0,0,0,0.00,,,,0,0,Jacob Tudor Baruch,,,,,,1,0,,
19322501,,"The Other Side of God: The Eleven Gem Odyssey of Being (Psychological Crisis, Personal Growth and Transformation, Altered States, Alternate Realities, Internal Balance) (Other Side Series Book 1)",,B0050C5T90,,,ES,,,,true,2,19322501,199,136,35,4,2007/5/24,The Other Side of God: The Eleven Gem Odyssey of Being,,14,7,11,2,1,3.89,,,,32,4,Susan D. Kalior,,,,,,120,2,34,"amazon,christian,christian-fiction,christianity,contemporary,fiction,inspirational,non-fiction,personal-development,religion,self-help,spirituality"
19323001,,A Curious Relationship - The Beginning,,B00BZFZIVA,,,ES,,,,true,1,19323001,1,0,0,0,2013/3/21,,,0,0,0,0,0,0.00,,,,0,0,Aala Williams,,,,,,1,0,,
19323501,,Shark 2-Pack! - Shark Photos And Facts Make It Fun! (Over 95+ Pictures of Different Sharks),,B007XDWZM8,,,ES,,,,true,1,19323501,6,16,4,0,2012/4/24,,,2,0,2,0,0,4.00,,,,4,0,Cyndy Adamsen,,,,,,,0,,childrens
19324001,,When the Man in Your Life Can't Commit,,B005T0YIHC,,,ES,,,en-GB,true,4,8858203,22,30,9,1,2006/2/1,,book,1,4,2,1,1,3.33,,,,3,0,David    Hawkins,,,,,,8,1,2,
19324501,,Love's Winsome Warrior,9781597053211,,,,ES,,,,true,7,33823443,87,101,24,0,2013/5/5,Love's Winsome Warrior,book,11,8,4,1,0,4.21,,,,1,0,Angela Verdenius,,,,,,55,2,,"paranormal,romance"
19325001,,Betmix - The future of horse racing.,,B009SR5MGS,,,ES,,,,true,1,19325001,7,6,2,0,2012/10/17,,,0,1,0,1,0,3.00,,,,2,0,David Williams,,,,,,2,0,2,
19325501,098314494X,Hug-A-Bug Travels to Peru,9780983144946,,,,ES,2013/11/18,Mighty Lion Ventures,,false,1,19325501,2,0,0,0,2013/11/18,,book,0,0,0,0,0,0.00,44,Paperback,,0,0,Anna Church,,,,,,2,0,,
19326001,,泰戈尔英汉双语诗集:新月集,,B00GU9IZ34,,,ES,,,,true,1,19326001,6,5,1,0,2010/1/1,,,1,0,0,0,0,5.00,,,,1,0,罗宾德拉纳特·泰戈尔,,,,郑振铎,,1,0,3,
19326501,,Systems Thinkers,,B0042ETPQA,,,ES,,,,true,4,7931605,70,69,17,2,2009/9/1,,,5,9,2,1,0,4.06,,,,0,0,"Karen Shipp,Magnus Ramage",,,,,,46,3,7,"philosophy,science,sociology"
19327001,,"Love and Respect! A Kids Book About Love and Happiness: Help Your Child Understand Love and Friendship, Faith, Joy and Forgiveness in This Book on Love for Children (Faith Alive)",,B00EJPAEZI,,,ES,,,,true,1,19327001,4,5,1,1,2013/8/13,,,1,0,0,0,0,5.00,,,,1,1,Bill McBride,,,,,,3,0,,
19327501,,50 Shades Of Face Down Ass Up,,B00GUXWE64,,,ES,,,,true,1,19327501,1,2,1,0,2013/11/22,,,0,0,0,1,0,2.00,,,,1,0,Justin Credible,,,,,,,0,,
19328001,1614232814,Six Miles to Charleston: The True Story of John and Lavinia Fisher,9781614232810,,,,ES,2012/1/24,History Press (SC),,true,4,9899171,463,457,133,17,2010/12/3,,,30,30,48,18,7,3.44,128,ebook,,30,1,Bruce Orr,,,,,,256,5,35,"american-history,biography,historical,history,non-fiction,suspense,true-crime,unfinished"
19328501,1477733078,Mi Pez/My Fish,9781477733073,,,,ES,2014/1/1,PowerKids Press,,false,3,19328501,0,0,0,0,2013/1/1,,book,0,0,0,0,0,0.00,24,Hardcover,,0,0,Norman D. Graubart,,,,,,,0,,
19329001,1480164569,The Autobiography of an Ex-Colored Man,9781480164567,,,,ES,2012/10/23,Createspace Independent Publishing Platform,,false,193,130312,17381,29996,7679,462,1912/1/1,The Autobiography of an Ex-Colored Man,book,2374,2888,1853,451,113,3.91,124,Paperback,,0,0,James Weldon Johnson,,,,,,7974,50,388,"adult,american,autobiography,biography,biography-memoir,classic-literature,classics,college,fiction,historical,historical-fiction,history,literary-fiction,literature,memoir,non-fiction,novels,realistic-fiction,school,social-issues,sociology"
19329501,1482090155,27 Juicing Recipes: Natural Food & Healthy Life,9781482090154,,,,ES,2013/1/28,Createspace Independent Publishing Platform,,false,1,19329501,0,0,0,0,2013/1/28,,,0,0,0,0,0,0.00,82,Paperback,,0,0,"Karina Di Geronimo,Leonardo Manzo",,,Easy Recipes International,,,,0,,
19330001,1484102657,19th Century Actor Autobiographies,9781484102657,,,,ES,2013/4/12,Createspace,,false,13,15103673,3,5,1,0,2010/12/9,,,1,0,0,0,0,5.00,170,Paperback,,0,0,George Iles,,,,,,,0,1,
19330501,1490392173,Faith & Reflection,9781490392172,,,,ES,2013/5/2,Createspace Independent Publishing Platform,,false,2,19330501,0,0,0,0,2013/5/2,,,0,0,0,0,0,0.00,196,Paperback,,0,0,Jeffrey Tiel,,,,,,,0,,
19331001,1491088095,The Suitors of Yvonne,9781491088098,,,,ES,2013/7/24,Createspace,,false,40,6885432,120,178,49,5,1902/1/1,The Lovers of Yvonne,book,8,23,12,4,2,3.63,96,Paperback,,0,0,Rafael Sabatini,,,,,,52,2,5,"adult,adventure,british-literature,classics,english-literature,fiction,historical,historical-fiction,novels"
19331501,1491287063,Dorothy Dainty's Gay Times,9781491287064,,,,ES,2013/8/5,Createspace,,false,14,12624378,4,3,1,0,1908/1/1,Dorothy Dainty's Gay Times,book,0,0,1,0,0,3.00,66,Paperback,,0,0,Amy Brooks,,,,,,2,1,,classics
19332001,1492261130,Dreams Do Come True: A Novella,9781492261131,,,,ES,2013/8/26,Createspace Independent Publishing Platform,,false,2,19332001,0,0,0,0,2013/8/26,,,0,0,0,0,0,0.00,90,Paperback,,0,0,Faithe A. Reid,,,,,,,0,,
19332501,1492995134,"Feats Reforged, Vol. I: The Core Rules",9781492995135,,,,ES,2013/10/18,Createspace Independent Publishing Platform,,false,1,19332501,1,1,1,0,2013/10/18,,book,0,0,0,0,1,1.00,42,Paperback,,1,0,Brian  Berg,,,,,,,0,,
19333001,1493715313,Corking the Nuclear Genie: The Promise of Low Energy Transmutation,9781493715312,,,,ES,2013/11/29,Createspace Independent Publishing Platform,,false,2,19333001,1,0,0,0,2013/11/15,,,0,0,0,0,0,0.00,90,Paperback,,0,0,"Alex Jack,Edward Esko",,,,,,1,0,,
19333501,1494215462,Philosophy of Ethics: : A Religious Struggle to Conform,9781494215460,,,,ES,2013/11/19,Createspace Independent Publishing Platform,,false,1,19333501,0,0,0,0,2013/11/19,,,0,0,0,0,0,0.00,26,Paperback,,0,0,John L. Pharms,,,,,,,0,,
19334001,1494282542,Water Lilies 2014,9781494282547,,,,ES,2013/11/29,Createspace Independent Publishing Platform,,false,1,19334001,0,0,0,0,2013/11/29,,,0,0,0,0,0,0.00,26,Paperback,,0,0,Regina Tullock,,,,,,,0,,
19334501,1494322919,"Louisiana State Travel Journal, Motto: Union, Justice, Confidence",9781494322915,,,,ES,2013/12/3,Createspace,,false,1,19334501,0,0,0,0,2013/12/3,,,0,0,0,0,0,0.00,208,Paperback,,0,0,NOT A BOOK,,,,,,,0,,
19335001,1494342170,El Vivo de La Yuca,9781494342173,,,,ES,2013/12/1,Createspace,,false,1,19335001,0,0,0,0,2013/12/1,,,0,0,0,0,0,0.00,220,Paperback,,0,0,MR William C Tejada,,,,,,,0,,
19335501,1494366150,The Devil's Elixir,9781494366155,,,,ES,2013/12/4,Createspace,,false,162,1576915,4465,6253,1626,84,1815/1/1,Die Elixiere des Teufels,book,497,568,404,127,30,3.85,116,Paperback,,0,0,E.T.A. Hoffmann,,,,,,2352,11,86,"canon,classics,crime,drama,fantasy,fiction,gothic,historical-fiction,horror,literary-fiction,literature,mystery,novels,romance,school,short-stories,speculative-fiction,thriller,unfinished"
19336001,,The Reckonning Season,,B006WQ00VU,,,ES,,,,true,1,19336001,1,5,1,0,2012/1/11,,,1,0,0,0,0,5.00,,,,1,0,C.J. Klinger,,,,,,,0,,
19336501,1623658152,Sanctuary Line,9781623658151,,,,ES,2014/5/6,MacLehose Press,,false,20,8548164,1952,3677,1057,161,2010/8/31,,book,149,380,381,122,25,3.48,240,Paperback,,2,0,Jane Urquhart,,,,,,656,15,28,"adult,adult-fiction,contemporary,death,english-literature,family,fiction,literary-fiction,literature,love,mental-health,novels,school"
19337001,,Graziella (French Edition),9782824701035,,,,ES,,,,true,67,10480876,1278,851,231,26,1852/1/1,,book,62,73,66,21,9,3.68,,,,0,0,Alphonse de Lamartine,,,,,,951,11,10,"classics,european-literature,fiction,france,novels,poetry,romance"
19338001,2711607127,Traite de Logique Formelle,9782711607129,,,,ES,1973/1/1,Librarie Philosophique J. Vrin,,false,1,19338001,1,0,0,0,1973/1/1,,,0,0,0,0,0,0.00,318,Paperback,,0,0,Jules Tricot,,,,,,1,0,,
19338501,2711619559,Quel Savoir Apres Le Scepticisme?: Plotin Et Ses Predecesseurs Sur La Connaissance de Soi,9782711619559,,,,ES,2009/1/22,Librarie Philosophique J. Vrin,,false,1,19338501,0,0,0,0,2009/1/22,,,0,0,0,0,0,0.00,480,Paperback,,0,0,"Wilfried Keuhn,Wilfried Kuhn",,,,,,,0,,
19339001,,Asa (Japanese Edition),,B009AKGMFS,,,ES,,,,true,1,19339001,0,0,0,0,2012/9/13,,,0,0,0,0,0,0.00,,,,0,0,Katai Tayama,,,,,,,0,,
19339501,3170186493,Epidemiologie Korperlicher Erkrankungen Und Einschrankungen Im Alter,9783170186491,,,,ES,2008/1/17,Kohlhammer,,false,1,19339501,0,0,0,0,2008/1/17,,,0,0,0,0,0,0.00,264,Paperback,,0,0,"Christina Ding-Greiner,Siegfried Weyerer,Teresa Kaufeler,Ulrike Marwedel",,,,,,,0,,
19340001,317020579X,Philosophie Des 17. Und 18. Jahrhunderts,9783170205796,,,,ES,2008/5/8,Kohlhammer,,false,2,17569118,6,5,1,0,2008/5/8,,book,1,0,0,0,0,5.00,258,Paperback,,0,0,"Emerich Coreth,Harald Schondorf",,,,,,2,0,,science
19340501,329014724X,Der Erste Brief an Die Thessalonicher,9783290147242,,,,ES,1979/12/31,Tvz - Theologischer Verlag Zurich,,false,1,19340501,0,0,0,0,1979/12/31,,,0,0,0,0,0,0.00,80,Paperback,,0,0,Willi Marxsen,,,,,,,0,,
19341001,,Karei no okurimono (Japanese Edition),,B009LSEFIU,,,ES,,,,true,1,19341001,1,0,0,0,2012/10/4,,,0,0,0,0,0,0.00,,,,0,0,Kuki Shūzō,,,,,,1,0,,
19341501,,泥棒は三文の得　夫は泥棒、妻は刑事　９ (徳間文庫),,B00H2973C0,,,ES,,,jpn,true,1,19341501,1,0,0,0,2013/1/15,,book,0,0,0,0,0,0.00,,,,0,0,"Jirō Akagawa,赤川 次郎",,,,,,1,0,,
19342001,,Unexpected Sparks,,B00444413K,,,ES,,,en-US,true,5,470801,283,533,141,11,2002/2/1,Unexpected Sparks,book,29,62,41,8,1,3.78,,,,18,1,Gina L. Dartt,,,,,,94,7,5,"crime,drama,fiction,lgbt,mystery,mystery-thriller,queer,romance,suspense"
19342501,3659084034,Desarrollo Emocional y Organizacional En Tiempos de Crisis. 2 Parte,9783659084034,,,,ES,2013/11/29,Eae Editorial Academia Espanola,,false,1,19342501,0,0,0,0,2013/11/29,,,0,0,0,0,0,0.00,168,Paperback,,0,0,Parraga Sanchez Jose Manuel,,,,,,,0,,
19343001,3825315878,"John Trevisa's Translation of the 'Polychronicon' of Ranulph Higden, Book VI",9783825315870,,,,ES,2004/1/2,Universitatsverlag Winter,,false,1,19343001,1,0,0,0,2004/1/2,,,0,0,0,0,0,0.00,302,Paperback,,0,0,,,,,,,1,0,,
19343501,,Machines of the Dead 2,,B00BIM2QNS,,,ES,,,en-US,true,2,17565144,178,95,23,3,2013/2/19,,book,11,5,6,1,0,4.13,,,,9,0,David   Bernstein,,,,,,149,2,3,"horror,zombies"
19344001,393803243X,Lokale Eliten Und Hellenistische Konige,9783938032435,,,,ES,2011/4/4,Verlag-Antike,,false,1,19344001,0,0,0,0,2011/4/4,,,0,0,0,0,0,0.00,325,Hardcover,,0,0,,,,"Boris Dreyer,Peter Franz Mittag",,,,0,,
19344501,8882650839,Ergasteria: Impianti Artigianali Ceramici Ad Atene Ed in Attica Dal Protogeometrico Alle Soglie Dell'ellenismo,9788882650834,,,,ES,2000/12/31,L'Erma Di Bretschneider,,false,1,19344501,0,0,0,0,2000/12/31,,,0,0,0,0,0,0.00,290,Hardcover,,0,0,Maria Chiara Monaco,,,,,,,0,,
19345001,9042926686,"Seals and Sealing Practices in the Near East. Developments in Administration and Magic from Prehistory to the Islamic Period: Proceedings of an International Workshop at the Netherlands-Flemish Institute in Cairo on December 2-3, 2009",9789042926684,,,,ES,2012/10/15,Peeters,,false,1,19345001,3,0,0,0,2012/10/15,,,0,0,0,0,0,0.00,218,Hardcover,,0,0,,,,"I Regulski,K Duistermaat,P Verkinderen",,,3,0,,
19345501,,The Edge: 50 Tips from Brands that Lead,,B00A7URJ1Q,,,ES,,,,true,3,16152220,83,96,26,1,2013/1/8,,,5,10,9,2,0,3.69,,,,2,0,Allen P. Adamson,,,,,,50,2,3,"business,non-fiction"
19346001,,メッてされてキャッ,,B00CZANI5C,,,ES,2013/6/21,,jpn,true,1,19346001,1,5,1,0,,,book,1,0,0,0,0,5.00,185,,,1,0,田仲 みのる,,,,,,,0,,
19346501,,The Mormon Prophet,,B004UJ96TI,,,ES,,,,true,32,19346501,24,20,6,1,,,book,2,1,1,1,1,3.33,,,,6,1,Lily Dougall,,,,,,13,0,3,
19347001,,A Arca de Natal,9789896371531,,,,ES,2010/11/15,Saída de Emergência,por,false,41,161361,34483,91258,23069,1812,1993/1/1,The Christmas Box,book,8162,7852,5322,1341,392,3.96,112,Paperback,,18,6,Richard Paul Evans,,,,,,7317,74,125,"adult,adult-fiction,chick-lit,christian,christian-fiction,christianity,christmas,classics,contemporary,death,faith,family,fiction,historical-fiction,holiday,inspirational,non-fiction,novella,novels,realistic-fiction,relationships,religion,romance,short-stories,spirituality,young-adult"
19347501,,Aus Asklepios' Werkstatt (German Edition),,B004YKWLSG,,,ES,,,,true,4,17400534,1,0,0,0,2011/4/28,,,0,0,0,0,0,0.00,,,,0,0,Carl Ludwig Schleich,,,,,,,0,,
19348001,,Under Cover (Under Cover Chronicles),,B00ERTI9N0,,,ES,,,,true,2,17453294,55,64,13,3,2013/8/24,,book,12,1,0,0,0,4.92,,,,1,0,Cyndi Goodgame,,,,,,40,3,1,"angels,demons,paranormal"
19348501,0807154326,Venera: Poems,9780807154328,,,,ES,2014/2/3,LSU Press,,true,5,19348499,2,3,1,0,2014/2/3,,,0,0,1,0,0,3.00,80,ebook,,0,0,Jay Rogoff,,,,,,1,0,,poetry
19349001,0827212755,Gospel and the City: Sermons from the 2013 National Festival of Young Preachers,9780827212756,,,,ES,2013/12/31,Chalice Press,,false,6,19349001,0,0,0,0,2013/12/15,,,0,0,0,0,0,0.00,364,Paperback,,0,0,,,,Dwight A. Moody,,,,0,,
19349501,0988356007,Photofinish,9780988356009,,,,ES,2012/9/16,Chanter Press,,true,2,21023897,11,8,2,0,2012/9/16,,,1,0,1,0,0,4.00,356,ebook,,0,0,Cheryl Kerr,,,,,,8,0,,
19350001,,Feet Can Last a Lifetime: A Health Care Provider's Guide to Preventing Diabetes Foot Problems,,B0052U8EOW,,,ES,,,,true,1,19350001,1,2,1,0,2011/5/25,,,0,0,0,1,0,2.00,,,,1,0,"Christine Tobin,David      Armstrong,National Diabetes Education Program",,,,,,,0,,
19350501,,Vampire küssen besser,,B004WOTW0O,,,ES,,,ger,true,10,621660,4012,5096,1498,111,2005/6/7,"Beyond the Pale (Darkwing Chronicles, #1)",book,315,402,461,210,110,3.40,,,,0,0,Savannah Russe,,,,Gabriele Weber-Jarić,,1998,23,15,"adult,contemporary,fantasy,fiction,horror,magic,mystery,paranormal,romance,science-fiction,supernatural,suspense,thriller,urban-fantasy,vampires"
19351001,1136053131,Introduction to Media Production: The Path to Digital Media Production,9781136053139,,,,ES,2012/9/10,Focal Press,,true,20,7607228,73,61,18,1,1997/2/13,"Introduction to Media Production, Third Edition: The Path to Digital Media Production",book,2,7,5,4,0,3.39,504,ebook,,0,0,"Gorham Kindem,Robert B. Musburger",,,,,,42,1,4,film
19351501,,Windows PowerShell Scripting and Toolmaking,9781105082856,,,,ES,,,,true,2,19351501,22,30,8,0,2011/9/23,,,2,3,2,1,0,3.75,,,,8,0,Don Jones,,,,,,7,0,2,
19352001,,Fine Chicks,,B00GLT2R4Q,,,ES,,,,true,1,19352001,2,5,1,0,2013/11/10,,,1,0,0,0,0,5.00,,,,1,0,Everett Cook,,,,,,1,0,,
19352501,1400849624,America's Crisis of Values: Reality and Perception,9781400849628,,,,ES,2013/10/31,Princeton University Press,,true,2,19352501,0,0,0,0,2013/1/1,,,0,0,0,0,0,0.00,328,ebook,,0,0,Wayne E Baker,,,,,,,0,,
19353001,1444133772,Boost Your Child's Fitness: Teach Yourself,9781444133776,,,,ES,2010/9/24,Teach Yourself,,true,2,13162136,0,0,0,0,2010/9/24,,,0,0,0,0,0,0.00,192,ebook,,0,0,Ceri Roberts,,,,,,,0,,
19353501,1447160649,Euclidean Shortest Paths: Exact or Approximate Algorithms,9781447160649,,,,ES,2014/1/25,Springer,,false,6,14478031,4,14,3,0,2011/1/1,,,2,1,0,0,0,4.67,378,Paperback,,0,0,"Fajie Li,Reinhard Klette",,,,,,,0,,
19354001,,Sapphic Planet,,B007B5K9U8,,,ES,,,,true,2,14061001,4,7,2,1,2012/2/19,,book,0,1,1,0,0,3.50,,,,0,0,Sapphic Planet Authors,,,"Beth Wylde,Kissa Starling",,,2,0,,"anthologies,bdsm,erotica"
19354501,1461420288,"Handbook of Space Security, Volume 1: Policies, Applications and Programs",9781461420286,,,,ES,2014/12/14,Springer,,false,2,19354502,1,0,0,0,2014/4/30,,book,0,0,0,0,0,0.00,1036,Hardcover,,0,0,,,,"Denis Moura,Jana Robinson,Kai-Uwe Schrogl,Peter L Hays",,,,0,,
19355001,1475781407,Stamping Through Mathematics,9781475781403,,,,ES,2013/5/31,Springer,,false,4,1587776,10,19,5,0,2001/1/1,Stamping Through Mathematics,,2,1,1,1,0,3.80,126,Paperback,,0,0,Robin J. Wilson,,,,,,4,1,,
19355501,1480016268,The Black Cat: A Play in Three Acts,9781480016262,,,,ES,2012/9/30,Createspace Independent Publishing Platform,,false,18,20814638,14,19,5,0,2005/12/4,,,1,2,2,0,0,3.80,92,Paperback,,0,0,John Todhunter,,,Des Gahan,,,6,0,1,drama
19356001,1481908138,The Miracles of Our Lord,9781481908139,,,,ES,2013/1/4,Createspace Independent Publishing Platform,,false,54,6410355,182,275,60,9,1871/1/1,Miracles of Our Lord,book,40,15,5,0,0,4.58,88,Paperback,,0,0,George MacDonald,,,Des Gahan,,,85,3,14,"adult,christian,non-fiction,philosophy,religion,spirituality,theology"
19356501,1489908722,"Language Proficiency: Defining, Teaching, and Testing",9781489908728,,,,ES,2013/7/1,Springer,,false,1,19356501,0,0,0,0,2013/11/20,,,0,0,0,0,0,0.00,204,Paperback,,0,0,,,,L a Arena,,,,0,,
19357001,1491827351,Liberations from Mental Bondages and Poverty,9781491827352,,,,ES,2013/11/29,Authorhouse,,true,3,19331614,0,0,0,0,2013/11/29,,,0,0,0,0,0,0.00,,ebook,,0,0,Harlynn Lavance Hammonds,,,,,,,0,,
19357501,1493777203,Climbing a Few of Japan's 100 Famous Mountains - Volume 1: Mt. Daisetsu (Mt. Asahidake),9781493777204,,,,ES,2013/12/5,Createspace Independent Publishing Platform,,false,4,20490649,1,3,1,1,2013/12/5,,,0,0,1,0,0,3.00,68,Paperback,,0,0,Daniel H. Wieczorek,,,,,,,0,,
19358001,1494371383,No-Cook Paleo! - Snack Recipes,9781494371388,,,,ES,2013/12/4,Createspace Independent Publishing Platform,,false,2,19042954,35,46,12,0,2013/11/22,,,5,1,5,1,0,3.83,42,Paperback,,0,0,Ben Plus Publishing,,,,,,18,0,1,"amazon,cookbooks,cooking,food,reference"
19358501,,Der Flug des Schwertes (Die verlorene Kolonie #2),,B00B0LONPQ,,,ES,,,ger,true,1,19358501,1,5,1,0,2013/1/1,Der Flug des Schwertes,book,1,0,0,0,0,5.00,,,,1,0,Jürgen Jentsch,,,,,,,0,,
19359001,,Triple Alliance,9781444740196,,,,ES,,,,true,4,1460335,41,59,14,1,2001/12/1,Triple Alliance,,5,7,2,0,0,4.21,,,,0,0,Nigel Tranter,,,,,,23,0,,"fiction,historical,historical-fiction"
19359501,1627124748,Zookeeper,9781627124744,,,,ES,2014/1/1,Cavendish Square Publishing,,false,3,19359502,1,0,0,0,2013/12/15,,,0,0,0,0,0,0.00,64,Paperback,,0,0,Dean Miller,,,,,,1,0,,
19360001,,Lust (Pure Passion Series),,B00FTKU5VU,,,ES,2013/10/1,,en-GB,true,1,19360001,412,687,167,21,2013/10/1,,book,83,44,22,12,6,4.11,343,Kindle Edition,,167,21,Dayo Benson,,,,,,164,9,34,"amazon,christian,christian-fiction,contemporary,fiction,romance"
19360501,1909878839,Tanaka Chronicles,9781909878839,,,,ES,2013/10/18,New Generation Publishing,,false,3,19360501,5,7,2,0,2013/10/18,,,1,0,0,1,0,3.50,370,Hardcover,,2,0,Tracy Kadungure,,,,,,2,0,,fiction
19361001,,The Storm Makers,,B005SCR5SK,,,ES,,,,true,11,12814612,2819,2014,547,80,2012/1/1,,book,133,178,180,41,15,3.68,,,,10,0,Jennifer E. Smith,Brett Helquist,,,,,2118,19,17,"adventure,chapter-books,childrens,fantasy,fiction,juvenile,magic,middle-grade,paranormal,romance,urban-fantasy,young-adult"
19362001,3528246065,Turbo-Pascal Griffbereit: Alle Turbo-Pascal-Versionen Einschliesslich 5.5,9783528246068,,,,ES,1989/1/1,Vieweg+teubner Verlag,,false,1,19362001,0,0,0,0,1989/1/1,,,0,0,0,0,0,0.00,100,Paperback,,0,0,Ekkehard Kaier,,,,,,,0,,
19362501,3642393276,50 Schlüsselideen Kunst,9783642393273,,,,ES,2014/1/23,Springer Spektrum,ger,false,19,11002557,824,653,172,23,2011/9/1,50 Art Ideas You Really Need to Know,book,41,70,49,9,3,3.80,208,Hardcover,,2,0,Susie Hodge,,,,,,512,10,57,"art,history,non-fiction,reference"
19363001,3642891675,"Die Gegenwartigen Behandlungswege Der Kieferschussverletzungen: Ergebnisse Aus Dem Dusseldorfer Lazarett Fur Kieferverletzte (Kgl. Reservelazarett), Heft IV/VI",9783642891670,,,,ES,1916/1/1,Springer,,false,1,19363001,0,0,0,0,1916/1/1,,,0,0,0,0,0,0.00,232,Paperback,,0,0,"August Lindemann,Chr Bruhn,Friedrich Hautmeyer,Max Kuhl",,,,,,,0,,
19363501,3658024267,Qualitat Im Gesundheitsjournalismus: Perspektiven Aus Wissenschaft Und Praxis,9783658024260,,,,ES,2014/7/18,Springer vs,,false,1,19363501,0,0,0,0,2014/4/1,,,0,0,0,0,0,0.00,412,Paperback,,0,0,,,,"Dennis Reineck,Thomas Schnedler,Volker Lilienthal",,,,0,,
19364001,3662270501,Krankheitserreger Und Gewebsbefund Bei Multipler Sklerose: Vergleichend-Histologisch-Parasitologische Untersuchungen Bei Multipler Sklerose Und Anderen Spirochatosen,9783662270509,,,,ES,1931/1/1,Springer,,false,1,19364001,0,0,0,0,1931/1/1,,,0,0,0,0,0,0.00,198,Paperback,,0,0,Gabriel Steiner,,,,,,,0,,
19364501,3709156629,Syphilis,9783709156629,,,,ES,1934/1/1,Springer,,false,1,19364501,0,0,0,0,1934/1/1,,,0,0,0,0,0,0.00,105,Paperback,,0,0,Herbert Planner,,,,,,,0,,
19365001,,"Works of Joseph Conrad, Vol.3: Lord Jim, The Nigger Of The ''Narcissus'', Nostromo, One Day More, The Point Of Honor",,B00H7IZTKE,,,ES,,,,true,1,19365001,2,0,0,0,2013/12/7,,,0,0,0,0,0,0.00,,,,0,0,Joseph Conrad,,,,,,2,0,,
19365501,,スピーディワンダー　volume01 (ヤングチャンピオン・コミックス) (Japanese Edition),,B00BLF4PWM,,,ES,,,,true,1,19365501,0,0,0,0,,,,0,0,0,0,0,0.00,,,,0,0,"山根章裕,綱本将也",,,,,,,0,,
19366001,,REPERTORY of the Homoeopathic Materia Medica : Homeopathy,,B0048ELLTS,,,ES,,,,true,1,19366001,11,14,3,0,1915/10/1,,,2,1,0,0,0,4.67,,,,3,0,James Tyler Kent,,,,,,4,0,3,
19366501,,Hellgoing: Stories,,,,,ES,2013/1/1,House of Anansi Press,,true,6,17731890,2947,5206,1533,219,2013/1/1,Hellgoing: Stories,book,231,518,481,233,70,3.40,,ebook,,1,0,Lynn Coady,,,,,,484,35,47,"collections,contemporary,family,fiction,literary-fiction,literature,religion,short-stories"
19367001,,250 Indie Games You Must Play,9781439875759,,,,ES,,,,true,1,19367001,1,0,0,0,2011/5/2,,,0,0,0,0,0,0.00,,,,0,0,Mike Rose,,,,,,,0,,
19367501,1443433640,The Ultimate Charles Dickens Christmas,9781443433648,,,,ES,2013/12/18,HarperPerennial Classics,,true,2,19367501,14,9,2,0,2013/12/18,,,1,1,0,0,0,4.50,498,ebook,,0,0,Charles Dickens,,,,,,10,1,,
19368001,,Action Research for Educators,,B003TFE16C,,,ES,,,eng,true,6,2815454,8,11,4,0,2003/1/1,Action Research for Educators,,0,0,3,1,0,2.75,,,,1,0,Daniel R. Tomal,,Dennis J. Hastert,,,,1,0,,
19368501,,Network+ On-The-Go Flash Cards,,B00D1VVZ1S,,,ES,,,,true,1,19368501,4,10,3,0,2013/5/27,,,0,2,0,1,0,3.33,,,,3,0,A. Miller,,,,,,,0,1,
19369001,,Vergleichende Betrachtungen über neuere geometrische Forschungen (German Edition),,B00FGKQC8I,,,ES,,,,true,3,19369001,0,0,0,0,,,,0,0,0,0,0,0.00,,,,0,0,Felix Klein,,,,,,,0,,
19369501,,"Friends with Way Too Many Benefits (Friends with Benefits, #5)",,B00H8CL03E,,,ES,2013/12/10,,eng,true,1,19369501,1578,2791,671,45,2013/11/30,,book,301,219,118,23,10,4.16,,Kindle Edition,,667,45,"Ian Dalton,Luke Young",,,,,,224,16,65,"adult-fiction,chick-lit,comedy,contemporary,erotica,family,fiction,humor,love-story,romance"
19370001,,Hump Day Cafe,,B006WGLTGU,,,ES,,,,true,2,19370001,1,0,0,0,2012/1/11,,,0,0,0,0,0,0.00,,,,0,0,Levi Adair,,,,,,1,0,,
19370501,,Alle Menschen sind sterblich (German Edition),,B0096258F0,,,ES,,,ger,true,46,152057,9112,13722,3341,250,1946/12/17,Tous les hommes sont mortels,book,1376,1170,607,153,35,4.11,,,,0,0,Simone de Beauvoir,,,,Eva Rechel-Mertens,,4921,9,138,"art,classics,contemporary,death,fantasy,feminism,fiction,france,historical-fiction,history,literary-fiction,literature,love,modern-classics,non-fiction,novels,philosophy,politics,science-fiction,unfinished,war"
19371501,,Mining the Web,,B001V7U7CW,,,ES,,,,true,6,19371501,28,57,14,0,2002/1/1,,,5,6,2,1,0,4.07,,,,9,0,Soumen Chakrabarti,,,,,,7,0,,science
19372001,,Blue and Gold Macaws,9781909820180,,,,ES,,,,true,1,19372001,8,14,3,0,2013/12/6,,,2,1,0,0,0,4.67,,,,3,0,Rose Sullivan,,,,,,3,0,2,
19372501,,Epiphyten des Amazonasgebietes (German Edition),,B0057GWYLU,,,ES,,,,true,1,19372501,0,0,0,0,2011/6/21,,,0,0,0,0,0,0.00,,,,0,0,Ernst Heinrich Georg Ule,,,,,,,0,,
19373001,,家庭教師ヒットマンREBORN! カラー版 日常編 5 (ジャンプコミックスDIGITAL) (Japanese Edition),,B00ATLM512,,,ES,,,jpn,true,9,824766,800,2233,546,14,2005/7/4,家庭教師ヒットマンREBORN! 5,book,231,174,105,31,5,4.09,,,,0,0,"Akira Amano,天野 明",,,,,,59,15,2,"action,adventure,comics,fantasy,graphic-novels,magic,manga,time-travel,young-adult"
19373501,,Hungry Monkey: A Food-Loving Father's Quest to Raise an Adventurous Eater,,B003K16PT6,,,ES,,,,true,7,5560559,4748,7530,1989,353,2009/5/19,Hungry Monkey: A Food-Loving Father's Quest to Raise an Adventurous Eater,book,472,818,537,125,37,3.79,,,,63,3,Matthew Amster-Burton,,,,,,2474,31,76,"adult,biography,biography-memoir,cookbooks,cooking,family,food,humor,memoir,non-fiction,parenting,travel"
19374001,,The Oxford Illustrated History of Western Philosophy (Oxford Illustrated Histories),9780191590399,,,,ES,,,,true,7,116845,264,264,70,6,1994/1/1,The Oxford Illustrated History of Western Philosophy,book,18,26,20,4,2,3.77,,,,0,0,,,,Anthony Kenny,,,123,6,15,"biography,canon,criticism,history,non-fiction,philosophy,politics,reference,science"
19374501,,La falsa pista,,B00AHKFVES,,,ES,,,spa,true,112,39796,26907,70799,17438,737,1995/1/1,Villospår,book,5423,8313,3165,400,137,4.06,,,,11,1,Henning Mankell,,,,,,6163,16,228,"adult,contemporary,crime,detective,fiction,murder-mystery,mystery,mystery-thriller,novels,suspense,thriller"
19375001,,Shoka no kito (Japanese Edition),,B009NLQ4VG,,,ES,,,,true,1,19375001,0,0,0,0,2012/10/7,,,0,0,0,0,0,0.00,,,,0,0,Sakutarō Hagiwara,,,,,,,0,,
19375501,,Lost among the Dead and Dying (Temple mysteries),,B00AP7MZ06,,,ES,,,,true,3,18016004,6,10,2,1,2012/12/15,,,2,0,0,0,0,5.00,,,,0,0,Michael Mears,,,,,,3,0,1,
19376001,,天才柳沢教授の生活（２３） (モーニングKC (1272)) (Japanese Edition),,B009KYB7VS,,,ES,,,jpn,true,1,19376001,0,0,0,0,2004/3/23,,book,0,0,0,0,0,0.00,,,,0,0,"Kazumi Yamashita,Kazumi Yamashita",,,,,,,0,,
19376501,,"IT Governance: Policies & Procedures, 2014 Edition",,B00FJEJIJQ,,,ES,,,,true,14,19376501,35,37,10,0,2001/1/1,It Policies and Procedures: Tools & Techniques That Work 2004,book,2,5,1,2,0,3.70,,,,3,0,"Larry Webber,Michael Wallace",,,,,,16,0,2,
19377001,,Rhapsody For The Theatre,,B00BVJFMYI,,,ES,,,,true,7,17262726,126,98,29,4,2013/1/1,,,4,9,12,2,2,3.38,,,,1,0,Alain Badiou,,,,,,25,2,8,"academic,non-fiction,philosophy,theatre"
19377501,,Hancock: The Life and Public Service of Winfield Scott Hancock,,B004INHWUG,,,ES,,,,true,4,26732092,0,0,0,0,2011/1/10,,book,0,0,0,0,0,0.00,,,,0,0,A.T.B. Freed,,,,,,,0,,
19378001,0103262,Citová výchova,,,,,ES,1962/1/1,SNKL,cze,false,391,2183,41031,60843,15868,625,1869/4/15,L'Éducation sentimentale,book,5011,5386,3757,1259,455,3.83,428,Hardcover,,3,1,Gustave Flaubert,,,,,,21510,144,834,"classic-literature,classics,college,contemporary,fiction,france,historical,historical-fiction,literary-fiction,literature,modern,novels,romance,unfinished"
19378501,,"Ich hab eine Freundin, die ist Notärztin",,B00BETZ00G,,,ES,,,ger,true,3,19378501,5,4,1,0,2012/12/19,,book,0,1,0,0,0,4.00,,,Lesemaus,1,0,Ralf Butschkow,,,,,,2,0,,
19379001,,"Destination: Domination, Part One",,B008FQDT18,,,ES,,,,true,1,19379001,0,0,0,0,2012/6/27,,,0,0,0,0,0,0.00,,,,0,0,Emma Valentine,,,,,,,0,,
19379501,,"The Camera's Eye - Erinn, Wood Nymph",,B00C1MD4OY,,,ES,,,,true,1,19379501,0,0,0,0,2013/3/25,,,0,0,0,0,0,0.00,,,,0,0,,,,,,,,0,,
19380001,,Lights Out (City Lights' Sequel),9781938442254,,,,ES,2012/9/4,Smashwords Edition,,true,6,15989605,236,435,97,12,2012/9/3,,book,63,20,13,0,1,4.48,,ebook,,28,0,George Sherman Hudson,,,,,,55,0,5,crime
19380501,,A Midsummer Holiday and Other Poems,,B0082S1PM4,,,ES,,,,true,26,19380501,13,16,4,1,,,book,2,0,2,0,0,4.00,,,,3,1,Algernon Charles Swinburne,,,,,,8,2,,poetry
19381001,,La Silla del Rey,9788461264896,,,,ES,,Autor-Editor,spa,false,1,19381001,2,5,2,1,,,book,0,0,1,1,0,2.50,144,Paperback,,2,1,Matilde Garcia-Mauriño,,,,,,,0,,
19381501,,Triassic,9780983517610,,,,ES,,,,true,2,18554832,1,5,1,0,2011/9/19,,book,1,0,0,0,0,5.00,,,,1,0,Phil Bartow,,,,,,,0,,
19382001,8806149970,Conversazione nella «Catedral»,9788806149970,,,,ES,1998/1/1,Einaudi,ita,false,84,53970,15495,24274,5628,424,1969/1/1,Conversación en La Catedral,book,3017,1672,693,176,70,4.31,710,Paperback,ET Scrittori,8,0,Mario Vargas Llosa,,,,Enrico Cicogna,,8427,12,449,"classics,contemporary,fiction,historical-fiction,literary-fiction,literature,magical-realism,modern-classics,novels,politics,romance,travel,unfinished"
19382501,,DER GARANTIERTE VERKAUFSERFOLG  MIT DER 6-E-VERKAUFSSTRATEGIE (German Edition),9783643123268,,,,ES,,,,true,1,19382501,0,0,0,0,2013/9/26,,,0,0,0,0,0,0.00,,,,0,0,"Friedemann Mack,Heike Dogendorf",,,,,,,0,,
19383001,,Facebook and Privacy: What You Need to Know to Keep Your Privacy Safe,,B003LBRK3K,,,ES,,,,true,1,19383001,3,8,2,0,2010/5/7,,,1,0,1,0,0,4.00,,,,2,0,Grant Greenberg,,,,,,1,0,,
19383501,,The Big Book of Yummy Cupcake Recipes,,B007AUJATA,,,ES,,,,true,1,19383501,12,17,4,1,2012/2/17,,,2,1,1,0,0,4.25,,,,4,1,Dee Phillips,,,,,,7,0,,
19384001,,Phantastische Weihnachten - 24 Geschichten zum Weihnachtsfest (German Edition),,B00AOP06KA,,,ES,,,,true,2,19283220,3,2,1,0,2012/12/14,,book,0,0,0,1,0,2.00,,,,0,0,Various,,,Helke Böttger,,,1,0,,
19384501,2251338101,La Prostitution en Grèce et à Rome,,,,,ES,1990/1/1,,fre,false,3,19384501,18,36,11,1,1990/1/1,La prostitution en Grèce et à Rome,book,1,4,3,3,0,3.27,,,,6,0,Violaine Vanoyeke,,,,,,6,0,,history
19385001,,配るだけで契約が取れる！「最強集客レター術」 [Kubaru dake de Keiyaku ga Toreru! 'Saikyou Shuukyaku Letter Jutsu'],,B00EXMYPC0,,,ES,2013/9/2,Goma Books Kabushikigaisha,jpn,true,1,19385001,1,1,1,0,2013/9/2,,book,0,0,0,0,1,1.00,,,,1,0,木戸一敏,,,,,,,0,,
19385501,,Werke von Arthur Schopenhauer (German Edition),9791021360761,,,,ES,,,,true,29,19062838,292,283,64,4,1907/1/1,,book,37,17,10,0,0,4.42,,,,0,0,Arthur Schopenhauer,,,,,,167,1,48,"non-fiction,novels,philosophy"
19386001,,俺たちのフィールド（２） (少年サンデーコミックス) (Japanese Edition),,B00BEPF0NW,,,ES,,,,true,1,19386001,0,0,0,0,1992/9/18,,,0,0,0,0,0,0.00,,,,0,0,村枝賢一,,,,,,,0,,
19386501,,The Duties of the Heart,9781465535528,,,,ES,,,,true,29,4211272,219,357,78,6,1040/1/1,Kitab al-Hidāya ilā Fara'id al-Qulūb,book,56,14,5,3,0,4.58,,,,0,0,Bahya ben Joseph ibn Paquda,,,,,,90,1,25,"mystery,non-fiction,philosophy,religion"
19387001,,Verbotene Spiele mit Blutjungen Dingern (Blutjunge Dinger) (German Edition),,B007NJR928,,,ES,,,,true,1,19387001,0,0,0,0,2012/3/30,,,0,0,0,0,0,0.00,,,,0,0,Diethfurt Hanssen,,,,,,,0,,
19387501,,???????????:???(???) (Chinese Edition),,B008420QW8,,,ES,,,,true,1,19387501,0,0,0,0,2010/10/1,,,0,0,0,0,0,0.00,,,,0,0,,,,???,,,,0,,
19388001,,Earth 2 #6,,B009ZYWXNO,,,ES,,,eng,true,1,19388001,32,106,26,2,2012/11/7,,book,9,11,5,1,0,4.08,,,,26,2,James Robinson,"Ivan Reis,Nicola Scott,Trevor  Scott",,,,,4,1,,"comics,fantasy"
19388501,,"Partial Fuel Energy Answer for America: Electric Bikes, A (FT Press Delivers Elements)",,B0033ZAW70,,,ES,,,,true,3,8063135,1,0,0,0,2010/1/13,,,0,0,0,0,0,0.00,,,,0,0,"Edward H. Ayres,Robert U. Ayres",,,,,,1,0,,
19389001,,Peace Is,,B00F2ZMBO6,,,ES,,,,true,1,19389001,5,0,0,0,2013/9/9,,,0,0,0,0,0,0.00,,,,0,0,Dae Bynum,,,Darnell Lamont Walker,,,5,0,,
19389501,,How to Start a Title Insurance Company The Step by Step Guide,,B0084RU5HY,,,ES,,,,true,3,19389501,5,10,2,0,2012/5/16,,,2,0,0,0,0,5.00,,,,1,0,Lisa Williams,,,,,,,0,1,
19390001,,toukoubunkookasushounennoukanoobasan (Japanese Edition),,B00F1X2J2I,,,ES,,,,true,1,19390001,0,0,0,0,2013/9/7,,,0,0,0,0,0,0.00,,,,0,0,miyatakengo,,,,,,,0,,
19390501,,Laws of Korea,,B00FU9RH7A,,,ES,,,,true,1,19390501,0,0,0,0,2013/10/11,,,0,0,0,0,0,0.00,,,,0,0,,,,Ryul Kim,,,,0,,
19391001,,"""The Struggle of Sons against Fathers""",,,,,ES,,,rus,false,1,19391001,5,10,2,0,,Борьба детей против отцов,book,2,0,0,0,0,5.00,,,,2,0,Garegin Nzhdeh,,,,,,2,0,,
19391501,,mondaikaiketsuhure-muwa-ku hassougihouhen (Japanese Edition),,B00DIPW3AY,,,ES,,,,true,1,19391501,0,0,0,0,2013/6/20,,,0,0,0,0,0,0.00,,,,0,0,takahashi makoto,,,,,,,0,,
19392001,,História do Menino Jesus,,,,,ES,1928/1/1,Empresa Nacional de Publicidade,por,false,1,19392001,1,0,0,0,1928/1/1,História do Menino Jesus,book,0,0,0,0,0,0.00,85,Mass Market Paperback,,0,0,Emília de Sousa Costa,,,,,,1,0,,
19392501,,"Brotherhood of Thieves: The Wardens (Brotherhood of Thieves, #1)",9780857983275,,,,ES,2014/4/1,Random House Australia Pty Ltd,eng,false,4,19392501,314,623,149,25,2014/4/1,"Brotherhood of Thieves: The Wardens (Brotherhood of Thieves, #1)",book,67,47,30,5,0,4.18,235,Paperback,First Edition,131,23,Stuart Daly,,,,,,114,16,5,"adventure,childrens,fantasy,middle-grade,school,young-adult"
19393001,,やられるプール～縛乳（1） (Japanese Edition),,B00GCT4ODW,,,ES,,,,true,1,19393001,0,0,0,0,,,,0,0,0,0,0,0.00,,,,0,0,南瓜,,,,,,,0,,
19393501,,Observations géologiques sur les îles volcaniques (French Edition),,B005R48C8G,,,ES,,,,true,48,10208067,28,0,0,0,2011/3/16,,book,0,0,0,0,0,0.00,,,,0,0,Charles Darwin,,,,,,19,1,,
19394001,,天保悪党伝,,B0099FI0QI,,,ES,,,jpn,true,1,19394001,0,0,0,0,2001/9/30,,book,0,0,0,0,0,0.00,,,,0,0,"Shuhei Fujisawa,藤沢 周平",,,,,,,0,,
19394501,,5 Sacred Solos - The Truths That The Reformation Recovered (Search For Truth Series),,B00B04AQN6,,,ES,,,,true,1,19394501,16,13,4,0,2013/1/10,,,1,0,2,1,0,3.25,,,,4,0,Brian Johnston,,,,,,6,0,4,
19395001,,寻找快乐岛 (Chinese Edition),,B00935YPVS,,,ES,,,,true,1,19395001,0,0,0,0,2010/11/1,,,0,0,0,0,0,0.00,,,,0,0,汤素兰,,,,,,,0,,
19395501,,Submission: Story of Jane,,B00CH5XL1G,,,ES,,,,true,3,17921796,1,0,0,0,2013/4/17,,,0,0,0,0,0,0.00,,,,0,0,Terry Wakelin,,,,,,1,0,,
19396001,,Communicating with the Future: How Re-engineering Intentions Will Alter the Master Code of Our Future,,B005E19KDS,,,ES,,,,true,3,12164686,76,58,17,3,2011/7/21,,,2,8,3,3,1,3.41,,,,9,0,Thomas Frey,,,,,,13,2,1,non-fiction
19396501,,「分とく山」の和食12ヶ月 (角川マガジンズ) (Japanese Edition),,B00DONBV2Q,,,ES,,,,true,1,19396501,0,0,0,0,2013/7/4,,,0,0,0,0,0,0.00,,,,0,0,野崎 洋光,,,,,,,0,,
19397001,,1分で自分を好きになる本 (Japanese Edition),,B00GDB4SKS,,,ES,,,,true,1,19397001,0,0,0,0,,,,0,0,0,0,0,0.00,,,,0,0,ISMPublishingLab.,,,,,,,0,,
19397501,,Las leyes de la atracción,,B00GSSRX08,,,ES,,,spa,true,14,13261169,184,233,61,8,2011/12/1,The Inconvenient Laws of Attraction,book,15,26,15,4,1,3.82,,,,2,1,Trish Wylie,,,,Reyes Altozano Derqui,,93,7,1,"chick-lit,funny,harlequin,romance"
19398001,,Day,,,,,ES,2011/5/22,,,true,1,19398001,1,5,1,0,2011/5/22,,book,1,0,0,0,0,5.00,8,ebook,,1,0,Ashley Meyer,,,,,,,0,,
19398501,,Craving Her Rough Diamond Doc (Mills & Boon Medical),9781472003409,,,,ES,2013/10/1,Mills & Boon Medical,,true,11,18164960,277,139,33,14,2013/10/1,Craving Her Rough Diamond Doc,book,15,13,3,1,1,4.21,192,ebook,,4,0,Amalie Berlin,,,,,,234,3,1,romance
19399001,1940344042,The Whitechapel Demon,9781940344041,,,,ES,2013/12/6,"Emby Press, LLC",eng,false,2,19368575,248,346,85,20,2013/12/5,,book,30,35,17,2,1,4.07,200,Paperback,,2,2,Joshua   Reynolds,,,,,,139,8,4,"demons,fantasy,fiction,historical-fiction,horror,mystery,paranormal,science-fiction-fantasy,supernatural,thriller,urban-fantasy,victorian"
19399501,,Wunderbar: Il disertore,,B009TWHORM,,,ES,,,ita,true,1,19399501,0,0,0,0,2012/10/19,,book,0,0,0,0,0,0.00,,,,0,0,Ester Palma,Monica Tamburini,,"Amalia Troiani,Marina Marazza",,,,0,,
19400001,,A Babysitter's First,,B0071PDGA8,,,ES,,,,true,2,13484719,6,12,4,0,2012/1/24,,book,0,2,1,0,1,3.00,,,,2,0,Lorelei Ardent,,,,,,,0,,short-stories
19400501,,Twice Cursed,9780979190940,,,,ES,,,,true,1,19400501,41,72,20,0,2011/11/24,,,4,7,7,1,1,3.60,,,,20,0,Nancy C. Johnson,,,,,,16,0,1,
19401001,,The Secret Science of Masonic Initiation,,B0054SL8Y0,,,ES,,,,true,6,6692600,187,212,51,3,2009/6/29,The Secret Science of Masonic Initiation,book,23,18,6,3,1,4.16,,,,6,0,Robert Lomas,,,,,,112,2,10,"non-fiction,philosophy,reference"
19401501,,One Direction Quiz Book and Trivia,,B00EVHUB6G,,,ES,,,eng,true,1,19401501,7,0,0,0,2013/8/29,,book,0,0,0,0,0,0.00,,,,0,0,Katy  Scott,,,,,,6,0,,
19402001,,epocalypse,9781311422477,,,,ES,2013/12/3,Smashwords,eng,true,3,18730439,10,32,7,0,2013/10/26,,book,5,1,1,0,0,4.57,,ebook,,1,0,Victor L. Machin,,,,,,3,0,,
19403001,,The Two Paths (免费公版书),,B00BPN357Q,,,ES,,,,true,55,2161213,54,55,15,1,1859/1/1,"The Two Paths: Being Lectures on Art and its Application to Decoration and Manufacture, Delivered in 1858-9",book,1,8,6,0,0,3.67,,,,0,0,John Ruskin,,,,,,30,1,2,"classics,fiction"
19403501,,The Terra Data: The Dumarest Saga Book 22,,B005K8H1MM,,,ES,,,,true,5,4340562,167,289,79,3,1980/4/1,The Terra Data,book,10,35,31,3,0,3.66,,,,1,0,E.C. Tubb,,,,,,46,7,1,"adventure,amazon,fiction,science,science-fiction"
19404001,,Apocalipsis 2ª Entrega,,B00AQ4Q8L0,,,ES,,,spa,true,5,19404001,28,72,19,1,2011/10/24,,book,5,8,4,1,1,3.79,,,,15,0,Mario  Giordano,,,,,,5,0,3,
19404501,,"Startled by His Furry Shorts (Confessions of Georgia Nicolson, #7)",,B000SEHR1S,,,ES,,,eng,true,37,112631,23308,60373,14645,369,2006/5/1,'...startled by his furry shorts!',book,6086,5019,2916,495,129,4.12,,,,24,2,Louise Rennison,,,,,,4907,90,60,"chick-lit,childrens,comedy,contemporary,drama,family,fiction,funny,high-school,humor,middle-grade,novels,realistic-fiction,romance,teen,young-adult"
19405001,,Prayers of a Vampire,,B00H3WYBTO,,,ES,,,,true,2,19405001,2,5,1,0,2013/12/4,,,1,0,0,0,0,5.00,,,,1,0,J.L. Knight,,,,,,1,0,,
19405501,,The Edge of Honor,,B0056IBFSM,,,ES,,,,true,18,21294,419,873,220,15,1994/4/1,The Edge of Honor,book,64,98,48,7,3,3.97,,,,48,1,P.T. Deutermann,,,,,,97,5,26,"fiction,historical-fiction,thriller,war"
19406001,,The Judgment Stone (An Immortal Files Novel),,B00B7QRBC6,,,ES,,,,true,7,17045800,1008,1046,243,37,2013/5/1,,book,125,78,32,5,3,4.30,,,,55,0,Robert Liparulo,,,,,,702,17,9,"action,christian,christian-fiction,family,fantasy,fiction,inspirational,mystery,thriller"
19406501,,Schaum's Easy Outline Intermediate Algebra (Schaum's Easy Outlines),,B0054ZB3RU,,,ES,,,,true,3,4843109,1,2,1,0,2003/10/27,Schaum's Easy Outlines: Intermediate Algebra,,0,0,0,1,0,2.00,,,,0,0,Ray Steege,,,,,,,0,,
19407001,,スキップ・ビート！ 9 (花とゆめコミックス),,B00DMU93TE,,,ES,,,jpn,true,10,1111162,6549,22471,4917,59,2005/2/18,スキップ・ビート! 9,book,3367,1097,373,49,31,4.57,,,,0,0,Yoshiki Nakamura,,,,,,703,73,15,"comedy,comics,contemporary,drama,fantasy,fiction,funny,graphic-novels,humor,love,manga,realistic-fiction,romance,teen,young-adult"
19407501,,Los Zetas (M9SECURITY),,B0097YJA24,,,ES,,,,true,1,19407501,3,2,1,0,2012/9/8,,,0,0,0,1,0,2.00,,,,1,0,Jorge Aguiar,,,,,,2,0,,
19408001,,La Beauté absolue : l'harmonie intérieure grâce à l'Ayurveda (French Edition),,,,,ES,,,,false,1,19408001,0,0,0,0,2001/7/1,,,0,0,0,0,0,0.00,,,,0,0,"Marian Cohn,Pratima Raichur",,,,,,,0,,
19408501,,The Pony-Girl Collection,,B0091WAVZ2,,,ES,,,,true,2,19408501,7,12,4,0,2012/8/23,,,0,1,2,1,0,3.00,,,,4,0,Jeanette De Martyn,,,,,,3,0,,short-stories
19409001,,芥川賞を取らなかった名作たち (朝日新書) (Japanese Edition),,B009AAJG10,,,ES,,,,true,1,19409001,0,0,0,0,2009/1/13,,,0,0,0,0,0,0.00,,,,0,0,佐伯 一麦,,,,,,,0,,
19409501,,And Even Now (免费公版书),,B00AIHHIXC,,,ES,,,,true,61,519231,88,85,20,6,1921/1/1,And Even Now,book,9,7,4,0,0,4.25,,,,0,0,Max Beerbohm,,,,,,58,2,1,"essays,fiction,modern,non-fiction"
19410001,1482737892,Palm Harbor Paean,9781482737899,,,,ES,,,eng,false,1,19410001,0,0,0,0,2013/3/29,,book,0,0,0,0,0,0.00,,,,0,0,"Francine Coleman Larson,Raymond Eugene Hall",,,,,,,0,,
19410501,,A Penny's Worth of Trouble (All About The Girls),,B005L40H80,,,ES,,,,true,2,19410501,6,0,0,0,2011/9/2,,,0,0,0,0,0,0.00,,,,0,0,Ann Corbett,,,,,,3,1,1,
19411001,,Egrets to the Flames,,B0089OS164,,,ES,,,,true,4,2020898,67,50,19,8,2007/11/1,Egrets to the Flames,,2,3,3,8,3,2.63,,,,2,0,Barbara Anton,,,,,,27,5,,"adult-fiction,contemporary,fiction,historical-fiction,romance"
19411501,1416137386,Supreme Power: Franklin Roosevelt vs. the Supreme Court,9781416137382,,,,ES,,,,false,10,7210397,1553,1860,468,48,2010/1/1,,book,130,218,100,18,2,3.97,,,,4,0,Jeff Shesol,,,,,,476,11,15,"american-history,biography,business,history,non-fiction,politics"
19412001,1423819179,Bev Doolittle 2014 Calendar,,,,,ES,,,eng,false,1,19412001,4,20,4,0,2013/8/1,,book,4,0,0,0,0,5.00,,,,4,0,,,,,,,,0,,
19412501,,Promethea #6,,B00G9OHMOI,,,ES,,,,true,1,19412501,39,75,18,0,,,,9,5,2,2,0,4.17,,,,18,0,Alan Moore,J.H. Williams III,,,,,14,1,,"fantasy,fiction,graphic-novels"
19413001,6070204859,Reaseguro,9786070204852,,,,ES,,,,false,1,19413001,1,0,0,0,2010/10/15,,,0,0,0,0,0,0.00,,,,0,0,Antonio Minzoni Consorti,,,,,,1,0,,
19413501,,The Affluent Society,,,,,ES,1960/1/1,Houghton Mifflin (Boston),eng,false,2,41589,7680,8892,2228,115,1958/1/1,The Affluent Society,book,779,841,459,107,42,3.99,,,college,0,0,John Kenneth Galbraith,,,,,,4819,33,164,"academic,business,classics,college,economics,history,non-fiction,philosophy,politics,reference,science,social,society,sociology"
19414001,,Yann Andrea Steiner,,B004V50OMY,,,ES,,,,true,17,178993,545,1100,295,24,1989/1/1,Yann Andrea Steiner,book,80,93,88,30,4,3.73,,,,1,0,Marguerite Duras,,,,Mark Polizzotti,,153,9,10,"fiction,france,literature,love,poetry,romance"
19414501,,SANTA LOVES BIG GIRLS (A BBW Naughty Holiday Erotic Romance.),,B00AJCA98M,,,ES,,,,true,1,19414501,3,7,2,0,2012/12/5,,,1,0,0,1,0,3.50,,,,2,0,Heather Hammond,,,,,,1,0,,
19415001,3867872988,Naked 2013 (Calendar 2013),9783867872980,,,,ES,,,eng,false,1,19415001,3,5,1,0,,,book,1,0,0,0,0,5.00,,,,1,0,NOT A BOOK,,,,,,1,0,,
19415501,,Perfect Red,,B00AF2D9RY,,,ES,,,,true,4,16301649,352,193,52,24,2012/11/28,Perfect Red,book,15,18,12,3,4,3.71,,,,6,2,Jennie Nash,,,,,,,4,,"fiction,historical,romance"
19416001,,Advent and Christmas Wisdom from Henri J.M. Nouwen: Daily Scripture and Prayers together with Nouwen's Own Words,,,,,ES,,,,false,2,20134614,6,18,5,0,2004/9/1,,,0,4,0,1,0,3.60,,,,0,0,Redemptorists,,,,,,,0,,christian
19416501,,"The Mayas, the Sources of Their History (Illustrated)",,B008ERQJPQ,,,ES,,,,true,18,9897691,99,107,32,0,2008/8/17,,,5,9,12,4,2,3.34,,,,0,0,Stephen Salisbury,,,,,,49,1,10,"anthropology,history,reference"
19417001,1478235756,Zen Prayers For Repairing Your Life,9781478235750,,,,ES,,,,false,3,17234212,980,1807,455,24,2012/7/11,Zen Prayers For Repairing Your Life,book,188,133,83,35,16,3.97,,,,13,1,Tai Sheridan,,,,,,320,8,143,"amazon,health,non-fiction,philosophy,poetry,psychology,religion,self-help,spirituality,theology"
19417501,,The Complete Social Media Community Manager's Guide: Essential Tools and Tactics for Business Success,,B00BD6SQSI,,,ES,,,,true,5,15941511,84,119,29,2,2012/1/2,,,11,11,6,1,0,4.10,,,,6,0,"Lauren Litwinka,Marty Weintraub",,,,,,33,1,10,"business,education,non-fiction"
19418001,,Living in the Balance of Grace and Faith,,B003LSTF3Q,,,ES,,,,true,1,19418001,104,156,34,2,2010/5/10,,,22,10,2,0,0,4.59,,,,34,2,Andrew Wommack,,,,,,42,1,20,
19418501,,Angel Among Us (Dead Detective Series #4),,B009G6Q9MC,,,ES,,,eng,true,3,13593659,176,250,66,9,2012/11/1,,book,20,19,20,7,0,3.79,,,,13,0,Katy Munger,,,,,,77,9,7,"fiction,mystery,paranormal"
19419001,,Tenir tête (Hors collection),,B00FG8M5MM,,,ES,,,eng,true,4,18662546,291,606,149,17,2013/10/8,,book,50,67,25,6,1,4.07,,,,6,0,Gabriel Nadeau-Dubois,,,,,,100,7,3,"education,essays,history,non-fiction,politics,unfinished"
19419501,,60 Progressive Piano Pieces You Like to Play (Volume 1),,,,,ES,,,,false,1,19419501,0,0,0,0,,,,0,0,0,0,0,0.00,,,,0,0,G. Schirmer,,,,,,,0,,
19420001,,Sacred Apples,,B007TLVEXU,,,ES,,,,true,2,17311154,10,14,4,0,2012/4/11,,book,2,0,1,0,1,3.50,,,,4,0,Isaac Frankel,,,,,,5,0,,
19420501,,"Summer on the Lakes, in 1843",,B000JML4T0,,,ES,,,,true,3,19417390,50,32,11,1,2004/3/1,,,0,3,5,2,1,2.91,,,,1,0,S.M. Fuller,,,,,,20,0,15,philosophy
19421001,,Closure-A Nick and Leon Story (Unexpected Gifts),,B00CF3S6YW,,,ES,,,eng,true,2,17912081,27,21,7,2,2013/4/17,,book,0,1,5,1,0,3.00,,,,3,1,D.C.  Williams,,,,,,12,3,,"romance,short-stories"
19422001,,"Medical School Admission Requirements, United States and Canada, 2006-2007",,,,,ES,,,,false,1,19422001,2,6,2,0,2005/6/30,,,1,0,0,0,1,3.00,,,,2,0,Association of American Medical Colleges,,,,,,,0,,
19422501,,Stan Getz: Nobody Else But Me,,B001QXD9ZI,,,ES,,,,true,2,1227291,27,41,10,0,2002/11/1,Stan Getz: Nobody Else But Me,,2,7,1,0,0,4.10,,,,1,0,"Dave Gelly,Stan Getz",,,,,,9,0,3,"biography,music"
19423001,,"Im Reich der Magie (Emelan, #1)",,,,,ES,,,ger,false,9,58889,60225,141566,35324,977,1997/1/1,Sandry's Book,book,12929,12241,8060,1683,411,4.01,,,,1,0,Tamora Pierce,,,,,,13231,233,253,"adventure,childrens,epic-fantasy,fantasy,fiction,high-fantasy,juvenile,magic,middle-grade,novels,science-fiction-fantasy,speculative-fiction,supernatural,teen,young-adult"
19423501,,The Numberland Tales Omnibus - Adventure Stories about Learning Multiplication Tables (The Numberland Tales - Help with Times Tables and Multiplication for Children),,B008YK65I4,,,ES,,,,true,1,19423501,1,0,0,0,2012/8/15,,,0,0,0,0,0,0.00,,,,0,0,Professor Paradox,,,,,,1,0,,
19424001,,Malcolm X Speaks,,,,,ES,,,eng,false,12,31067,8704,21418,4813,74,1965/1/1,Malcolm X Speaks: Selected Speeches and Statements,book,2951,1253,475,92,42,4.45,,,,10,0,Malcolm X,,,,,,3793,13,65,"american-history,autobiography,biography,classics,essays,feminism,history,non-fiction,philosophy,politics,religion"
19424501,,The Cleaner Plate Club: Raising Healthy Eaters One Meal at a Time,,B004SCO1BA,,,ES,,,,true,3,8986578,209,373,97,23,2011/1/15,,,31,30,26,10,0,3.85,,,,4,0,"Ali Benjamin,Beth Bader",,,,,,23,6,4,"adult,cookbooks,cooking,food,non-fiction,parenting"
19425001,,The Bhagavad Gita Mahatmyam of Lord Siva compiled from the Padma Purana,,B0078MFQ9S,,,ES,,,,true,1,19425001,3,8,2,0,2012/2/12,,,1,0,1,0,0,4.00,,,,2,0,Mahaprabhu Caitanya Das,,,,,,,0,,
19425501,,"The Best Multivitamin eBook- what that means, what to look for, and a whole lot more (Best Health Secrets Guide)",,B006ZQESDI,,,ES,,,,true,2,14760847,25,49,12,4,2012/1/19,,book,7,2,1,1,1,4.08,,,,0,0,"Germaine Gibson,Martin Gover",,,,,,14,0,,health
19426001,1451001142,Following the Equator: A Journey Around the World (Classic Reprint),,,,,ES,2012/7/28,Forgotten Books,,false,3,494164,3760,5081,1278,97,1897/1/1,Following the Equator: A Journey Around the World,book,440,462,301,55,20,3.98,,Paperback,,0,0,Mark Twain,,,,,,2010,13,197,"adventure,american,autobiography,biography,biography-memoir,classics,essays,fiction,funny,historical,history,humor,literature,memoir,nature,non-fiction,philosophy,research,science,travel,victorian"
19426501,,Applied Anthropology: An Introduction-- Third Edition,,B000PY3FDA,,,ES,,,,true,10,2705864,30,43,12,0,1986/2/28,Applied Anthropology: An Introduction,book,2,4,5,1,0,3.58,,,,1,0,John van Willigen,,,,,,13,0,1,"academic,anthropology,education"
19427001,1489586083,Her Master's Kiss 5,9781489586087,,,,ES,,,,false,3,17973456,367,710,162,25,2013/5/29,,book,99,34,23,4,2,4.38,,,,2,0,Vivien Sparx,,,,,,181,8,,"adult,bdsm,drama,erotica,love"
19427501,,Liberation - The Fruition of Yoga (AYP Enlightenment Series Book 11),,B0085WZF9Q,,,ES,,,,true,5,19427501,23,54,13,0,2012/5/23,,book,7,4,0,1,1,4.15,,,,10,0,Yogani,,,,,,9,0,1,spirituality
19428001,,Planning for a Stress-Free Christmas,,B00A33J2YO,,,ES,,,,true,1,19428001,4,0,0,0,2012/11/6,,,0,0,0,0,0,0.00,,,,0,0,Mandi Ehman,,,,,,4,0,,
19428501,0854810188,Catalogue of Astrological and Mythological Illuminated Manuscripts of Latin Middle Ages: Astrological Manuscripts in Italian Libraries (Other Than Rome) v. 4,,,,,ES,,,,false,1,19428501,0,0,0,0,,,,0,0,0,0,0,0.00,,,,0,0,,,,Patrick McGurk,,,,0,,
19429001,,FUBAR - European Theatre of the Damned Vol.1 (Graphic Novel),,B00564TL82,,,ES,,,,true,5,9203362,132,246,66,10,2010/11/28,,book,14,26,21,4,1,3.73,,,,6,0,Jeff McComsey,,,,,,41,1,3,"comics,fiction,graphic-novels,horror,zombies"
19429501,,The Violent Land,,B009KUX6RK,,,ES,,,,true,24,214840,1448,2631,674,55,1943/1/1,Terras do sem fim,book,188,286,158,31,11,3.90,,,Penguin Classics,14,2,Jorge Amado,,,,Samuel Putnam,,534,12,29,"classics,fiction,historical-fiction,history,literary-fiction,literature,non-fiction,novels"
19430001,,FEMALE FORCE: Ayn Rand,,B005UI78RU,,,ES,,,,true,1,19430001,5,9,2,0,2011/10/10,,,1,1,0,0,0,4.50,,,,2,0,John Blundell,,,,,,2,0,,
19430501,,Teaching Statistics: A Bag of Tricks,,B005H0CCTK,,,ES,,,,true,7,875380,190,162,42,2,2002/1/1,Teaching Statistics: A Bag of Tricks,book,12,15,12,3,0,3.86,,,,3,0,"Andrew Gelman,Deborah Nolan",,,,,,112,2,14,"education,non-fiction,research,science,teaching"
19431001,,Santa Fe City of Enchantment,,B003F76WRK,,,ES,,,,true,3,14934051,0,0,0,0,2010/3/18,,,0,0,0,0,0,0.00,,,,0,0,"David Vokac,Joan Vokac",,,,,,,0,,
19431501,,Emeralds Never Fade,,B006AD0MHW,,,ES,,,,true,9,13038122,125,102,25,11,2011/11/1,,book,11,6,7,1,0,4.08,,,,4,0,Stephen Maitland-Lewis,,,,,,87,5,2,"fiction,historical,historical-fiction,mystery"
19432001,,Angkor Quest: 24 Hours in Cambodia,,B007EOSEDK,,,ES,,,,true,1,19432001,1,5,1,0,2012/2/27,,,1,0,0,0,0,5.00,,,,1,0,Geoff Peel,,,,,,,0,,
19432501,,Lunes con mi viejo pastor,,B0096QZ52C,,,ES,,,spa,true,17,13807518,341,754,171,41,2011/3/1,,book,104,41,19,6,1,4.41,,,,41,5,José Luis Navajo,,,,,,96,4,41,"biography,christian,christianity,death,faith,history,inspirational,leadership,memoir,non-fiction"
19433001,1452109362,Starting Today: A Journal of Intention and Change,9781452109367,,,,ES,2012/12/12,Chronicle Books,,false,1,19433001,38,35,9,1,2012/12/12,,,3,4,1,0,1,3.89,388,,,9,1,,,,,,,26,0,1,
19433501,,Marassa,,B00FDTTSEC,,,ES,,,,true,1,19433501,7,3,1,0,2013/9/22,,,0,0,1,0,0,3.00,,,,1,0,Glyn Atkins,,,,,,6,0,,
19434001,,Writing DNP Clinical Case Narratives: Demonstrating and Evaluating Competency in Comprehensive Care,,B0040ZNACQ,,,ES,,,,true,3,8702004,3,14,3,0,2010/5/20,,,2,1,0,0,0,4.67,,,,1,0,"Courtney Reinisch,Janice Smolowitz,Judy Honig",,,,,,,0,,
19434501,,EverQuest: Truth and Steel,,B001U890AC,,,ES,,,eng,true,2,1583345,121,196,50,5,2006/9/4,Everquest: Truth and Steel (Everquest),book,17,19,8,5,1,3.92,,,,9,0,Thomas M. Reid,,,,,,24,1,3,
19435501,,Easy Thai Food: Thai Curry and Soup,,B004PLO9P2,,,ES,,,,true,1,19435501,4,7,2,0,2011/2/26,,,0,1,1,0,0,3.50,,,,2,0,thanimrak,,,,,,2,0,,
19436501,,Dragons Of Deltora #1,,,,,ES,,,,false,25,245462,10744,26508,6755,124,2004/1/1,Dragon's Nest (Dragons of Deltora #1),book,2391,2192,1600,413,159,3.92,,,,6,0,Emily Rodda,Marc McBride,,,,,2560,27,37,"action,adventure,childrens,fantasy,fiction,high-fantasy,juvenile,literature,magic,middle-grade,mystery,novels,supernatural,young-adult"
19437001,,The Mistake Bank: How To Succeed By Forgiving Your Mistakes And Embracing Your Failures,,B00CLVZRAE,,,ES,,,,true,1,19437001,34,33,9,2,2013/4/30,,,1,4,4,0,0,3.67,,,,9,2,John M. Caddell,Michael Morris,,,,,16,0,5,"business,philosophy"
19437501,,First Thessalonians: The Focus Commentary Version of the Bible,,B007Y9BZ40,,,ES,,,,true,1,19437501,1,5,1,0,2012/4/26,,,1,0,0,0,0,5.00,,,,1,0,Brian Pace,,,,,,1,0,,
19438001,,GEOMETRY THIRD EDITION STUDENT EDITION 2004C,,,,,ES,,,,false,1,19438001,0,0,0,0,2002/7/1,,,0,0,0,0,0,0.00,,,,0,0,Prentice Hall,,,,,,,0,,
19438501,,Lord of Scandal,,B0094AGH4U,,,ES,,,eng,true,22,404912,502,756,223,29,2005/10/1,Lord Of Scandal,book,36,62,87,29,9,3.39,,,,0,0,Nicola Cornick,,,,,,169,10,6,"fiction,historical,historical-fiction,regency,romance"
19439001,,The Mens Club,,,,,ES,,,,false,18,50700,769,1228,365,46,1981/1/1,The Men's Club,book,52,119,123,52,19,3.36,,,,0,0,Leonard Michaels,,,,,,309,8,11,"american,americana,fiction,literary-fiction,literature,modern-classics,novels,politics,psychology"
19439501,,Living Together,,B00BJ8RUIC,,,ES,,,eng,true,4,20433379,28,30,8,1,2008/2/15,,book,2,2,4,0,0,3.75,,,15th Edition,0,0,Ralph E. Warner,,,,,,14,0,3,"non-fiction,reference"
19440001,1572492643,Douglas Southall Freeman on Leadership,9781572492646,,,,ES,1993/1/1,,eng,false,2,411525,38,39,10,0,1993/1/1,Douglas Southall Freeman on Leadership ,book,2,5,3,0,0,3.90,,,,1,0,,,,Stuart W. Smith,,,23,2,,"anthropology,history,leadership,war"
19440501,9789350097,The Edge Of Power,,,,,ES,2013/12/1,Hachette Book Publishing India Pvt. Ltd,eng,false,5,19374583,167,345,85,23,2013/12/1,,book,33,29,19,3,1,4.06,312,Paperback,,1,0,Tuhin A. Sinha,,,,,,74,1,3,"abuse,adult,drama,fiction"
19441001,,The State and The Sea Fisheries of the South & West coasts of Ireland 1922-1972,9781908477941,,,,ES,2013/1/1,Original Writing Ltd,eng,false,1,19441001,0,0,0,0,2013/1/1,,book,0,0,0,0,0,0.00,,Paperback,,0,0,Sylvester Ó Muirí,,,,,,,0,,
19441501,,Up in Flames (The Prince of Zammar #5),,B00EQCEV8A,,,ES,,,eng,true,3,19441501,22,31,7,0,2013/8/22,,book,4,2,1,0,0,4.43,,,,5,0,Samantha Nolan,,,,,,7,1,1,
19442001,,サキュバス☆ハニー (百合缶) (Japanese Edition),,B00A8ATZMG,,,ES,,,,true,1,19442001,1,5,1,0,,,,1,0,0,0,0,5.00,,,,1,0,砂音鈴,,,,,,,0,,
19442501,,Star Wars L'Erede dell'Impero,,B00B7BW8TW,,,ES,,,ita,true,78,40604754,94302,256763,62127,2470,1991/5/1,Heir to the Empire,book,24950,23437,11236,2053,451,4.13,,,,1,0,Timothy Zahn,,,,,,19880,137,2076,"action,adult,adult-fiction,adventure,aliens,fantasy,fiction,novels,science,science-fiction,science-fiction-fantasy,speculative-fiction,war,young-adult"
19443001,,"On Becoming Fearless...in Love, Work, and Life: A Road Map for Women",,B00FORA0PY,,,ES,,,,true,27,231822,4397,4620,1337,145,2006/1/1,"On Becoming Fearless: ...in Love, Work, and Life",book,239,415,454,174,55,3.46,,,,57,1,Arianna Huffington,,,,,,2534,16,177,"biography,biography-memoir,business,feminism,inspirational,leadership,memoir,non-fiction,personal-development,psychology,relationships,self-help,unfinished"
19443501,,"The Element of Surprise: Comic Relief Series, Volume One",,B007RUTRBE,,,ES,,,,true,2,19443501,14,22,6,0,2012/4/5,,,2,2,1,0,1,3.67,,,,6,0,Luke Alistar,,,,,,4,1,1,"amazon,humor"
19444001,,Herding Cats: Being advice to aspiring academic and research leaders,,B004R1Q68I,,,ES,,,,true,3,14967390,32,46,11,1,2010/8/16,,book,6,2,2,1,0,4.18,,,,4,0,"Geoff Garrett,Graeme Davies",,,,,,14,0,4,leadership
19444501,,Elegia di Madonna Fiammetta,,B00685RG6C,,,ES,,,,true,47,1956120,377,454,135,12,1343/1/1,Elegia di madonna Fiammetta,book,21,39,49,20,6,3.36,,,,1,0,Giovanni Boccaccio,,,,,,192,6,2,"biography,classics,european-literature,feminism,fiction,historical,history,language,literature,philosophy,poetry,romance"
19445001,,The Invention of Exile: A Novel,,B00G3L7WEW,,,ES,2014/8/14,The Penguin Press,,true,9,18693849,1650,841,272,79,2014/3/7,,book,27,67,100,60,18,3.09,304,Kindle Edition,,9,0,Vanessa Manko,,,,,,1280,37,21,"adult-fiction,american-history,fiction,historical,historical-fiction,history,literary-fiction,non-fiction,novels,realistic-fiction"
19445501,,Don't Leave Me This Way,,B006GPKETA,,,ES,,,,true,8,1062741,87,125,42,9,1990/1/1,Don't Leave Me This Way,book,4,6,21,7,4,2.98,,,,4,1,Joan Smith,,,,,,4,2,,"crime,feminism,fiction,mystery,mystery-thriller"
19446001,,A Circle of Wives,,B00ET7PJHO,,,ES,2014/3/4,Atlantic Monthly Press,,true,14,18114494,11162,15692,4687,618,2014/3/4,A Circle of Wives,book,516,1465,1968,610,128,3.35,325,Kindle Edition,,653,12,Alice LaPlante,,,,,,1271,50,115,"adult,adult-fiction,chick-lit,contemporary,crime,detective,family,fiction,love,marriage,murder-mystery,mystery,mystery-thriller,novels,relationships,suspense,thriller"
19446501,,The Negro,,B002RKSR0Q,,,ES,,,,true,89,6219264,1045,1046,243,14,1915/1/1,The Negro,book,134,64,34,7,4,4.30,,,,1,0,W.E.B. Du Bois,,,,,,641,8,106,"american,classics,cultural,essays,historical,history,non-fiction,sociology"
19447001,,"Oom Paul's People: A Narrative of the British-Boer Troubles in South Africa, with a History of the Boers, the Country, and its Institutions",,B00AO5I4AY,,,ES,,,,true,4,19447001,5,5,1,0,2012/12/13,,,1,0,0,0,0,5.00,,,,1,0,Howard C. Hillegas,,,,,,3,0,,
19447501,,The Housemaid's Scandalous Secret (Castonbury Park - Book 2),,B008OJB7FG,,,ES,,,eng,true,12,15926575,139,204,68,7,2012/1/1,The Housemaid's Scandalous Secret,book,6,15,28,11,8,3.00,,,,2,0,Helen Dickson,,,,,,51,7,1,"historical,historical-fiction,love-story,new-adult,regency,romance"
19448001,,Grey Granite (Canongate Classics),,B004V3273K,,,ES,,,,true,10,1541998,382,666,177,12,1973/2/9,Grey Granite,book,49,59,50,16,3,3.76,,,,0,0,Lewis Grassic Gibbon,,,,,,146,16,3,"classics,fiction,historical,historical-fiction,history,literary-fiction,literature,non-fiction,novels,politics,war"
19448501,,NOLS Wilderness Navigation: 2nd Edition (NOLS Library),,B00CPR5LS2,,,ES,,,,true,2,15863914,35,67,17,0,2013/2/1,,,5,7,4,1,0,3.94,,,,5,0,Darran Wells,Jonathan Cox,,,,,12,1,5,non-fiction
19449001,,格差って、見たことあります？　～コンビニ店長が見た、地方と都市/田舎と都会～ (impress QuickBooks) (Japanese Edition),,B009M2QSAI,,,ES,,,,true,1,19449001,0,0,0,0,2012/3/23,,,0,0,0,0,0,0.00,,,,0,0,MK2,,,,,,,0,,
19449501,,Vom Makro zu VBA (VBA Excel Serie) (German Edition),,B00AX9YCUM,,,ES,,,,true,1,19449501,0,0,0,0,2013/1/4,,,0,0,0,0,0,0.00,,,,0,0,Peter Schnoor,,,,,,,0,,
19450001,,Gulliver's Travels(Illustrated),,B006O34RHO,,,ES,,,,true,2353,7733,353552,741737,208209,4708,1726/10/28,Gulliver’s Travels,book,41830,68261,69865,21695,6558,3.56,,,,0,0,Jonathan Swift,,,,,,99698,923,7055,"adult,adult-fiction,adventure,british-literature,childrens,classic-literature,classics,college,english-literature,fantasy,fiction,high-school,historical,historical-fiction,humor,literary-fiction,literature,novels,philosophy,politics,school,science-fiction,travel,unfinished,young-adult"
19450501,,Ehemalige Leute und andere Erzählungen,,B004UBA0Q4,,,ES,,,ger,true,107,14389330,604,860,229,22,1897/1/1,Бывшие люди,book,60,79,69,16,5,3.76,,,,0,0,Maxim Gorky,,,,,,279,5,26,"classic-literature,classics,collections,fiction,literature,philosophy,romance,short-stories,tragedy"
19451001,,Tales of a Grandfather,,,,,ES,1911/1/1,Thomas Nelson and Sons,eng,false,71,2513470,91,86,22,3,1911/1/1,"The Miscellaneous Works Of Sir Walter Scott: Tales Of A Grandfather, History Of Scotland",book,9,5,5,3,0,3.91,159,Hardcover,,6,1,Walter Scott,,,,,,55,1,5,"adventure,anthologies,classics,fantasy,fiction,historical,history"
19451501,,Checkmate,,B00C0GCFN2,,,ES,,,,true,1,19451501,8,22,6,1,2013/3/23,,,1,3,1,1,0,3.67,,,,6,1,A.L. Olson,Elias Ericson,,,,,2,0,,
19452001,,Twelve Seconds to Live (The Modern Naval Fiction Library),,B009S8UMQW,,,ES,,,,true,10,2079525,221,479,128,8,2002/1/1,Twelve Seconds to Live (The Modern Naval Fiction Library),book,34,43,38,10,3,3.74,,,,18,1,Douglas Reeman,,,,,,54,2,8,"adventure,fiction,historical-fiction,history,romance,war"
19452501,,Nolo's Guide to Social Security Disability: Getting & Keeping Your Benefits,,B007Y306QY,,,ES,,,,true,21,7765612,165,300,74,5,2001/1/1,Nolo's Guide to Social Security Disability: Getting & Keeping Your Benefits,book,25,35,8,5,1,4.05,,,,5,0,David A. Morton III,,,,,,39,1,23,"amazon,health,non-fiction,reference"
19453001,,Stories by Foreign Authors: Russian,,B0082RE5MC,,,ES,,,eng,true,25,3472292,68,80,23,1,1898/1/1,Stories by Foreign Authors: Russian,book,4,7,9,2,1,3.48,,,,6,1,,,"Alexander Pushkin,Ivan Turgenev,Leo Tolstoy,Nikolai Gogol",,,,31,1,8,"classics,fiction,short-stories"
19453501,,Writing Exceptional Policies and Procedures,,B003BVIYHQ,,,ES,,,eng,true,2,19453501,8,10,3,0,2010/3/1,,book,1,0,1,1,0,3.33,,,,3,0,Stephen B. Page,,,,,,2,0,1,
19454001,,失恋33天（精编图文版） (Chinese Edition),,B008H04TCK,,,ES,,,,true,1,19454001,0,0,0,0,2010/1/1,,,0,0,0,0,0,0.00,,,,0,0,鲍鲸鲸,,,,,,,0,,
19454501,,マンけん。（２） (サンデーGXコミックス) (Japanese Edition),,B00AQ9HVV6,,,ES,,,,true,1,19454501,0,0,0,0,2012/4/19,,,0,0,0,0,0,0.00,,,,0,0,加瀬大輝,,,,,,,0,,
19455001,,"Sinful Seduction (Twins of Sin, #1)",,B006IIXBH2,,,ES,,,eng,true,8,13261424,2375,2295,559,58,2012/1/24,,book,231,192,104,28,4,4.11,,,,18,0,Ann Christopher,,,,,,391,22,983,"chick-lit,contemporary,romance"
19455501,,Ordeal of Richard Feverel - Complete,,B0084AKLX4,,,ES,,,,true,91,20708,969,830,237,17,1859/1/1,The Ordeal of Richard Feverel: A History of Father and Son,book,52,68,77,27,13,3.50,,,,6,0,George Meredith,,,,,,643,4,16,"british-literature,classic-literature,classics,education,english-literature,european-literature,fiction,literary-fiction,literature,victorian"
19456001,,无尾狗 (Chinese Edition),,B009P4OZ76,,,ES,,,,true,1,19456001,0,0,0,0,2012/7/1,,,0,0,0,0,0,0.00,,,,0,0,阿丁,,,,,,,0,,
19456501,,The Widowed Bride (Westcott Series),,B00D9Y7KTS,,,ES,,,,true,2,3201799,40,44,14,1,1996/12/1,The Widowed Bride ,book,1,4,6,2,1,3.14,,,,3,0,April Kihlstrom,,,,,,16,0,,"historical-fiction,paranormal,regency,romance"
19457001,,Empowerment Takes More Than a Minute,,B005LY2DXM,,,ES,,,en-GB,true,22,349894,389,584,159,11,1996/1/1,Empowerment Takes More Than a Minute,book,37,47,62,12,1,3.67,,,,5,0,"Alan Randolph,John P. Carlos,Kenneth H. Blanchard",,,,,,139,6,12,"business,education,leadership,non-fiction,self-help"
19457501,,Earth Alchemy: A Dynamic Fusion Between Alchemy and the Eight Celtic Festivals,,B00GBA0QCA,,,ES,,,eng,true,2,18772465,38,40,9,2,2013/12/2,,,5,3,1,0,0,4.44,,,,1,0,Glennie Kindred,,,,,,19,0,4,
19458001,,I Love Galesburg in the Springtime,,B00E9HQZQS,,,ES,,,,true,5,2210317,235,280,68,12,1963/1/1,I Love Galesburg in the Springtime,book,25,28,13,2,0,4.12,,,,6,2,Jack Finney,,,,,,152,4,2,"fantasy,fiction,literature,science-fiction,short-stories,time-travel"
19458501,,7天学摄影--摄影构图轻松入门 (Chinese Edition),,B008QM33C6,,,ES,,,,true,1,19458501,1,0,0,0,2010/9/1,,,0,0,0,0,0,0.00,,,,0,0,龙文摄影,,,,,,1,0,,
19459001,,哲也～雀聖と呼ばれた男～（１０） (少年マガジンコミックス) (Japanese Edition),,B009KYAZA2,,,ES,,,,true,1,19459001,0,0,0,0,1999/6/17,,,0,0,0,0,0,0.00,,,,0,0,"さいふうめい,星野 泰視",,,,,,,0,,
19459501,,Arterial Blood Gas Interpretation,,B009VGYW08,,,ES,,,,true,2,19459501,10,20,6,1,2012/10/22,,,1,3,0,1,1,3.33,,,,6,1,Jamie Bisson,,,,,,3,0,1,
19460001,,A Frequency Dictionary of Portuguese (Routledge Frequency Dictionaries),,B000SEGGZ6,,,ES,,,eng,true,10,6883998,17,12,3,1,2007/11/29,,,1,1,1,0,0,4.00,,,,0,0,"Ana Maria Raposo Preto-Bay,Mark Davies",,,,,,3,0,2,
19460501,,The God Inside,,B00792I3OC,,,ES,,,,true,2,19460501,1,0,0,0,2012/2/13,,,0,0,0,0,0,0.00,,,,0,0,Afobos,,,,,,,0,,
19461001,,Les soeurs Rondoli (French Edition),,B00BUB2HPY,,,ES,,,,true,35,6106321,74,124,36,3,1884/1/1,Les Sœurs Rondoli et autres contes,book,5,12,13,6,0,3.44,,,,0,0,Guy de Maupassant,,,,,,27,1,1,"classics,fiction"
19461501,,Ernest Hemingway (German Edition),,B0058D5LIA,,,ES,,,,true,6,13028598,36,47,14,1,2011/6/1,Ernest Hemingway.,book,2,3,7,2,0,3.36,,,,0,0,Hans-Peter Rodenberg,,,,,,16,1,,biography
19462001,,Sought through Prayer and Meditation: A Practical Guide for People in Recovery,,B00E257USE,,,ES,,,,true,4,16057086,9,14,3,0,2013/1/1,,,2,1,0,0,0,4.67,,,,1,0,John T. Farrell,,,,,,,0,3,
19462501,,Ann Stokes #17 - Formal dresses,,B003OQUPAW,,,ES,,,,true,1,19462501,2,0,0,0,2010/5/30,,,0,0,0,0,0,0.00,,,,0,0,Ann Stokes,,,,,,2,0,,
19463001,,Dizionario di arte e architettura,9788842499770,,,,ES,2002/1/1,Bruno Mondadori,ita,false,1,19463001,3,3,1,0,2002/1/1,Dizionario di arte e architettura,book,0,0,1,0,0,3.00,156,Paperback,,1,0,Simone Ferrari,,,,,,1,0,,art
19463501,,Her Bisexual Boss,,B006OEPDY4,,,ES,,,,true,1,19463501,1,1,1,0,2011/12/19,,,0,0,0,0,1,1.00,,,,1,0,Leia Mann,,,,,,,0,,
19464001,,Max bekommt eine Lektion (German Edition),,B00BW877Z0,,,ES,,,,true,1,19464001,0,0,0,0,2013/3/17,,,0,0,0,0,0,0.00,,,,0,0,Annette Gudwein,,,,,,,0,,
19464501,,PARTNER（７） (フラワーコミックス) (Japanese Edition),,B009JZGNW6,,,ES,,,,true,1,19464501,0,0,0,0,1983/8/26,,,0,0,0,0,0,0.00,,,,0,0,名香 智子,,,,,,,0,,
19465001,,Christmas Survival Guide for Singles,,B00GQ5MX30,,,ES,,,,true,1,19465001,0,0,0,0,2013/12/3,,,0,0,0,0,0,0.00,,,,0,0,Jodie Scott,,,,,,,0,,
19465501,,Reincarnation: Myth or Destiny?,,B004VSAF34,,,ES,,,,true,1,19465501,1,5,1,0,2011/4/7,,,1,0,0,0,0,5.00,,,,1,0,Patricia Sadler C Ed,,,,,,,0,,
19466001,,Comunion y Comunidad Una Introduccion a la Espiritualidad Cristiana AETH: Communion and Community An Introduction to Christian Spirituality Spanish,,B008NE0VSQ,,,ES,,,eng,true,4,7380047,2,5,1,0,2004/11/1,,book,1,0,0,0,0,5.00,,,,0,0,Giácomo Cassese,,,,,,,0,1,
19466501,,Complete eBook Guide to Legoland Florida (Theme Park in Your Pocket Series),,B0073XD9NM,,,ES,,,,true,1,19466501,1,3,1,0,2012/1/30,,,0,0,1,0,0,3.00,,,,1,0,Barbara Nefer,,,,,,,0,,
19467001,,ゴッドハンド輝（１２） (少年マガジンコミックス) (Japanese Edition),,B009KWTWQM,,,ES,,,,true,1,19467001,0,0,0,0,2003/6/17,,,0,0,0,0,0,0.00,,,,0,0,山本航暉,,,,,,,0,,
19467501,,"Duct Tape Crafts: 16 Awesome Ideas You Can Start Now From Bags,Tote,Patterns,Fashion Amongst Others!",,B00EIIBCJI,,,ES,,,,true,1,19467501,3,8,2,0,2013/8/12,,,1,0,1,0,0,4.00,,,,2,0,Adele Jones,,,,,,,0,1,
19468001,,"Dan Poynter's Self-Publishing Manual, Volume 2: How to Write, Print and Sell Your Own Book",,B002QB0NTO,,,ES,,,,true,4,6367729,185,444,110,18,2009/2/1,"Dan Poynter's Self-Publishing Manual, Volume 2: How to Write, Print and Sell Your Own Book",,51,27,19,11,2,4.04,,,,14,1,Dan Poynter,,,,,,5,4,5,"business,non-fiction,writing"
19468501,,Linux-Treiber entwickeln: Eine systematische Einführung in die Gerätetreiber- und Kernelprogrammierung (German Edition),,B009CWWCTY,,,ES,,,,true,2,17558155,3,4,1,0,2011/3/28,,book,0,1,0,0,0,4.00,,,,0,0,"Eva-Katharina Kunst,Jürgen Quade",,,,,,1,0,,
19469001,,Makeover Games,,,,,ES,,AvantLifeGuard Books,eng,true,3,19469001,14,10,2,1,2013/1/1,,book,2,0,0,0,0,5.00,,ebook,,2,1,B. Sting,,,,,,11,0,,"comedy,fantasy,romance,science-fiction"
19469501,,????????????2 (Chinese Edition),,B0099MSLCY,,,ES,,,,true,1,19469501,1,2,1,0,2012/7/20,,,0,0,0,1,0,2.00,,,,1,0,???,,,,,,,0,,
19470001,,Ophelia (Japanese Edition),,B00AVKKYIW,,,ES,,,,true,1,19470001,0,0,0,0,2013/10/5,,,0,0,0,0,0,0.00,,,,0,0,Ken Shono,,,,,,,0,,
19470501,,Doubt1巻 (デジタル版ガンガンコミックス) (Japanese Edition),,B009UP2P7C,,,ES,,,,true,1,19470501,3,3,2,0,2007/12/22,,,0,0,0,1,1,1.50,,,,2,0,外海良基,,,,,,1,0,,manga
19471001,,"How To Cure Constipation: Discover What Is Constipation, The Causes Of Constipation, The Best Constipation Remedies, Constipation Home Remedies And Constipation Treatment For Constipation Relief!",,B006XV7M7O,,,ES,,,,true,1,19471001,0,0,0,0,2012/1/14,,,0,0,0,0,0,0.00,,,,0,0,Carla J. Sanders,,,,,,,0,,
19471501,,"Preparedness Guide for the Camino de Santiago: Learn Exactly What to Pack, Why You Need it, and How it Will Help You Reach Santiago",,B00EODEN34,,,ES,,,,true,3,19471501,4,14,4,0,2013/8/20,,,0,2,2,0,0,3.50,,,,2,0,Matthew Arnold,,,,,,,0,1,
19472001,,Ein Stück meines Herzens (German Edition),,B009VEMS7O,,,ES,,,ger,true,24,26938,1090,2035,588,42,1976/10/1,A Piece of My Heart,book,94,208,187,73,26,3.46,,,,0,0,Richard Ford,,,,,,30,9,,"american,contemporary,crime,fiction,literary-fiction,literature,love-story,novels,philosophy"
19472501,,Ken Burns's The Civil War Deluxe eBook,,,,,ES,,,,false,23,77723,5215,14824,3494,86,1990/1/1,The Civil War: An Illustrated History,book,1695,1145,505,105,44,4.24,,,,1,0,"Geoffrey C. Ward,Ken Burns,Ric Burns",,,,,,1349,14,69,"academic,american,american-history,art,historical,history,non-fiction,politics,reference,research,textbooks,war"
19473001,,The Case of Nikki Pagan,,B00CDH5NM8,,,ES,,,,true,3,17821282,359,146,33,9,2013/4/15,,book,20,8,4,1,0,4.42,,,,9,0,Rachel Eliason,,,,,,317,6,2,"contemporary,fiction,lgbt,young-adult"
19473501,,Coal to Diamonds,,B00CLMGJEQ,,,ES,,,,true,5,23847248,144,123,41,13,2009/3/30,,book,3,9,15,13,1,3.00,,,,0,0,Augusta Li,,,,,,69,9,3,"contemporary,fantasy,fiction,gay,lgbt,magic,menage,novella,paranormal,research"
19474001,,"Listen Up, Larry / VeggieTales / I Can Read! (I Can Read! / Big Idea Books / VeggieTales)",,B00A69BRGQ,,,ES,,,,true,1,19474001,5,0,0,0,2013/4/2,,,0,0,0,0,0,0.00,,,,0,0,Karen Poth,,,,,,2,0,,christian
19474501,,Virgin Slave - BDSM Male Dominance Female Submission M/f First time Erotica XXX,,B00A6EXXNQ,,,ES,,,,true,1,19474501,1,0,0,0,2012/11/11,,,0,0,0,0,0,0.00,,,,0,0,Kat Gray,,,,,,,0,,
19475001,,汤姆·索亚历险记 (外国文学名著精读) (Chinese Edition),,B009PLI5KC,,,ES,,,,true,1,19475001,1,0,0,0,2007/9/1,,,0,0,0,0,0,0.00,,,,0,0,[美] 马克·吐温,,,,崔慧华,,1,0,,
19475501,1780938314,Byzantium and the Crusades: Second Edition,9781780938318,,,,ES,2014/11/20,Bloomsbury Academic,eng,false,8,1261045,161,200,48,12,2003/8/1,Byzantium and the Crusades (Crusader Worlds) (Crusader Worlds),book,17,23,7,1,0,4.17,288,Paperback,,1,1,Jonathan   Harris,,,,,,95,3,1,"history,medieval,non-fiction,school"
19476001,,東京大学物語（２１） (ビッグコミックス) (Japanese Edition),,B009JZHS2U,,,ES,,,,true,1,19476001,0,0,0,0,1998/2/26,,,0,0,0,0,0,0.00,,,,0,0,江川達也,,,,,,,0,,
19476501,,サトラレ（６） (モーニングKC) (Japanese Edition),,B00AA9W4VO,,,ES,,,,true,1,19476501,1,0,0,0,2004/3/23,,,0,0,0,0,0,0.00,,,,0,0,佐藤 マコト,,,,,,1,0,,
19477001,2811606025,"Fairy Tail, Tome 22 (Fairy Tail, #22)",9782811606022,,,,ES,2011/1/4,Pika Editions,fre,false,14,10826275,3793,10276,2318,28,2010/8/17,Fairy Tail 22,book,1387,614,267,34,16,4.43,182,Unknown Binding,,8,0,,,,,,,718,54,24,"action,adult,adventure,comedy,comics,fantasy,fiction,graphic-novels,humor,magic,manga,romance,supernatural,teen,young-adult"
19477501,,Rosen für die Kaiserin,9783765511257,,,,ES,,,,false,1,19477501,0,0,0,0,,,book,0,0,0,0,0,0.00,,,,0,0,Günther Krieger,,,,,,,0,,
19478001,,What is Science?,,B007EP0SKQ,,,ES,,,,true,5,7228584,6,8,2,0,2009/10/16,,,0,2,0,0,0,4.00,,,,1,0,Klaus Jaffe,,,,,,3,0,,
19478501,,Endlich verstehst du mich...: Das kleine Handbuch für erfolgreiche Kommunikation in Beruf und Privatleben (German Edition),,B0053BLEXI,,,ES,,,,true,1,19478501,0,0,0,0,2013/7/10,,,0,0,0,0,0,0.00,,,,0,0,Clemens Maria Mohr,,,,,,,0,,
19479001,,L'eco delle città vuote,,B00GOGVZW6,,,ES,,,ita,true,24,34068494,3477,3569,947,163,2011/1/1,Dogs at the Perimeter,book,204,398,275,62,8,3.77,,,,0,0,Madeleine Thien,Julia Binfield,,,Caterina Barboni,,219,15,62,"adult-fiction,contemporary,cultural,family,fiction,historical,historical-fiction,history,literary-fiction,literature,non-fiction,novels,school,war"
19480001,,Ou-sama to san-nin no Kenja (Japanese Edition),,B00DZUSG26,,,ES,,,,true,1,19480001,1,0,0,0,2013/7/16,,,0,0,0,0,0,0.00,,,,0,0,Amado Tokuda,Kasumi,,,,,1,0,,
19480501,,Leafy Greens: An A-to-Z Guide to 30 Types of Greens Plus More Than 120 Delicious Recipes,,B00BOE1QR2,,,ES,,,,true,8,1591499,190,184,50,4,1995/6/1,Leafy Greens: An A-To-Z Guide to 30 Types of Greens Plus 200 Delicious Recipes,,13,14,18,4,1,3.68,,,,6,0,Mark Bittman,,,,,,107,4,14,"cookbooks,cooking,food,health,non-fiction,reference"
19481001,,A Load of Bull: An Englishman's Adventures in Madrid,,B00E9Y21R8,,,ES,,,eng,true,3,2231548,164,365,103,10,2006/7/1,A Load of Bull: An Englishman's Adventures In Madrid,book,22,36,28,10,7,3.54,,,,8,0,Tim Parfitt,,,,,,12,4,1,"fiction,memoir,non-fiction,travel"
19481501,,Apfelsinen after work - 3. Krimimini: Kommissar Aufderpalm ermittelt (German Edition),,B00C2J9XNW,,,ES,,,,true,1,19481501,0,0,0,0,2013/10/7,,,0,0,0,0,0,0.00,,,,0,0,Andrea Martini,,,,,,,0,,
19482001,,Erotische Verstrickungen (Erotisches Tagebuch) (German Edition),,B00FUTIKPS,,,ES,,,,true,1,19482001,0,0,0,0,2013/10/12,,,0,0,0,0,0,0.00,,,,0,0,Petra Löwe,,,,,,,0,,
19482501,,Petit traité des punitions et des récompenses à l'usage des maîtres et des parents (French Edition),,B007P76A5K,,,ES,,,,true,1,19482501,0,0,0,0,2012/3/27,,,0,0,0,0,0,0.00,,,,0,0,Felix Hement,,,,,,,0,,
19483001,,Flashback - An Actor's Life,,B006BG88RE,,,ES,,,,true,2,7087789,2,9,2,1,2006/1/1,,,1,1,0,0,0,4.50,,,,1,0,David  Barry,Siobhan Smith,,,,,,0,,
19483501,,Sehnsüchte im Ersten Semester (German Edition),,B008BTU8CC,,,ES,,,,true,2,19270974,0,0,0,0,2012/6/14,Sehnsüchte im Ersten Semester,book,0,0,0,0,0,0.00,,,,0,0,H. P. Samson,,,,,,,0,,
19484001,,How to Knit Slippers,,B005SV8C1U,,,ES,,,,true,2,19484001,4,5,1,0,2011/10/4,,,1,0,0,0,0,5.00,,,,1,0,Janis Websdale,,,,,,2,0,,non-fiction
19484501,,Every Body Does Yoga,,B006MVX25G,,,ES,,,,true,4,14597361,10,21,5,3,2011/11/17,,,3,0,2,0,0,4.20,,,,2,1,Lynn Eddy,Ali Lenehan,,,,,4,0,,
19485001,,"Auf der Suche nach dem Auge von Naga (Burton & Swinburne, #3)",9783404207497,,,,ES,2014/3/11,Bastei Lübbe,ger,false,19,11225502,3355,6210,1643,177,2012/1/1,Expedition to the Mountains of the Moon,book,406,647,435,132,23,3.78,589,Paperback,,6,2,Mark Hodder,,,,,,1378,18,50,"adventure,fantasy,fiction,historical,historical-fiction,history,humor,mystery,novels,science-fiction,science-fiction-fantasy,speculative-fiction,steampunk,time-travel,victorian,war"
19485501,,Love and Hunger: Thoughts on the gift of food,,B007TGLFN4,,,ES,,,,true,2,13596973,353,514,127,28,2012/1/1,,book,43,54,23,7,0,4.05,,,,4,0,Charlotte Wood,,,,,,190,11,7,"autobiography,biography,essays,food,memoir,non-fiction"
19486001,1480467065,Do You Know the Monkey Man?: A Novel,9781480467064,,,,ES,2013/12/31,Peachtree Publishers,,true,11,199068,1292,3243,799,107,2005/3/18,Do You Know The Monkey Man?,book,333,232,191,34,9,4.06,193,ebook,,0,0,Dori Hillestad Butler,,,,,,304,15,22,"adventure,chapter-books,childrens,contemporary,death,family,fiction,middle-grade,mystery,realistic-fiction,school,teen,young-adult"
19486501,,Catalina de Habsburgo (Spanish Edition),,B00BIFY0WK,,,ES,,,,true,5,13685289,75,89,23,0,2011/10/4,Catalina de Habsburgo,book,7,8,6,2,0,3.87,,,,8,0,Yolanda Scheuber,,,,,,27,1,18,historical-fiction
19487001,1416569782,Jersey Law: A Novel,9781416569787,,,,ES,2013/12/21,Simon & Schuster,,false,5,11250733,130,116,36,16,2011/6/14,,,4,12,11,6,3,3.22,272,Paperback,,0,0,Ron Liebman,,,,,,87,7,,"fiction,mystery,novels"
19487501,,"The Chicago Race Riots: July, 1919",,B00FC1N1M6,,,ES,,,,true,9,8350982,83,123,34,7,1919/1/1,,article,8,11,9,6,0,3.62,,,,4,0,Carl Sandburg,,,,,,40,1,1,"history,non-fiction,true-crime"
19488001,,Out of the Ashes,,B008FP2DQG,,,ES,,,,true,10,1141139,1464,3448,876,62,2001/8/1,Out of the Ashes,book,291,296,238,44,7,3.94,,,,25,1,Michael Morpurgo,,,,,,259,12,7,"animals,childrens,contemporary,death,drama,family,fiction,historical-fiction,history,medical,nature,novels,short-stories,teen,young-adult"
19488501,,Fatherhood: The Manliest Profession,,B00C7AXVEI,,,ES,,,,true,2,17733009,65,85,20,5,2013/4/2,,book,7,11,2,0,0,4.25,,,,1,0,Matthew Buckley,,,,,,40,1,,"adult,inspirational,non-fiction"
19489001,,Swipe (Virals series),,B00H1XZU0Y,,,ES,,,en-GB,true,4,19034958,5471,6640,1626,107,2013/12/16,,book,621,589,356,51,9,4.08,,,,143,6,Kathy Reichs,,,,,,3215,17,52,"action,adventure,contemporary,crime,detective,fantasy,fiction,high-school,mystery,novella,paranormal,romance,science-fiction,short-stories,supernatural,teen,thriller,urban-fantasy,young-adult"
19489501,,優駿の門(24) (少年チャンピオン・コミックス) (Japanese Edition),,B00D3DLA9Q,,,ES,,,,true,1,19489501,0,0,0,0,1999/7/5,,,0,0,0,0,0,0.00,,,,0,0,やまさき拓味,,,,,,,0,,
19490001,,"Cousins Adore, A Summer at the Shore - but not a Sore Throat",,B00FD11AAK,,,ES,,,,true,1,19004618,0,0,0,0,2013/8/16,Cousins Adore a Summer at the Shore... but not a Sore Throat,book,0,0,0,0,0,0.00,,,,0,0,Garth Slysz,,,,,,,0,,
19490501,,"Hug Your People: The Proven Way to Hire, Inspire, and Recognize Your Employees and Achieve Remarkable Results",,B0014H326W,,,ES,,,,true,23,2755594,271,480,123,10,2008/1/1,"Hug Your People: The Proven Way to Hire, Inspire, and Recognize Your Employees and Achieve Remarkable Results",book,35,50,29,9,0,3.90,,,,7,0,Jack Mitchell,,,,,,113,8,12,"business,non-fiction"
19491001,,26 Strategies to Recruit Quality Staff (Leadership/Management Series),,B004HO60H2,,,ES,,,,true,1,19491001,0,0,0,0,2010/12/31,,,0,0,0,0,0,0.00,,,,0,0,Barbara Bartlein,,,,,,,0,,
19491501,,Wolf: A Story of the Wild,,B00A6FCDBI,,,ES,,,,true,2,16276331,1,0,0,0,2012/10/29,,,0,0,0,0,0,0.00,,,,0,0,Faye Stine,,,,,,,0,1,
19492001,,１・２の三四郎（９） (Japanese Edition),,B00AIFYO9K,,,ES,,,,true,1,19492001,0,0,0,0,1980/9/18,,,0,0,0,0,0,0.00,,,,0,0,小林まこと,,,,,,,0,,
19492501,,"Murder, She Rode",,B009LRWIB2,,,ES,,,,true,3,16066839,113,190,61,13,2013/8/13,,book,8,14,20,15,4,3.11,,,,10,0,Holly Menino,,,,,,39,1,4,"animals,cozy-mystery,fiction,mystery,sports"
19493001,,Lord Jim (吉姆老爷) (免费公版书),,B00A72W9P0,,,ES,,,,true,832,12194,48812,91051,25159,1154,1900/1/1,Lord Jim,book,6004,8405,7059,2543,1148,3.62,,,,0,0,"(约瑟夫.康拉德 ),Joseph Conrad",,,,,,18265,200,1058,"adult-fiction,adventure,british-literature,classic-literature,classics,english-literature,fiction,historical,historical-fiction,literary-fiction,literature,modern,modern-classics,novels,school,travel,unfinished,victorian"
19494001,,East Coast Rivers: 1998,,,,,ES,,,,false,1,19494001,0,0,0,0,,,,0,0,0,0,0,0.00,,,,0,0,Coote,,,,,,,0,,
19494501,,Stone Canoe: A Journal of Arts and Ideas from Upstate New York,,,,,ES,,,,false,1,19494501,1,0,0,0,2011/4/25,,,0,0,0,0,0,0.00,,,,0,0,Robert M. Colley,,,,,,1,0,,
19495001,,Rose's Rainbow (Little Fairies),,,,,ES,,,,false,1,19495001,0,0,0,0,2009/10/31,,,0,0,0,0,0,0.00,,,,0,0,Sam Walshaw,,,,,,,0,,
19495501,,"Gumboots, Gumshoes & Murder (Murder She Wrote meets Fargo) (The Gumboot & Gumshoe Series)",,B0058D7WT6,,,ES,,,,true,4,19495501,26,33,8,2,2011/6/26,,,4,2,1,1,0,4.12,,,,6,1,Laura Hesse,,,,,,13,1,3,mystery
19496001,,"Text, Thought, and Practice in Qumran and Early Christianity (Studies of the Texts of Thedesert of Judah)",,,,,ES,,,,false,4,19496001,0,0,0,0,2009/6/30,,,0,0,0,0,0,0.00,,,,0,0,"Daniel R. Schwartz,Ruth A. Clements",,,,,,,0,,
19496501,,477 Aforismi di Oscar Wilde (Italian Edition),,B00B4IHR4Y,,,ES,,,ita,true,62,9805876,1620,2722,709,42,1999/1/1,Sebastian Melmoth Aphorisms,book,212,238,196,59,4,3.84,,,,0,0,Oscar Wilde,,,,,,388,2,22,"classics,english-literature,fiction,humor,literature,non-fiction,novels,philosophy,poetry,queer,reference,self-help"
19497001,,wish on the radio (Japanese Edition),,B00HBJ6GL0,,,ES,,,,true,1,19497001,0,0,0,0,2013/12/14,,,0,0,0,0,0,0.00,,,,0,0,Shoo Munakata,,,,,,,0,,
19497501,,"Designing and Implementing Linux Firewalls and QoS using netfilter, iproute2, NAT and l7-filter",,B006TA7EMM,,,ES,,,,true,1,19497501,4,9,2,0,2006/10/31,,,1,1,0,0,0,4.50,,,,2,0,Lucian Gheorghe,,,,,,1,0,1,
19498001,,我的自由选择:原来经济学像诗歌一样美,,B0087MJXZ6,,,ES,,北京航空航天大学出版社,zho,true,1,19498001,0,0,0,0,2009/10/1,,book,0,0,0,0,0,0.00,,,,0,0,苏小和,,,,,,,0,,
19498501,,Time Travels.,,B00DWX27GW,,,ES,,,,true,1,19498501,0,0,0,0,2013/6/1,,,0,0,0,0,0,0.00,,,,0,0,Sarah Lindsell,,,,,,,0,,
19499001,,From Wounds to Wisdom: How to Heal a Broken Heart,,B0053NYELU,,,ES,,,,true,1,19499001,4,0,0,0,2011/5/31,,,0,0,0,0,0,0.00,,,,0,0,Jack A. Daniels,,,,,,3,0,,
19499501,,瓦尔登湖(图文版) (Chinese Edition),,B008H0BN60,,,ES,,,,true,1,19499501,5,2,1,0,2009/8/1,,,0,0,0,1,0,2.00,,,,1,0,亨利·戴维·梭罗(Thoreau.H.D.),,,,,,1,0,1,
19500001,,Super Sex Games: A Variety Of Sex Positions That Improves Your Sexual Intimacy With Your Partner,,B009KSFAWG,,,ES,,,,true,2,19500001,2,1,1,0,2012/10/1,,,0,0,0,0,1,1.00,,,,1,0,Stephen        Williams,,,,,,1,0,,
19500501,,Crusher,,B008JAMFDI,,,ES,,,,true,28,15722179,2087,2563,758,192,2012/1/1,Crusher,book,103,247,277,98,33,3.38,,,,7,1,Niall Leonard,,,,,,1098,29,29,"adventure,contemporary,crime,fantasy,fiction,high-school,mystery,mystery-thriller,suspense,teen,thriller,young-adult"
19501001,,Brain-Computer Interfaces: Revolutionizing Human-Computer Interaction (The Frontiers Collection),,B008BA6EXI,,,ES,,,,true,6,7368070,37,16,4,0,2010/1/1,,book,1,2,1,0,0,4.00,,,,1,0,,,,"Bernhard Graimann,Brendan Z. Allison,Gert Pfurtscheller",,,25,1,,
19501501,,"Dani and the Haunted House (Dani P. Mystery, #1)",,,,,ES,2013/12/1,,eng,true,5,26190320,707,127,26,12,2013/12/1,,book,23,3,0,0,0,4.88,,Kindle Edition,,0,0,K. Lamb,,,,,,671,3,3,
19502001,,"Prepper Supplies & Survival Guide: The Prepping Supplies, Gear & Food You Must Have To Survive",,B00GM6W81A,,,ES,,,,true,1,19502001,6,12,3,0,2013/11/11,,,2,0,0,1,0,4.00,,,,3,0,Novato Press,,,,,,,0,1,survival
19502501,,Season of Splendor: The Court of Mrs. Astor in Gilded Age New York,,B00H2VF1E0,,,ES,,,,true,4,3802266,1726,1067,280,35,2008/10/1,A Season of Splendor: The Court of Mrs. Astor in Gilded Age New York,book,76,107,69,24,4,3.81,,,,49,3,Greg King,,,,,,1337,11,47,"american-history,biography,biography-memoir,historical,history,non-fiction,reference,victorian"
19503001,,Grace privaten Nackt Fotos (18 + Nacktheit) (Schmutzig Mädchen) (German Edition),,B00G9I82HA,,,ES,,,,true,1,19503001,0,0,0,0,2013/10/27,,,0,0,0,0,0,0.00,,,,0,0,NOT A BOOK,,,,,,,0,,
19503501,0615852688,SAT Prep Book 2014: Secrets to Conquering the SAT Study Guide,9780615852683,,,,ES,2013/12/2,"Accepted, Inc.",,false,1,19503501,0,0,0,0,2013/12/2,,,0,0,0,0,0,0.00,200,Paperback,,0,0,Accepted Inc,,,,,,,0,,
19504001,,じゃりン子チエ : 49 (アクションコミックス) (Japanese Edition),,B00CGRIDK4,,,ES,,,,true,1,19504001,0,0,0,0,,,,0,0,0,0,0,0.00,,,,0,0,はるき悦巳,,,,,,,0,,
19504501,,In a Lonely Place,,,,,ES,2002/1/1,,eng,false,1,19504501,1,0,0,0,2002/1/1,,book,0,0,0,0,0,0.00,,,,0,0,Jeff Sharp,,,,,,,0,,
19505001,,The Most Common Writing Mistakes In Fiction - And How To Avoid Them,,B005NIXWL8,,,ES,,,,true,6,84694,2136,3164,834,144,1992/1/1,The 38 Most Common Fiction Writing Mistakes: (And How to Avoid Them),book,229,302,225,58,20,3.79,,,,1,0,"Jack M. Bickham,Writer's Syndrome",,,Blake Snyder,,,1076,18,39,"fiction,language,non-fiction,reference,writing"
19505501,0984098291,Estrellas En El Fuego: (Stars in the Fire),9780984098293,,,,ES,2013/11/30,Rogue Scholars Press,,false,1,19505501,0,0,0,0,2013/11/30,,,0,0,0,0,0,0.00,160,Paperback,,0,0,Rogue Scholars Collective,,,,,,,0,,
19506001,0991128303,The Lion Led the Way,9780991128303,,,,ES,2013/11/19,Dwight Hutchison,,false,1,19506001,1,0,0,0,2013/11/19,,,0,0,0,0,0,0.00,260,Paperback,,0,0,Dwight R Hutchison,,,,,,1,0,,
19506501,,L'Étoffe de l'univers,,B005RDXH1Y,,,ES,,,fre,true,2,9361278,4,10,2,0,2010/9/1,,book,2,0,0,0,0,5.00,,,,0,0,Andrée Chedid,,,,,,1,0,,france
19507001,1230213643,"The Roman Empresses; Or, the History of the Lives and Secret Intrigues of the Wives of the Twelve Caesars Volume 2",9781230213644,,,,ES,2013/9/12,Theclassics.Us,,false,9,32112296,0,3,1,0,2013/9/12,,,0,0,1,0,0,3.00,124,Paperback,,0,0,Jacques Roergas De Serviez,,,,,,,0,,
19507501,141046735X,Newtown: An American Tragedy,9781410467355,,,,ES,2014/4/9,Thorndike Press,,false,10,18223640,3183,5601,1474,212,2013/12/10,,book,369,587,392,106,20,3.80,375,Hardcover,,2,1,Matthew Lysiak,,,,,,1060,31,56,"adult,crime,death,historical,history,mental-illness,mystery,non-fiction,politics,psychology,sociology,tragedy,true-crime"
19508001,,Trapeze,,B0024CEYFY,,,ES,,,,true,6,1357019,140,307,73,7,2004/1/1,Trapeze,,35,21,14,3,0,4.21,,,,0,0,Deborah Digges,,,,,,52,4,3,"death,poetry"
19508501,1453712755,Hooked on Haiku,9781453712757,,,,ES,2010/9/24,Createspace Independent Publishing Platform,,false,1,19508501,1,1,1,0,2010/9/24,,,0,0,0,0,1,1.00,56,Paperback,,1,0,George Clive Hook II,,,,,,,0,,
19509001,1462733085,Conversations with the God of Abraham,9781462733088,,,,ES,2013/12/5,CrossBooks Publishing,,false,2,19509001,0,0,0,0,2013/12/5,,,0,0,0,0,0,0.00,148,Paperback,,0,0,Chaplain Sharon Carter,,,,,,,0,,
19509501,1475260695,A Bag Full of Surprises,9781475260694,,,,ES,2012/4/26,Createspace Independent Publishing Platform,,false,1,19509501,0,0,0,0,2012/4/26,,,0,0,0,0,0,0.00,234,Paperback,,0,0,Cristian Butnariu,,,,,,,0,,
19510001,1479307726,The River Sprite,9781479307722,,,,ES,2012/9/15,Createspace Independent Publishing Platform,,false,1,19510001,1,5,1,0,2012/9/15,,book,1,0,0,0,0,5.00,54,Paperback,,1,0,Raymond  Walker,,,,,,,0,,
19510501,1481984837,Effective Living: A Guide to Self-Fulfilment,9781481984836,,,,ES,2013/2/28,Createspace Independent Publishing Platform,,false,1,19510501,0,0,0,0,2013/2/28,,,0,0,0,0,0,0.00,108,Paperback,,0,0,Benson N. Modie,,,,,,,0,,
19511001,148272393X,The Spirit Of Revenge (The Atonement Trilogy #1),9781482723939,,,,ES,2013/12/12,Createspace Independent Publishing Platform,,false,6,27423027,26,48,11,5,2011/1/1,,book,7,2,1,1,0,4.36,400,Paperback,,0,0,Bryan Gifford,,,,,,4,1,1,
19511501,1484145089,The Alzheimer's Disease Prevention Blueprint: What You Should Be Doing Today to Protect Yourself and Your Family,9781484145081,,,,ES,2012/12/1,Createspace Independent Publishing Platform,,false,2,18194850,3,5,1,0,2012/8/2,,,1,0,0,0,0,5.00,46,Paperback,,0,0,Catherine Levenstein,,,,,,2,0,,
19512001,,The Cardiovascular System at a Glance,,B0098QPDZO,,,ES,,,,true,13,681699,36,47,12,1,1999/10/5,The Cardiovascular System at a Glance (At a Glance),,4,4,3,1,0,3.92,,,,0,0,"Jeremy P.T. Ward,Michelle J. Connolly,Philip I. Aaronson",,,,,,15,0,,
19512501,1491025131,On the Irrawaddy,9781491025130,,,,ES,2013/7/17,Createspace,eng,false,48,6285112,150,246,67,4,,,book,16,22,23,3,3,3.67,154,Paperback,,0,0,G.A. Henty,,,,,,58,0,5,"adventure,fiction,historical-fiction,history,literature,novels,war"
19513001,1491071303,Rattlin the Reefer,9781491071304,,,,ES,2013/7/22,Createspace,,false,37,8162584,16,31,8,1,1836/1/1,Rattlin the Reefer,book,3,2,2,1,0,3.88,358,Paperback,,0,0,Edward Howard,,,,,,5,1,,"adventure,classics,novels"
19513501,,Grunge Seattle (MusicPlace),,B005PXEZJ4,,,ES,,,,true,13,26196316,295,132,35,8,2010/1/1,,,12,7,12,4,0,3.77,,,,1,0,Justin Henderson,,,,,,245,3,2,"history,music,non-fiction,research"
19514001,1493105566,Destiny Dynasty Legacy: The Working Wealth Book,9781493105564,,,,ES,2013/12/11,Xlibris Corporation,,false,1,19514001,0,0,0,0,2013/12/11,,,0,0,0,0,0,0.00,96,Paperback,,0,0,Dr James E Randolph,,,,,,,0,,
19514501,,Demon's Layer,,B0064EI5NU,,,ES,,,,true,1,19514501,1,0,0,0,2010/11/26,,,0,0,0,0,0,0.00,,,,0,0,Carlanime Bligh,,,,,,1,0,,
19515001,1494282402,Shott in the Dark (a Chandler Shott Mystery),9781494282400,,,,ES,2013/11/20,Createspace Independent Publishing Platform,,false,3,19031575,7,18,5,0,2013/11/20,,,1,1,3,0,0,3.60,174,Paperback,,0,0,Kirk Hanley,,,,,,1,0,1,
19515501,1494363887,Charleston Cooking Club - 2014 Edition,9781494363888,,,,ES,2013/12/3,Createspace Independent Publishing Platform,,false,2,19515501,0,0,0,0,2013/12/3,,,0,0,0,0,0,0.00,152,Paperback,,0,0,Britt Michaelson,,,,,,,0,,
19516001,,A Rebelião das Massas,,B00AGJHUNK,,,ES,,,por,true,112,282447,8462,12331,3041,196,1930/1/1,La rebelión de las masas,book,1156,1146,539,150,50,4.05,,,,3,0,José Ortega y Gasset,,,,Herrera Filho,,4332,15,283,"academic,classics,economics,essays,history,non-fiction,philosophy,politics,psychology,social,sociology"
19516501,1494410605,Uncle Vanya,9781494410605,,,,ES,2013/12/8,Createspace Independent Publishing Platform,,false,313,231560,26232,58589,15261,464,1897/6/2,Дядя Ваня,book,4463,5541,3903,1047,307,3.84,68,Paperback,,0,0,Anton Chekhov,,,,,,7863,105,139,"adult,classic-literature,classics,drama,family,fiction,high-school,historical-fiction,literature,plays,school,short-stories,theatre"
19517001,,Oasis in the Desert (Lacey's Lamp),,B008IKAIKQ,,,ES,,,,true,3,15844701,1,4,1,0,2012/7/7,,book,0,1,0,0,0,4.00,,,,0,0,Lynn Crain,,,,,,,0,,
19517501,,An Essay on the Beautiful From the Greek of Plotinus,,B002RKTA3O,,,ES,,,,true,18,11375965,352,283,73,3,1955/12/1,,book,27,19,20,5,2,3.88,,,,4,0,Plotinus,,,,,,242,7,10,"art,classics,essays,non-fiction,philosophy"
19518001,,The Thief and the Bounty Hunter,,B0084HEX0O,,,ES,,,eng,true,1,19518001,2,0,0,0,2012/5/17,,book,0,0,0,0,0,0.00,,,,0,0,Rachel Chase,,,,,,2,0,,
19518501,,逆境を越えてゆく者へ (Japanese Edition),,B00F2B182G,,,ES,,,,true,1,19518501,0,0,0,0,2011/7/6,,,0,0,0,0,0,0.00,,,,0,0,新渡戸 稲造,,,実業之日本社,,,,0,,
19519001,,To Be Back Home Again,,B00DPBNEOU,,,ES,,,,true,3,18257733,5,5,2,1,2013/6/20,,,0,1,0,0,1,2.50,,,,1,0,Lori Dove,,,,,,1,0,1,"fiction,romance"
19519501,1612861903,Albert & Freddie,9781612861906,,,,ES,2013/11/8,Avid Readers Publishing Group,,false,2,19519501,1,5,1,0,2013/11/8,,,1,0,0,0,0,5.00,24,Paperback,,1,0,Brad Thyroff,,,,,,,0,1,
19520001,1626192480,New Orleans Beer:: A Hoppy History of Big Easy Brewing,9781626192485,,,,ES,2014/3/4,The History Press,,false,5,19520001,11,21,6,2,2014/2/23,,,1,2,2,1,0,3.50,144,Paperback,,5,2,"Argyle Wolf-Knapp,Jeremy LaBadie",,,,,,4,0,,
19521001,1939587905,Ptcb Exam Study Guide: Test Prep and Practice Questions for the Pharmacy Technician Certification Exam,9781939587909,,,,ES,2013/12/4,Trivium Test Prep,,false,1,19521001,5,17,4,0,2013/12/4,,,2,1,1,0,0,4.25,166,Paperback,,4,0,Trivium Test Prep,,,,,,1,0,,
19521501,,NHK連続テレビ小説　あまちゃん　25　おらたち、いつでも夢を,,B00H9EYZMO,,,ES,,,jpn,true,1,19521501,0,0,0,0,2013/12/20,,book,0,0,0,0,0,0.00,,,,0,0,"Kankurō Kudō,宮藤 官九郎",,,,,,,0,,
19522001,3639703324,Teaching Arabic Post 9/11: Late Modernity in Language Classrooms,9783639703320,,,,ES,2013/12/5,Scholars' Press,,false,1,19522001,1,0,0,0,2013/12/5,,,0,0,0,0,0,0.00,308,Paperback,,0,0,Abbadi Sawsan,,,,,,1,0,,
19522501,,47 Natural Sex Boosters For Men,,B003HKRHIS,,,ES,,,,true,1,19522501,0,0,0,0,2010/4/15,,,0,0,0,0,0,0.00,,,,0,0,BuildABetterLife,,,,,,,0,,
19523001,,走不出的风景•大学里的致辞、以及修辞 (Chinese Edition),,B007VAUG0Q,,,ES,,,,true,1,19523001,2,4,1,0,2011/4/1,,,0,1,0,0,0,4.00,,,,1,0,苏力,,,,,,,0,1,
19523501,0415537118,Introducing Philosophy: Its Importance in an Age of Science and Religion,9780415537117,,,,ES,2014/11/1,Routledge,,false,2,19523501,2,0,0,1,2013/11/1,,,0,0,0,0,0,0.00,256,Hardcover,,0,0,Neil  Tennant,,,,,,1,0,,
19524001,,The Good Soldier,,B0078XFJDU,,,ES,,,,true,192,7628,45254,76237,20493,1370,1915/1/1,The Good Soldier,book,5694,6805,5327,1899,768,3.72,,,,15,1,Ford Madox Ford,,,,,,21196,437,492,"adult-fiction,british-literature,classic-literature,classics,college,english-literature,fiction,historical,historical-fiction,literary-fiction,literature,modern-classics,novels,romance,school,war"
19524501,,L'Île des esclaves (French Edition),,B00BEJWMT8,,,ES,,,fre,true,42,2832492,1695,3435,1035,23,1725/1/1,L'île des esclaves,book,129,301,415,151,39,3.32,,,,4,0,Pierre de Marivaux,,,,,,283,35,15,"classics,drama,fiction,france,plays,school,theatre"
19525001,1107496721,Introducing Phonology,9781107496729,,,,ES,2013/12/11,Cambridge University Press,,true,11,604347,232,288,85,8,1994/1/13,Introducing Phonology (Cambridge Introductions to Language and Linguistics),,16,24,27,13,5,3.39,368,ebook,,0,0,David Odden,,,,,,86,3,13,"language,non-fiction,reference,textbooks"
19525501,1230198598,Books in the War: The Romance of Library War Service,9781230198590,,,,ES,2013/9/12,Theclassics.Us,,false,9,19525501,9,4,1,0,1919/1/1,,book,0,1,0,0,0,4.00,100,Paperback,,1,0,Theodore Wesley Koch,,,,,,6,0,2,"historical,history,non-fiction"
19526001,1230212574,The Living Temple,9781230212579,,,,ES,2013/9/12,Theclassics.Us,,false,7,10884714,5,8,2,0,2009/5/1,,,1,0,1,0,0,4.00,156,Paperback,,0,0,John Harvey Kellogg,,,,,,2,0,1,
19526501,1230220976,A Commentary on St. Paul's Epistle to the Romans,9781230220970,,,,ES,2013/9/12,Theclassics.Us,,false,21,9352895,3,4,1,0,2010/3/8,,,0,1,0,0,0,4.00,148,Paperback,,0,0,Joseph Agar Beet,,,,,,1,0,,"fiction,non-fiction,reference"
19527001,0992375916,Seldom Come By,9780992375911,,,,ES,2013/12/10,Cedar Pocket Publishing,eng,false,4,19527001,814,471,110,60,2013/12/10,Seldom Come By,book,50,45,12,2,1,4.28,490,Paperback,,83,45,Sherryl Caulfield,,,,,,679,17,6,"drama,fiction,historical,historical-fiction,romance"
19527501,123023599X,Paul Pry's Journal of a Residence at Little Pedlington,9781230235998,,,,ES,2013/9/12,Theclassics.Us,,false,4,11367283,3,0,0,0,2013/9/12,,book,0,0,0,0,0,0.00,48,Paperback,,0,0,John Poole,,,,,,2,0,1,"classics,comedy"
19528001,1230243186,The Inner Consciousness,9781230243184,,,,ES,2013/9/12,Theclassics.Us,,false,14,19528001,13,19,5,0,2010/12/12,,,2,1,1,1,0,3.80,20,Paperback,,3,0,William Walker Atkinson,,,,,,7,0,2,"psychology,self-help"
19528501,123025031X,The New World Order,9781230250311,,,,ES,2013/9/12,Theclassics.Us,,false,15,8075976,24,14,4,1,2009/8/28,,,1,2,0,0,1,3.50,28,Paperback,,0,0,Samuel Zane Batten,,,,,,14,0,1,"history,politics,religion,research"
19529001,1230257772,"Annals of Philadelphia and Pennsylvania in the Olden Time; Being a Collection of Memoirs, Anecdotes, and Incidents of the City and Its Inhabitants, and of the Earliest Settlements of the Inland Part of Pennsylvania Volume 3",9781230257778,,,,ES,2013/9/12,Theclassics.Us,,false,6,19529001,0,0,0,0,2015/9/27,,,0,0,0,0,0,0.00,242,Paperback,,0,0,John Fanning Watson,,,,,,,0,,
19529501,1230265279,Jean-Paul Marat; The People's Friend,9781230265278,,,,ES,2013/9/12,Theclassics.Us,,false,29,11345276,14,15,4,1,2009/3/4,,,1,1,2,0,0,3.75,88,Paperback,,0,0,Ernest Belfort Bax,,,,,,6,0,1,
19530001,1230326014,The Finding of Jasper Holt,9781230326016,,,,ES,2013/9/12,Theclassics.Us,,false,35,574154,627,1588,387,21,1916/1/1,The Finding of Jasper Holt,book,176,101,87,20,3,4.10,56,Paperback,,0,0,Grace Livingston Hill,,,,,,120,12,14,"adventure,christian,christian-fiction,christianity,classics,college,fiction,historical-fiction,inspirational,romance"
19530501,1230341773,Cistercian Legends of the Thirteenth Century,9781230341774,,,,ES,2013/9/12,Theclassics.Us,,false,1,19530501,1,0,0,0,2013/9/12,,,0,0,0,0,0,0.00,58,Paperback,,0,0,Caesarius,,,,,,1,0,,
19531001,1230356347,History of Cass County Indiana; From Its Earliest Settlement to the Present Time: With Biographical Sketches and Reference to Biographies Previously C,9781230356341,,,,ES,2013/9/12,Theclassics.Us,,false,1,19531001,0,0,0,0,2013/9/12,,,0,0,0,0,0,0.00,376,Paperback,,0,0,Jehu Z Powell,,,,,,,0,,
19531501,1230405194,"Governor Garrard, of Kentucky; His Descendants and Relatives",9781230405193,,,,ES,2013/9/12,Theclassics.Us,,false,1,19531501,0,0,0,0,2013/9/12,,,0,0,0,0,0,0.00,40,Paperback,,0,0,Anna Russell Des Cognets,,,,,,,0,,
19532001,1230445196,Sketch of the Life of Alexander Wilson; Author of the American Ornithology,9781230445199,,,,ES,2013/9/12,Theclassics.Us,,false,4,19532001,0,0,0,0,2012/2/22,,,0,0,0,0,0,0.00,68,Paperback,,0,0,George Ord,,,,,,,0,,
19532501,1408160951,Shirley Valentine & One for the Road,9781408160954,,,,ES,2014/1/8,Methuen Drama,,true,12,315127,575,1242,332,23,1986/1/1,Shirley Valentine (Longman Literature),book,99,99,93,31,10,3.74,112,ebook,,0,0,Willy Russell,,,,,,155,8,4,"academic,adult-fiction,british-literature,classics,college,drama,fiction,humor,plays,school,theatre,travel"
19533001,1444818538,Ace of Bones,9781444818536,,,,ES,2014/2/1,Linford,,false,2,15930649,1,3,1,0,2012/6/1,,,0,0,1,0,0,3.00,248,Paperback,,0,0,Clay Starmer,,,,,,,0,,
19533501,1463367864,El Convento,9781463367862,,,,ES,2013/12/13,Palibrio,,false,1,19533501,0,0,0,0,2013/12/13,,,0,0,0,0,0,0.00,144,Hardcover,,0,0,Ríos Alcocer,,,,,,,0,,
19534001,1480543799,Summer House with Swimming Pool,9781480543799,,,,ES,2014/6/3,Brilliance Audio,eng,false,75,18594633,35534,65371,19181,2411,2011/1/26,Zomerhuis met zwembad,book,2246,7111,6823,2227,774,3.41,12,Audio CD,,23,9,Herman Koch,,,,,,12798,193,538,"adult,adult-fiction,contemporary,crime,dark,drama,family,fiction,literary-fiction,literature,marriage,mystery,mystery-thriller,novels,realistic-fiction,relationships,school,suspense,thriller,unfinished"
19534501,1491827955,"My Brother and Oakland's Infamous Drug Kingpin Felix Wayne Mitchell, His Mob and an Oakland True Story",9781491827956,,,,ES,2013/12/12,Authorhouse,,false,3,24613528,12,5,1,0,2013/12/13,,book,1,0,0,0,0,5.00,360,Paperback,,0,0,Keith Allen Lewis Sr.,,,,,,5,0,,
19535001,,The Night Before Christmas (Mills & Boon Short Stories) (The West Family),,B00GS17JZE,,,ES,,,,true,7,18894819,195,308,92,12,2013/12/1,The Night Before Christmas,book,14,19,45,13,1,3.35,,,,2,0,Kelly Hunter,,,,,,75,9,4,"chick-lit,contemporary,harlequin,holiday,novella,romance"
19535501,1494471701,Bridge Lessons: Defence,9781494471705,,,,ES,2013/12/13,Createspace,,false,1,19535501,0,0,0,0,2013/12/13,,,0,0,0,0,0,0.00,60,Paperback,,0,0,Andrew M. Robson,,,,,,,0,,
19536001,1607069466,"Sex Criminals, Vol. 1: One Weird Trick",9781607069461,,,,ES,2014/4/29,Image Comics,eng,false,17,19536001,56423,111704,28391,2808,2014/4/16,"Sex Criminals, Volume One: One Weird Trick",book,9872,10278,5649,1693,899,3.93,128,Paperback,Trade,28006,2740,,,,,,,24909,718,393,"adult,adult-fiction,comedy,comics,contemporary,crime,erotica,fantasy,fiction,funny,graphic-novels,graphic-novels-comics,humor,magical-realism,mystery,romance,science-fiction,speculative-fiction,supernatural,time-travel,urban-fantasy"
19536501,1610448146,Legacies of the War on Poverty,9781610448147,,,,ES,2013/7/31,Russell Sage Foundation Publications,,true,4,17918298,54,57,15,1,2013/7/31,,book,4,5,5,1,0,3.80,324,ebook,,0,0,,,,"Martha J. Bailey,Sheldon Danziger",,,35,1,1,economics
19537001,,Black Dog Sheet Music (Guitar Tab/Vocal),,B005J9KQT2,,,ES,,,eng,true,2,19537001,1,0,0,0,2011/8/24,,book,0,0,0,0,0,0.00,,,,0,0,"Jimmy Page,John Paul  Jones,Robert Plant",,,,,,1,0,,
19537501,,"Paper Bugs! Fold Your Own Creepy Crawly Critters: Easy-to-make Origami Paper Grasshoppers, Cockroaches, Spiders, Bees And More!",,B005JVFH1M,,,ES,,,,true,2,14429125,4,9,3,1,2011/8/29,,,0,2,0,0,1,3.00,,,,0,0,Carmel D. Morris,,,,,,,0,,
19538001,3110349108,"Das Skalpell Unter Dem Schwamm: Taktische Therapeutik in Senecas ""Epistulae Morales""",9783110349108,,,,ES,2014/6/30,Walter de Gruyter,,true,1,19538001,0,0,0,0,2014/6/30,,,0,0,0,0,0,0.00,340,ebook,,0,0,Uwe Dietsche,,,,,,,0,,
19538501,3842887779,Frauen in Der Punkrockszene: Einblicke in Eine Mannerdominierte Jugendkultur,9783842887770,,,,ES,2013/11/25,Diplomica Verlag Gmbh,,false,1,19538501,0,0,0,0,2013/11/25,,,0,0,0,0,0,0.00,120,Paperback,,0,0,Isabelle Linda Riedlinger,,,,,,,0,,
19539001,,Uma Águia sem Asas (Portuguese Edition),,B00AGKK01I,,,ES,,,eng,true,1,19539001,4,10,3,0,2012/11/30,Uma Águia sem Asas,book,1,0,1,1,0,3.33,,,,3,0,Machado de Assis,,,,,,1,0,,
19539501,,The Great Stone Death,,B00FURFOUE,,,ES,,,,true,1,19539501,22,16,4,0,2013/10/11,,,1,2,1,0,0,4.00,,,,4,0,John D. MacDonald,,,,,,16,0,,
19540001,,"Frauen lieben Schokolade, Männer Wiener Schnitzel: Warum wir uns trotzdem verstehen (German Edition)",,B00AAHHSW6,,,ES,,,,true,1,19540001,1,3,1,1,2012/11/20,,,0,0,1,0,0,3.00,,,,1,1,"Anne van Amstel,Jan van Amstel",,,,,,,0,,
19540501,,DOG EAR Tritone Substitution for Jazz Guitar,,B008FRWNIW,,,ES,,,,true,1,19540501,1,3,1,0,2013/12/13,,,0,0,1,0,0,3.00,,,,1,0,Ken R.,,,,,,,0,,
19541001,1492182192,Untamed Hearts,9781492182191,,,,ES,,,,false,5,18463296,25,28,8,0,2013/8/1,,book,1,2,5,0,0,3.50,,,,0,0,Mandy Monroe,,,,,,17,0,,"erotica,menage"
19542001,,The Complete Idiot's Guide to Buying a Home,,B008NSRKHW,,,ES,,,,true,7,7552802,80,126,38,5,2009/12/18,,book,2,13,19,3,1,3.32,,,,2,0,Peter Richmond,,,,,,8,1,3,"non-fiction,unfinished"
19542501,1906008124,Sirhowy Valley Line,9781906008123,,,,ES,2007/8/25,Middleton Press (MD),,false,1,19542501,1,0,0,0,2007/8/25,,,0,0,0,0,0,0.00,96,Hardcover,,0,0,"Dave Edge,Keith  Smith,Vic Mitchell",,,,,,1,0,,
19543001,,After the Rainy Season,,B00HDSG9X4,,,ES,2013/12/16,Benjamin Eldon Stevens,eng,true,1,19543001,1,0,0,0,2013/12/16,,book,0,0,0,0,0,0.00,,Kindle Edition,,0,0,Benjamin Eldon Stevens,,,,,,1,0,,
19543501,,Materia oscura: Luces del norte,,,,,ES,,,spa,false,355,119322,1502522,4448611,1123087,17730,1995/7/9,Northern Lights,book,439390,353108,219336,69968,41285,3.96,,,,7,1,Philip Pullman,,,,Roser Berdage,,335694,1303,8443,"adventure,animals,childrens,classics,epic-fantasy,fantasy,fiction,high-fantasy,juvenile,magic,middle-grade,mystery,novels,paranormal,religion,science-fiction,science-fiction-fantasy,speculative-fiction,steampunk,teen,young-adult"
19544001,,i monterna techni / η μοντέρνα τέχνη,,,,,ES,,,,false,1,19544001,0,0,0,0,,,,0,0,0,0,0,0.00,,,,0,0,argan giulio carlo,,,,,,,0,,
19544501,,Famous Crimes: Stories of Law and Order in Minnesota,,,,,ES,,,,false,1,19544501,3,0,0,0,2008/4/15,,,0,0,0,0,0,0.00,,,,0,0,"Merle Minda,Sheri O'Meara",,,,,,2,0,,
19545001,8895883276,W'Unker di rocca d'ombra,9788895883274,,,,ES,2012/1/1,Edizioni Domino,ita,false,1,19545001,1,0,0,0,2012/1/1,,book,0,0,0,0,0,0.00,520,Paperback,,0,0,Adriana Comaschi,,,,,,1,0,,
19545501,5938950856,ГУЛАГ: Паутина Большого террора,9785938950856,,,,ES,2006/1/1,Московская школа политических исследований ,rus,false,58,224379,25494,31444,7485,545,2003/1/1,Gulag : a history,book,3239,2874,1088,205,79,4.20,606,Paperback,,4,1,Anne Applebaum,,,,,,15709,57,1058,"american,biography,crime,cultural,historical,history,non-fiction,politics,sociology,unfinished,war"
19546001,3882216654,Der symbolische Tausch und der Tod,9783882216653,,,,ES,2009/12/1,Matthes & Seitz Berlin,ger,false,17,198512,948,967,236,13,1976/1/1,L'échange symbolique et la mort,book,94,84,46,11,1,4.10,431,Hardcover,,6,0,Jean Baudrillard,,,,,,567,8,25,"academic,anthropology,death,economics,language,non-fiction,philosophy,psychology,religion,sociology"
19546501,,The Beaux of the Regency volume 1,,,,,ES,1874/1/1,,,false,9,19546501,2,7,2,1,1874/1/1,,book,0,1,1,0,0,3.50,,,,1,0,Lewis Melville,,,,,,,0,,
19547001,,Tablettes Albertini Actes privés de l'époque vandale,,,,,ES,,,fre,false,1,19547001,14,5,1,0,,,book,1,0,0,0,0,5.00,,,,1,0,"Charles Perrat,Charles Saumagne,Christian Courtois,Louis Leschi,Pierre-Jean Miniconi",,,,,,12,0,1,
19547501,8868853167,Tattoo and Spirit,9788868853167,,,,ES,2013/12/6,Narcissus.me,ita,true,4,19547501,25,41,11,2,2013/12/6,Tattoo and Spirit,book,2,5,3,1,0,3.73,250,ebook,,11,2,A.I. Cudil,,,,,,10,0,1,fantasy
19548501,,Por qué tus hijos deberían comer más coliflores y aprender un poco de esperanto,2011092000012,,,,ES,2011/1/1,Comú,spa,false,1,19548501,18,55,17,2,2011/1/1,,book,2,5,6,3,1,3.24,212,Hardcover,1st,17,2,Joan Català,,,,,,1,1,,
19549001,,Das Kontrafaktische Museum,,,,,ES,2014/1/17,Perry Rhodan Digital,ger,true,2,19549001,6,25,6,1,2014/1/16,,book,3,1,2,0,0,4.17,,ebook,,4,1,Leo Lukas,,,,,,,0,,
19549501,,محمد صلى الله عليه وسلم - الجزء الثامن والثلاثون: غزوة تبوك,,,,,ES,2006/12/28,المؤسسة العربية الحديثة,ara,false,1,19549501,3,5,1,0,2006/12/28,محمد صلى الله عليه وسلم - الجزء الثامن والثلاثون: غزوة تبوك,book,1,0,0,0,0,5.00,,Paperback,,1,0,‎عبد الحميد عبد المقصود,,,,,,2,0,,
19551001,,Last Christmas: The Private  Prequel,,B0092PYEHY,,,ES,,,,true,15,2943733,7768,17211,4291,194,2008/10/6,Last Christmas (Private Prequel) ,book,1761,1267,918,239,106,4.01,,,,1,0,Kate Brian,,,,,,2147,18,34,"chick-lit,christmas,contemporary,drama,fiction,high-school,holiday,love,murder-mystery,mystery,realistic-fiction,romance,suspense,teen,young-adult"
19553501,,Instinct (A Jack Sigler Thriller),,B0099WE3HQ,,,ES,,,,true,13,6590932,3763,8887,2138,113,2010/4/7,Instinct,book,856,849,362,54,17,4.16,,,,8,0,Jeremy Robinson,,,,,,1142,9,65,"action,adult,adventure,contemporary,detective,fantasy,fiction,horror,modern,mystery,mystery-thriller,science,science-fiction,science-fiction-fantasy,suspense,thriller,urban-fantasy,war"
19554001,,Knight Errant (War of the Roses),,B00C74OYLI,,,ES,,,,true,7,538755,910,1334,370,55,2001/1/1,Knight Errant,book,78,140,94,44,14,3.61,,,,4,0,R. Garcia y Robertson,,,,,,420,6,6,"adult,fantasy,fiction,historical,historical-fiction,medieval,relationships,romance,time-travel"
19555001,,The MD Anderson Manual of Medical Oncology,,B00AME3MKY,,,ES,,,,true,9,19191065,11,4,2,0,2006/3/20,The MD Anderson Manual of Medical Oncology,book,0,0,1,0,1,2.00,,,,0,0,"Charles A. Koller,Hagop M. Kantarjian,Robert A. Wolff",,,,,,4,0,1,reference
19556501,1933301259,I Love Islam Workbook: Level 1,9781933301259,,,,ES,,,,false,1,19556501,0,0,0,0,2005/7/1,,,0,0,0,0,0,0.00,,,,0,0,"Aimen Ansari,Majida Yousef,Nabil Sadoun",,,,,,,0,,
19557501,,Augustine in Carthage: And Other Poems,,B0038BZOV8,,,ES,,,,true,7,2379690,13,21,6,2,2008/4/1,Augustine in Carthage: And Other Poems,book,1,2,2,1,0,3.50,,,,0,0,Alessandro Porco,,,,,,5,0,,
19558001,1781850755,Breaking Point,9781781850756,,,,ES,,,,false,22,15815348,12776,32729,7637,640,2013/3/12,Breaking Point,book,3385,3220,890,112,30,4.29,,,,10,0,C.J. Box,,,,,,645,28,322,"action,adult,adult-fiction,adventure,contemporary,crime,detective,family,fiction,murder-mystery,mystery,mystery-thriller,suspense,thriller"
19558501,1935023349,Tesla Wireless Report,9781935023340,,,,ES,,,,false,1,19558501,14,2,1,0,2008/12/30,,,0,0,0,1,0,2.00,,,,1,0,Nikola Tesla,,,Thomas F. Valone,,,12,0,,
19559001,,"The Happiness of Pursuit: A Father's Courage, a Son's Love and Life's Steepest Climb",,B004ZG97AO,,,ES,,,,true,6,9940012,211,489,125,18,2011/1/1,,book,37,47,35,5,1,3.91,,,,16,0,"Austin Murphy,Davis Phinney",,,,,,20,1,7,"biography,memoir,non-fiction,sports"
19559501,,HELP! I have been promoted...Now what do I do?,,B007AGQJ70,,,ES,,,,true,1,19559501,0,0,0,0,2005/7/8,,,0,0,0,0,0,0.00,,,,0,0,Helmut W. Horchler,,,,,,,0,,
19560501,,"To Design Landscape: Art, Nature & Utility",,B008SA4GFO,,,ES,,,,true,7,13713261,7,7,2,0,2012/1/1,,,1,0,0,1,0,3.50,,,,1,0,Catherine Dee,,,,,,3,0,,
19561501,1492779199,The Mentalist 9 Steps to Influence,9781492779193,,,,ES,,,,false,4,18887716,213,112,26,1,2013/9/18,,,13,8,5,0,0,4.31,,,,0,0,Ehud Segev,,,,,,61,0,4,"magic,non-fiction,personal-development,psychology"
19562001,,Information And The Professional Scientist And Engineer,,B00BMU547Q,,,ES,,,,true,1,19562001,1,0,0,0,2013/5/13,,,0,0,0,0,0,0.00,,,,0,0,"Julie Hallmark,Virginia Ann Baldwin",,,,,,1,0,,
19562501,,The Midwife,,B0095NXUX2,,,ES,,,eng,true,9,651406,558,996,259,25,1999/8/1,The Midwife,book,87,69,82,18,3,3.85,,,,1,0,Carolyn Davidson,,,,,,230,11,9,"harlequin,historical,historical-fiction,romance"
19563501,,Frontiers of Commodity Chain Research,,B0066IN656,,,ES,,,,true,3,3378648,8,22,6,0,2008/10/30,Frontiers of Commodity Chain Research,,0,4,2,0,0,3.67,,,,0,0,Jennifer Bair,,,,,,1,0,1,
19565001,,Tall Tales By A Short Texan:Some Retold Biblical and Family Stories from the Lone Star State,,B0060LC42U,,,ES,,,,true,3,2018416,0,0,0,0,2007/2/22,Tall Tales by a Short Texan: Some Retold Biblical and Family Stories from the Lone Star State,,0,0,0,0,0,0.00,,,,0,0,David S. Eicher,,,,,,,0,,
19565501,,Seeking Him: Experiencing the Joy of Personal Revival,,B000S1LT88,,,ES,,,,true,9,250706,920,1243,280,24,2004/1/1,Seeking Him: Experiencing the Joy of Personal Revival,book,172,70,30,5,3,4.44,,,,0,0,Tim Grissom,,,,,,505,12,52,"christian,christianity,faith,inspirational,non-fiction,religion,theology"
19566001,,The H.I.S,,B006H0XH2A,,,ES,,,,true,1,19566001,0,0,0,0,2009/7/29,,,0,0,0,0,0,0.00,,,,0,0,Mr. Uker,,,,,,,0,,
19567501,,"Genes, Categories, and Species: The Evolutionary and Cognitive Cause of the Species Problem",,B000R343RG,,,ES,,,,true,3,1679995,6,9,2,0,2001/1/1,"Genes, Categories, and Species: The Evolutionary and Cognitive Cause of the Species Problem",,1,1,0,0,0,4.50,,,,0,0,Jody Hey,,,,,,1,0,1,science
19568001,,Observation and Experiment in the Natural and Social Sciences (Boston Studies in the Philosophy and History of Science),,B000VHYMME,,,ES,,,,true,4,3396736,3,0,0,0,2003/1/1,Observation and Experiment in the Natural and Social Sciences (Boston Studies in the Philosophy of Science),,0,0,0,0,0,0.00,,,,0,0,Maria Carla Galavotti,,,,,,3,0,,
19568501,,Selected Poems,,B00A73J696,,,ES,,,eng,true,11,765424,175,199,60,6,1973/1/1,,book,6,21,23,6,4,3.32,,,Dover Thrift Editions,1,0,John Dryden,,,,,,70,3,3,"classics,college,poetry"
19569001,,"Apache Vendetta (The Trailsman, #387)",,B00DGZIBKM,,,ES,,,eng,true,2,18079716,18,36,11,2,2014/1/7,,book,3,1,4,2,1,3.27,,,,5,0,Jon Sharpe,,,,,,2,0,,
19569501,,Building the Body of Christ,,B00F4WOPL4,,,ES,,,,true,4,18471140,0,0,0,0,2013/8/30,,,0,0,0,0,0,0.00,,,,0,0,Ladell Farrar,,,,,,,0,,
19571001,,The Old Druid and the Pursuit of Happiness,,B009SRMT78,,,ES,,,,true,2,16256181,2,5,1,0,2012/12/4,,,1,0,0,0,0,5.00,,,,0,0,D.G. Flamand,,,,,,,0,,
19571501,,The ASC Treasury Of Visual Effects,,,,,ES,,,,false,1,19571501,0,0,0,0,1983/1/1,,,0,0,0,0,0,0.00,,,,0,0,Editor George E. Turner,,,,,,,0,,
19572001,,Informasjon kommunikasjon teknologi,9788202217648,,,,ES,2001/1/1,Cappelen akademisk,nor,false,1,19572001,1,0,0,0,2001/1/1,,book,0,0,0,0,0,0.00,512,Paperback,,0,0,Terje Kristensen,,,,,,,0,,
19575001,,Hot August Nights,,B00971C05Q,,,ES,,,eng,true,9,731995,52,94,26,2,2004/6/1,Hot August Nights,book,6,8,9,2,1,3.62,,,,0,0,Christine Flynn,,,,,,18,3,,romance
19575501,,Sunset for Eagles,,B008CHL7P0,,,ES,,,,true,2,6828291,1,0,0,0,2006/1/1,,,0,0,0,0,0,0.00,,,,0,0,Mary T. Dresser,,,,,,1,0,,
19576501,,Soft-Tissue Lasers in Dental Hygiene,,B009Z795TG,,,ES,,,,true,6,17054541,4,0,0,0,2012/1/1,,,0,0,0,0,0,0.00,,,,0,0,"Angie Mott,Jessica Blayden",,,,,,2,0,2,
19577001,,Done with the Talking,,B008IBF5T4,,,ES,,,,true,3,15888255,0,0,0,0,2012/7/5,,,0,0,0,0,0,0.00,,,,0,0,Norm Cole,,,,,,,0,,
19577501,015323721X,Workbook Gr 5 Harcourt Science 2002 Teacher's Edition,9780153237218,,,,ES,2002/1/1,,,false,1,19577501,0,0,0,0,2002/1/1,,,0,0,0,0,0,0.00,400,Paperback,,0,0,Harcourt School Publishers,,,,,,,0,,
19578001,,Life Support: A Survival Guide for the Modern Soul,,B004ZZEL2O,,,ES,,,,true,3,8402683,7,14,4,0,2009/3/19,,,1,0,3,0,0,3.50,,,,0,0,Derek Draper,,,,,,1,0,,reference
19578501,,Introduction to Management Science,,B006Y10AA4,,,ES,,,eng,true,40,1569672,405,288,75,3,1982/1/1,Introduction to Management Science,book,31,15,19,6,4,3.84,,,11th Edition,0,0,Bernard W. Taylor III,,,,,,94,0,11,"academic,business,non-fiction,school"
19579501,,Circling Round Eros + 2,,B0097URC64,,,ES,,,,true,2,15950714,0,0,0,0,2012/8/22,,,0,0,0,0,0,0.00,,,,0,0,Arlene Corwin,,,,,,,0,,
19583001,,Statistical Literacy at School: Growth and Goals (Studies in Mathematical Thinking and Learning Series),,B00CTOKVEA,,,ES,,,,true,7,4481306,1,0,0,0,2006/6/23,Statistical Literacy at School: Growth and Goals (Studies in Mathematical Thinking and Learning Series),,0,0,0,0,0,0.00,,,,0,0,Jane M. Watson,,,,,,1,0,,
19583501,,Precious Bryony Rose and the Icky Sticky Booger  Boys,,B00DSK7L7O,,,ES,,,,true,3,19583501,1,0,0,0,2013/4/20,,,0,0,0,0,0,0.00,,,,0,0,Fiona Shirley Pope,,,,,,1,0,,
19584001,,De Lingua Belief (Bradford Books),,B002QUYQJ8,,,ES,,,,true,5,2919846,5,0,0,2,2006/10/1,De Lingua Belief (Bradford Books),,0,0,0,0,0,0.00,,,,0,0,Robert Fiengo,,,,,,1,1,1,"non-fiction,philosophy"
19586501,1885270674,Touching Incidents and Remarkable Answers to Prayer,9781885270672,,,,ES,,,,false,1,19586501,3,5,1,0,2007/3/1,,,1,0,0,0,0,5.00,,,,1,0,Various,Igor Kondratuk,,,,,1,0,,
19587001,,Silent Gesture: The Autobiography of Tommie Smith (Sporting),,B001R11CEY,,,ES,,,,true,7,299450,289,142,39,6,2007/1/1,Silent Gesture: The Autobiography of Tommie Smith (Sporting),,11,12,8,7,1,3.64,,,,5,0,Tommie Smith,,,,,,229,0,5,"autobiography,biography,biography-memoir,history,memoir,non-fiction,politics,sports"
19587501,,"Public Health Engineering Sewerage, Second Edition",,B000UYCOV4,,,ES,,,,true,1,19587501,0,0,0,0,2007/4/16,,,0,0,0,0,0,0.00,,,,0,0,Ronald Ernest Bartlett,,,,,,,0,,
19588001,,Asticman:To the condition of being handicapped,,B005W2FTCU,,,ES,,,,true,1,19588001,0,0,0,0,2009/7/31,,,0,0,0,0,0,0.00,,,,0,0,"Carmen Aldinger,Paul Peroutka",,,,,,,0,,
19588501,,Nothing But Faith In My Pocket,,B007RQMZ3U,,,ES,,,,true,1,19588501,0,0,0,0,2011/11/15,,,0,0,0,0,0,0.00,,,,0,0,W. Ryan Rebold,,,,,,,0,,
19592501,0741473771,Once Upon a Greenpeace: An Eco Memoir,9780741473776,,,,ES,,,,false,2,19592501,1,0,0,0,2012/11/21,,,0,0,0,0,0,0.00,,,,0,0,William E. Jackson,,,,,,1,0,,
19593001,,Where The Road Leads,,B006JH4MHK,,,ES,,,,true,3,7227625,0,0,0,0,2004/1/1,,,0,0,0,0,0,0.00,,,,0,0,Sallie Smith Tribou,,,,,,,0,,
19593501,,Carnivore Diet,,B00EQ019TG,,,ES,,,eng,true,4,534365,102,156,55,10,2005/1/1,Carnivore Diet: A Novel,book,7,12,13,11,12,2.84,,,,0,0,Julia Slavin,,,,,,37,3,,"fantasy,fiction,novels,unfinished"
19594001,,Thinking Art,,B008BBRCTM,,,ES,,,,true,3,11253109,24,42,10,1,2007/9/30,,,5,2,3,0,0,4.20,,,,0,0,Antoon Braembussche,,,,,,11,0,3,
19594501,,"Learning Languages, Learning Life Skills: Autobiographical reflexive approach to teaching and learning a foreign language (Educational Linguistics)",,B002C759SC,,,ES,,,,true,1,19594501,0,0,0,0,2006/12/1,,,0,0,0,0,0,0.00,,,,0,0,Riitta Jaatinen,,,,,,,0,,
19595001,,Cases in Construction Management,,B000OT836A,,,ES,,,,true,9,4715611,2,0,0,0,1988/3/31,Cases in Construction Management,,0,0,0,0,0,0.00,,,,0,0,W.J. Slater,,,,,,2,0,,
19595501,,Unending Blues: Poems,,B009SS16TY,,,ES,,,,true,6,985607,159,347,92,10,1986/1/1,Unending Blues,book,19,40,27,5,1,3.77,,,,5,1,Charles Simic,,,,,,39,3,,"novels,poetry"
19596501,,The Yogi and the Devotee (Routledge Revivals): The Interplay Between the Upanishads and Catholic Theology,,B00B0YWKT4,,,ES,,,,true,8,13715603,1,0,0,0,2011/6/29,,book,0,0,0,0,0,0.00,,,,0,0,Ninian Smart,,,,,,1,0,,
19597001,,The Guy Most Likely To...,,B00AR4LZ80,,,ES,,,eng,true,9,13545640,365,720,191,33,2012/6/19,The Guy Most Likely To...,book,49,70,56,11,5,3.77,,,,1,0,"Janelle Denison,Julie Leto,Leslie Kelly",,,,,,137,6,1,"adult,anthologies,college,contemporary,fiction,harlequin,romance,short-stories"
19598001,,Principles of Test Theories,,B00ABL5P6C,,,ES,,,,true,3,2895006,5,3,1,0,1990/7/1,Principles of Test Theories,,0,0,1,0,0,3.00,,,,0,0,Hoi K. Suen,,,,,,2,0,,
19599501,,Pohoi and Comanche Spirit Power,,B00CSUXGZG,,,ES,,,,true,1,19599501,2,3,1,1,2013/3/22,,,0,0,1,0,0,3.00,,,,1,1,J. L. Chalfant,,,,,,,0,1,
19600501,0944459773,Weather - An Integrated Unit of Study Grades K-4 (ECS primary thematic unit series),9780944459775,,,,ES,,,,false,1,19600501,0,0,0,0,1993/1/1,,,0,0,0,0,0,0.00,,,,0,0,Kathy Rogers,,,,,,,0,,
19601001,,Protein Kinases as Drug Targets: 49 (Methods and Principles in Medicinal Chemistry),,B00936J9JA,,,ES,,,,true,8,19601001,0,0,0,0,2011/3/16,,,0,0,0,0,0,0.00,,,,0,0,Bert Klebl,,,"Gerhard Müller,Michael Hamacher",,,,0,,
19601501,,Getting to Zero: The Path to Nuclear Disarmament,,B006VEEPG4,,,ES,,,,true,4,13210929,6,5,2,0,2011/3/2,,,0,1,0,0,1,2.50,,,,0,0,"Catherine Kelleher,Judith Reppy",,,,,,4,0,,
19602001,,Why Lincoln Laughed,,B0073V8B5K,,,ES,,,,true,22,19211634,9,8,3,0,2015/9/27,,book,1,0,0,1,1,2.67,,,,0,0,Russell H. Conwell,,,,,,6,0,,
19602501,,A New Beginning for Humankind: A Recipe for Lasting Peace on Earth,,B009E9MZW4,,,ES,,,,true,1,19602501,1,0,0,0,2012/9/14,,,0,0,0,0,0,0.00,,,,0,0,R. B. Herath,,,,,,,0,,
19603001,,Freedom of Expression in Islam (Fundamental Rights and Liberties in Islam series),,,,,ES,,,,false,4,1028689,176,130,31,6,1996/7/1,Freedom of Expression in Islam (Fundamental Rights and Liberties in Islam series),book,11,15,5,0,0,4.19,,,,0,0,Mohammad Hashim Kamali,,,,,,119,2,9,"non-fiction,religion"
19606001,,A Trader's Money Management System: How to Ensure Profit and Avoid the Risk of Ruin (Wiley Trading),,B004H4XLK6,,,ES,,,,true,9,3411077,105,126,36,2,2008/1/1,A Trader's Money Management System: How to Ensure Profit and Avoid the Risk of Ruin (Wiley Trading),,7,12,10,6,1,3.50,,,,0,0,Bennett A. McDowell,,,,,,50,3,3,"business,novels"
19606501,,Saucer Country #3,,B00BIDERFW,,,ES,,,,true,1,19606501,9,13,4,1,,,,0,1,3,0,0,3.25,,,,4,1,Paul Cornell,Ryan Kelly,,,,,1,1,,comics
19607501,,"A Guide to Historic Staunton, Virginia (History & Guide)",,B00ESK2KYC,,,ES,,,,true,5,4716166,4,8,3,2,2008/9/1,"A Guide to Historic Staunton, Virginia",,0,0,2,1,0,2.67,,,,0,0,Edmund D. Potter,,,,,,1,0,,"history,non-fiction"
19608001,,You Are God,,B006TT4U98,,,ES,,,,true,2,284953,3,0,0,0,2000/1/1,You Are God,,0,0,0,0,0,0.00,,,,0,0,Mark Patterson,,,,,,2,0,,
19609501,,"The Science of Mental Health, Volume 9: Stress and the Brain",,B00G6TCLEM,,,ES,,,eng,true,5,20859234,0,0,0,0,2001/12/27,,book,0,0,0,0,0,0.00,,,,0,0,Steven E. Hyman,,,,,,,0,,
19610001,0297994085,No Ordinary Crown: Biography of King Paul of the Hellenes,9780297994084,,,,ES,,,,false,1,19610001,4,9,2,1,1972/2/24,,,1,1,0,0,0,4.50,,,,2,1,Stelio Hourmouzios,,,,,,2,0,,
19610501,,"Zeus and Hera: Archetypal image of father, husband, and wife (Archetypal images in Greek religion)",,,,,ES,,,,false,3,2294188,31,23,6,0,1975/1/1,"Zeus and Hera: Archetypal image of father, husband, and wife (Archetypal images in Greek religion)",book,3,0,2,1,0,3.83,,,,0,0,Karl Kerényi,,,,,,23,0,,"history,mythology,psychology"
19611001,,From Darkness Into Light,,B005ZTTQSS,,,ES,,,,true,4,17645595,0,0,0,0,2011/10/4,,,0,0,0,0,0,0.00,,,,0,0,Kc Love,,,,,,,0,,
19613001,,The Ghost of Jeff Davis: A Fat Bennie Mystery,,B00CZ1QT3O,,,ES,,,,true,2,2287840,1,5,1,0,2007/2/21,The Ghost of Jeff Davis: A Fat Bennie Mystery,,1,0,0,0,0,5.00,,,,0,0,Ben Rayner,,,,,,,0,,
19614001,,The Bible Knowledge Commentary: An Exposition of the Scriptures by Dallas Seminary Faculty [New Testament Edition],0612608078123,,,,ES,,,,false,1,19614001,49,86,18,0,1983/7/1,,,14,4,0,0,0,4.78,,,,18,0,John F. Walvoord,,,Roy B. Zuck,,,19,2,2,"academic,christian,fiction,non-fiction"
19616001,,The Challenges of Being a Rural Gay Man: Coping With Stigma (Routledge Advances in Sociology),,B00AYILGN8,,,ES,,,,true,8,13717327,1,0,0,0,2012/6/30,,,0,0,0,0,0,0.00,,,,0,0,"Anthony R. D'Augelli,Deborah Bray Preston",,,,,,1,0,,
19616501,8173718857,Pavement Design,9788173718854,,,,ES,,,,false,1,19616501,15,10,4,0,2013/11/21,,,1,0,1,0,2,2.50,,,,4,0,R. Srinivasa Kumar,,,,,,11,0,1,
19617001,,Fiduciary Management: Blueprint for Pension Fund Excellence (Wiley Finance),,B005J58TUY,,,ES,,,,true,5,2578303,3,0,0,0,2007/12/1,,,0,0,0,0,0,0.00,,,,0,0,A. van Nunen,,,,,,,0,,
19618001,,Fancie's Followers,,B0050V91PY,,,ES,,,,true,4,14379374,1,4,1,1,2011/5/1,,,0,1,0,0,0,4.00,,,,0,0,Jannet Ridener,,,,,,,0,,
19618501,,Heatseeker,,B009BK3CI2,,,ES,,,,true,4,16209063,3,13,3,2,2012/8/30,,,1,2,0,0,0,4.33,,,,0,0,James Classi,,,,,,,0,,
19619001,,Pathfinder Adventure Path #66: The Dead Heart of Xin,,,,,ES,,,eng,false,2,17315846,47,71,17,0,2013/1/31,Pathfinder Adventure Path #66: The Dead Heart of Xin,book,5,10,2,0,0,4.18,,,,0,0,"Adam Daigle,Bill Ward,Brandon Hodge,Dennis Baker,Rob McCreary",,,,,,14,3,,"fantasy,fiction,reference"
19623001,,"The Hate Game: Benn, Eubank and British Boxing's Bitterest Rivalry",,B00BSULN98,,,ES,,,,true,2,18925814,53,170,40,3,2013/10/17,,,16,18,6,0,0,4.25,,,,0,0,Ben Dirs,,,,,,8,1,1,non-fiction
19623501,,Xavier's Treasures: Xavier's Treasures,,B007Q4LHJQ,,,ES,,,,true,1,19623501,0,0,0,0,2012/2/28,,,0,0,0,0,0,0.00,,,,0,0,"Daniel Lee Haffner,Myron Gaul",,,,,,,0,,
19624001,,Defenders of the Universe: Book One of the Alyssandra Trilogy,,B00EZ7XOUW,,,ES,,,,true,1,19624001,3,13,3,0,2013/8/14,,,2,0,1,0,0,4.33,,,,3,0,Cate Chenus,,,,,,,0,,
19625001,,Master Techniques in Surgery: Hernia,,B008LXQ9VC,,,ES,,,,true,7,13587812,5,3,1,0,2012/7/12,,book,0,0,1,0,0,3.00,,,,1,0,Daniel B. Jones,,,,,,3,0,,
19628501,,Hurricane Generated Seas: 8 (Elsevier Ocean Engineering Series),,B00CWBZORO,,,ES,,,,true,1,19628501,0,0,0,0,2003/11/13,,,0,0,0,0,0,0.00,,,,0,0,Michel Ochi,,,,,,,0,,
19631001,,The Deep Distress of Losing a Child  : My 1st Son,,B005KK5IG6,,,ES,,,,true,1,19631001,1,0,0,0,2011/8/22,,,0,0,0,0,0,0.00,,,,0,0,Arnettia S. Barker,,,,,,1,0,,
19632501,,"The Indispensable University: Higher Education, Economic Development, and the Knowledge Economy (American Council on Education Series on Higher Education)",,B003TFECZW,,,ES,,,,true,5,8206039,12,19,5,0,2010/2/16,,,0,4,1,0,0,3.80,,,,1,0,"Eugene P. Trani,Robert D. Holsworth",,,,,,1,0,2,
19634501,,Past Future Power Belongs to the Reserved Power Clause,,B00G69NLK0,,,ES,,,eng,true,4,18794735,0,0,0,0,2013/10/10,,book,0,0,0,0,0,0.00,,,,0,0,Daniel H. Marchi,,,,,,,0,,
19636001,,The Stuff Yourself Diet,,B00B3K7HRU,,,ES,,,,true,2,19636001,1,1,1,0,2012/12/29,,,0,0,0,0,1,1.00,,,,1,0,Fredric Neuman,,,,,,,0,,
19636501,,School Improvement for Real (Educational Change and Development Series),,B000OT872U,,,ES,,,,true,7,14860134,0,0,0,0,2001/8/30,,,0,0,0,0,0,0.00,,,,0,0,David Hopkins (ii),,,,,,,0,,
19639001,,"Diagrammatic Representation and Inference: Second International Conference, Diagrams 2002 Callaway Gardens, GA, USA, April 18-20, 2002 Proceedings (Lecture ... / Lecture Notes in Artificial Intelligence)",,B000V1O6DU,,,ES,,,,true,1,19639001,0,0,0,0,2008/6/13,,,0,0,0,0,0,0.00,,,,0,0,Mary Hegarty,,,"Bernd Meyer,N. Hari Narayanan",,,,0,,
19639501,,History of Human Society,,B00B0XIC0G,,,ES,,,,true,3,9194231,5,4,2,1,2010/1/27,,,0,0,1,0,1,2.00,,,,0,0,Frank W. Blackmar,,,,,,1,0,1,
19640001,,Angry Black White Boy: A Novel,,B009IALS36,,,ES,,,,true,5,31441,1621,2185,615,78,2005/1/1,Angry Black White Boy: A Novel,book,126,205,193,65,26,3.55,,,,0,0,Adam Mansbach,,,,,,877,12,26,"adult-fiction,fiction,novels,realistic-fiction,young-adult"
19640501,,"From Sexual Energy to Love: A Journey of Passion, Desire, Oneness & Healing",,B006C24SOE,,,ES,,,,true,1,19640501,0,0,0,0,2006/7/28,,,0,0,0,0,0,0.00,,,,0,0,Dr. KayVonne Cason,,,,,,,0,,
19641001,,Confessions of an Airport Screener:Going to Work is Like Going to Hell,,B005PN1KJW,,,ES,,,,true,1,19641001,2,2,1,0,2010/3/31,,,0,0,0,1,0,2.00,,,,1,0,Carmen Jones,,,,,,2,0,,
19642001,,Useful Toil: Autobiographies of Working People from the 1820s to the 1920s (Modern British History),,B00FDR1B7Q,,,ES,,,,true,13,12191666,47,48,12,0,1974/12/31,,,4,4,4,0,0,4.00,,,,0,0,"John Burnett,John Burnett",,,,,,30,2,1,"anthologies,biography,classics,history,writing"
19643001,,The Laughing Genes:A Scientific Perspective on Ethics and Morality,,B005SGWOFK,,,ES,,,,true,1,19643001,0,0,0,0,2005/1/17,,,0,0,0,0,0,0.00,,,,0,0,Evan Louis Sheehan,,,,,,,0,,
19643501,,The Rise of the Technocrats: A Social History,,B00GBY3U2E,,,ES,,,,true,1,19643501,1,0,0,0,2013/10/28,,,0,0,0,0,0,0.00,,,,0,0,W.H.G. Armytage,,,,,,1,0,,
19644001,,ACSM's Resources for Clinical Exercise Physiology (Acsms Resources for the Clinical Exercise Physiology),,B009CFL35K,,,ES,,,,true,1,19644001,6,0,0,0,2012/9/17,,,0,0,0,0,0,0.00,,,,0,0,American College of Sports Medicine,,,,,,5,0,1,
19644501,,Philosophical Perspectives on Compulsory Education,,B00F8HS3RM,,,ES,,,,true,4,19161381,1,0,0,0,2013/9/12,,,0,0,0,0,0,0.00,,,,0,0,Marianna Papastephanou,,,,,,1,0,,
19646001,1471022935,The Passing of the Great Race,9781471022937,,,,ES,,,,false,73,8325112,440,245,71,5,1916/1/1,The Passing of the Great Race,book,20,15,19,11,6,3.45,,,,4,0,Madison Grant,,,,,,307,7,23,"anthropology,history,politics,research,sociology,war"
19647001,,The Destruction of America Is Coming Soon: Where Is America in the Bible?,,B005CP7TRK,,,ES,,,eng,true,3,12983473,1,0,0,0,2011/6/1,,book,0,0,0,0,0,0.00,,,,0,0,William R.  Gray,,,,,,,0,,
19649001,1609716825,Esthetician Exam Flashcard Study System: Esthetician Test Practice Questions and Review for the Esthetician Exam,9781609716820,,,,ES,2016/10/24,Mometrix Media LLC,,false,2,19649001,1,0,0,0,2011/11/16,,,0,0,0,0,0,0.00,51,,,0,0,,,,Esthetician Exam Secrets Test Prep Team,,,,0,1,
19650001,,Fabulous Feebles,,,,,ES,2013/10/27,Weinberg and Weinberg,eng,true,1,19650001,5,11,3,0,2013/10/27,,book,1,1,0,1,0,3.67,,ebook,,3,0,Gerald M. Weinberg,,,,,,2,0,,
19652501,1492319341,Clinically Dead: I've Seen Heaven and Hell,9781492319344,,,,ES,2012/7/1,Createspace,,false,1,19652501,11,16,4,0,2012/7/1,,,1,2,1,0,0,4.00,56,Paperback,,4,0,Jenny Sharkey,,,,,Ian McCormack,5,0,,"christian,non-fiction"
19655501,,The Capacity for Ethical Conduct: On psychic existence and the way we relate to others,,B00EVWI9LK,,,ES,,,,true,6,17809248,3,0,0,0,2013/2/1,,,0,0,0,0,0,0.00,,,,0,0,David P. Levine,,,,,,3,0,,
19658001,,Inkheart Trilogy Boxset,,,,,ES,,,eng,false,21,3334563,25788,70303,16824,488,1990/1/1,Inkheart,book,8058,5007,2763,700,296,4.18,,,,31,1,Cornelia Funke,,,,,,6570,23,700,"adult,adventure,childrens,fairy-tales,family,fantasy,fiction,high-fantasy,magic,middle-grade,novels,romance,teen,urban-fantasy,young-adult"
19659501,8186336478,Yajna A Comprehensive Survey,9788186336472,,,,ES,,,,false,1,19659501,4,0,0,0,2006/12/1,,,0,0,0,0,0,0.00,,,,0,0,Sannyasi Gyanshruti & Sannyasi Srividyananda,,,,,,2,0,,
19660501,0932081754,Healing Prayers,9780932081759,,,,ES,2002/12/31,Victory House Publishers,,false,1,19660501,5,13,3,0,2002/7/1,,,2,0,1,0,0,4.33,319,Hardcover,,3,0,C. Richards,,,,,,2,0,,
19661501,0739425633,Everything's Eventual: 14 Dark Tales,9780739425633,,,,ES,,,eng,false,110,10579,129994,306122,77398,2061,2002/3/19,Everything's Eventual: 14 Dark Tales,book,23981,30381,19221,3215,600,3.96,,,Large Print edition,6,0,Stephen King,,,,,,36178,78,2236,"adult,adult-fiction,american,anthologies,collections,contemporary,fantasy,fiction,horror,modern,mystery,novels,paranormal,science-fiction,short-stories,supernatural,suspense,thriller"
19662501,0920129463,The Kendo Grading Book and DVD,9780920129463,,,,ES,,,,false,1,19662501,2,9,2,0,2013/6/11,,,1,1,0,0,0,4.50,,,,2,0,Yoshiyama Mitsuku,,,,,,,0,,
19665001,,Campbell's Atlas of Oil and Gas Depletion,,B00BLQC7L2,,,ES,,,,true,4,14378641,0,0,0,0,2012/9/15,,,0,0,0,0,0,0.00,,,,0,0,Colin J. Campbell,,,,,,,0,,
19665501,,Our Family Mission,,B008N1J0WM,,,ES,,,,true,2,19665501,2,4,1,1,2012/7/16,,,0,1,0,0,0,4.00,,,,1,1,Christie Pettus,,,,,,1,0,,
19666501,,The Family Therapy Progress Notes Planner (PracticePlanners),,B003YJEZVO,,,ES,,,,true,10,1567864,19,25,6,0,2004/1/1,The Family Therapy Progress Notes Planner (Practice Planners),,4,0,1,1,0,4.17,,,,2,0,"Arthur E. Jongsma Jr.,David J. Berghuis",,,,,,6,0,3,mental-health
19667001,,When Seagulls Fly Inland,,B007OOVA9A,,,ES,,,,true,1,19667001,0,0,0,0,2009/11/13,,,0,0,0,0,0,0.00,,,,0,0,Ann Davis,,,,,,,0,,
19667501,,"World War II, Film, and History",,B00569JXUI,,,ES,,,,true,4,885400,18,13,4,0,1996/1/1,"World War II, Film, and History",book,1,0,2,1,0,3.25,,,,0,0,"David H. Culbert,John Whiteclay Chambers II",,,,,,7,0,,"film,history"
19669001,,You've Been Had!: How the Media and Environmentalists Turned America into a Nation of Hypochondriacs,,B000TVV4FA,,,ES,,,,true,3,669708,4,9,2,0,2002/1/1,You've Been Had!: How the Media and Environmentalists Turned America into a Nation of Hypochondriacs,,1,1,0,0,0,4.50,,,,0,0,Melvin A. Benarde,,,,,,1,0,,
19670001,,"Institutions, Incentives and Electoral Participation in Japan: Cross-Level and Cross-National Perspectives (Nissan Institute/Routledge Japanese Studies)",,B000OT8G08,,,ES,,,,true,5,7092642,2,0,0,0,2005/1/1,,,0,0,0,0,0,0.00,,,,0,0,Yusaku Horiuchi,,,,,,1,0,1,
19670501,,"Captive Voices: New and Selected Poems, 1960-2008 (Southern Messenger Poets)",,B003Z0CC8A,,,ES,,,,true,6,5975668,64,80,19,2,2009/4/30,"Captive Voices: New and Selected Poems, 1960-2008 (Southern Messenger Poets)",book,9,6,3,1,0,4.21,,,,0,0,Eleanor Ross Taylor,,,,,,36,1,3,poetry
19671501,,Atlas of Essential Dermatopathology,,B00APXD64E,,,ES,,,,true,4,15873030,2,4,1,0,2012/12/5,,,0,1,0,0,0,4.00,,,,0,0,"Andrea Primiani,Kasia S. Masterpol,Lyn M. Duncan",,,,,,1,0,,
19672001,,Central European Stream Ecosystems: The Long Term Study of the Breitenbach,,B00CJV2BM8,,,ES,,,,true,7,19642022,0,0,0,0,2011/9/15,,,0,0,0,0,0,0.00,,,,0,0,Rüdiger Wagner,,,"Eileen J. Cox,Jürgen Marxsen,Peter Zwick",,,,0,,
19672501,,A Java Library of Graph Algorithms and Optimization (Discrete Mathematics and Its Applications),,B009AIJ1JO,,,ES,,,,true,3,620803,6,3,1,0,2006/10/20,A Java Library of Graph Algorithms and Optimization (Discrete Mathematics and Its Applications),,0,0,1,0,0,3.00,,,,0,0,Hang Tong Lau,,,,,,2,0,,
19673001,,Finding Nino,,B003CQIB0U,,,ES,,,,true,2,4277085,52,116,32,2,2008/1/1,Finding Nino: A Seachange in Italy,,7,11,9,5,0,3.62,,,,0,0,Marc Llewellyn,,,,,,12,1,3,"autobiography,memoir,non-fiction,travel"
19674001,,"Digital Art and Meaning: Reading Kinetic Poetry, Text Machines, Mapping Art, and Interactive Installations (Electronic Mediations)",,B005D0TJ0Y,,,ES,,,,true,4,12071998,70,42,12,1,2011/1/1,,,2,5,2,3,0,3.50,,,,1,0,Roberto Simanowski,,,,,,48,1,4,criticism
19674501,,Fungal Infection: Diagnosis and Management,,B006VY6P3U,,,ES,,,,true,15,2501756,10,8,2,0,1993/11/1,Fungal Infection: Diagnosis and Management,book,1,0,1,0,0,4.00,,,,1,0,"David W. Warnock,Malcolm D. Richardson",,,,,,3,0,,
19675501,,"Gender, Livelihoods and Migration in Africa",,B006ZF3SLW,,,ES,,,,true,3,14406359,1,5,1,0,2012/1/12,,,1,0,0,0,0,5.00,,,,1,0,Justina Dugbazah,,,,,,,0,,
19676501,,Love and Butterflies: A Collection of Memories,,B006W4BFPW,,,ES,,,,true,2,10278265,1,0,0,0,2008/4/1,,,0,0,0,0,0,0.00,,,,0,0,Taylor Mclean,,,,,,,0,,
19677501,,Deadly Remembrance,,B00519KDB6,,,ES,,,,true,3,12447509,1,3,1,0,2011/4/30,,,0,0,1,0,0,3.00,,,,0,0,Terri Wright,,,,,,,0,,
19678001,,Five Women Of Adventure,,B003MAK8RU,,,ES,,,,true,4,8822578,0,0,0,0,2010/4/29,,,0,0,0,0,0,0.00,,,,0,0,Steve Edsall,,,,,,,0,,
19679001,,"Stages of Capital: Law, Culture, and Market Governance in Late Colonial India",,B003DSGMWG,,,ES,,,,true,4,6440320,33,29,9,0,2008/1/1,"Stages of Capital: Law, Culture, and Market Governance in Late Colonial India",,0,3,5,1,0,3.22,,,,0,0,Ritu Birla,,,,,,14,2,3,
19680001,,"Cicero's Brutus or History of Famous Orators; Also His Orator, or Accomplished Speaker",,B00B0XI8Y6,,,ES,,,,true,11,19078760,56,47,12,0,,,,5,1,6,0,0,3.92,,,,0,0,Marcus Tullius Cicero,,,,,,39,2,1,"history,non-fiction,philosophy"
19681001,5938933102,The Russian Icon,9785938933101,,,,ES,,,,false,1,19681001,2,3,1,0,2007/1/1,,,0,0,1,0,0,3.00,,,,1,0,"Irina Rodnikova,Irina Solovyova,Vera Laurina",,,,,,1,0,,
19683501,,The Authority of the Consumer,,B0023ZLHGG,,,ES,,,,true,6,7535184,2,9,2,0,1993/12/16,,,1,1,0,0,0,4.50,,,,0,0,Nicholas Abercrombie,,,"Nigel Whiteley,Russell Keat",,,,0,,
19684001,,"On Brokeback Mountain: Meditations about Masculinity, Fear, and Love in the Story and the Film",,B00EN6KZTS,,,ES,,,,true,5,2299764,30,51,13,1,2007/12/1,"On Brokeback Mountain: Meditations about Masculinity, Fear, and Love in the Story and the Film",,4,4,5,0,0,3.92,,,,0,0,Eric Patterson,,,,,,15,0,1,
19685001,,Nuclear Medicine Physics (Series in Medical Physics and Biomedical Engineering),,B008XMYG2U,,,ES,,,,true,1,19685001,0,0,0,0,2012/5/14,,,0,0,0,0,0,0.00,,,,0,0,"Joao Jose,de Lima",,,Joao Jose De Lima,,,,0,,
19686001,,Operation: Baby,,B0096XFQJ2,,,ES,,,eng,true,6,4567686,79,76,18,0,1997/1/1,"Operation: Baby (Wilde, #2) ",book,7,8,3,0,0,4.22,,,,0,0,Barbara Bretton,,,,,,37,0,,"harlequin,romance"
19687001,,Confirmatory Factor Analysis: A Preface to LISREL (Quantitative Applications in the Social Sciences),,B007HHCMK0,,,ES,,,,true,3,787144,12,24,7,1,1983/9/1,Confirmatory Factor Analysis: A Preface to LISREL (Quantitative Applications in the Social Sciences),,1,3,1,2,0,3.43,,,,0,0,J. Scott Long,,,,,,3,0,,sociology
19688501,,Kaplan 12 Practice Tests for the SAT,,,,,ES,,,,false,8,8561326,7,12,3,1,,,,1,1,1,0,0,4.00,,,,0,0,Kaplan Inc.,,,,,,2,0,,
19689001,,"The Bass Handbook of Leadership : Theory, Research, and Application",,B003YCQ0IM,,,ES,,,eng,true,5,19598329,98,76,19,1,2008/10/27,,,9,5,2,2,1,4.00,,,,0,0,"Bernard M. Bass,Ruth Bass",,,,,,47,1,14,"leadership,psychology"
19692001,,Integrating 12-Steps and Psychotherapy: Helping Clients Find Sobriety and Recovery,,B00EEG5V0A,,,ES,,,,true,6,19692001,3,8,2,0,2013/5/28,,,1,0,1,0,0,4.00,,,,1,0,"Kevin A. Osten,Robert J. Switzer",,,,,,,0,1,
19692501,,Black Beech and Honeydew (The Ngaio Marsh Collection),,B003N7MZMS,,,ES,,,,true,4,280984,271,349,94,15,1982/1/1,Black Beech and Honeydew,book,19,39,27,8,1,3.71,,,,5,1,Ngaio Marsh,,,,,,140,10,4,"autobiography,biography,biography-memoir,crime,fiction,literature,memoir,mystery,non-fiction,short-stories,theatre"
19693001,,Thermal and Power Management of Integrated Circuits (Integrated Circuits and Systems),,B000WN0NCA,,,ES,,,,true,3,14362318,5,0,0,0,2006/1/4,,,0,0,0,0,0,0.00,,,,0,0,"Arman Vassighi,Manoj Sachdev",,,,,,5,0,,
19694001,,Building Theories of Organization: The Constitutive Role of Communication (Routledge Communication Series),,B002132R9Q,,,ES,,,,true,8,9230164,9,19,4,0,2008/1/1,,,3,1,0,0,0,4.75,,,,2,0,Linda L. Putnam,,,Anne M. Nicotera,,,3,0,,academic
19695501,,The Soldiers' Tale: Bearing Witness to a Modern War,,B000OCXGE6,,,ES,,,,true,11,25663,373,371,97,13,1997/4/1,The Soldiers' Tale: Bearing Witness To Modern War,book,22,43,26,5,1,3.82,,,,2,0,Samuel Hynes,,,,,,217,5,11,"american-history,contemporary,fiction,historical,history,literature,memoir,non-fiction,politics,research,school,war"
19696501,,Emma,,B008VRM1S8,,,ES,,,eng,true,31,6969,941077,2241857,561408,14129,1815/12/23,Emma,book,206260,199809,113582,28818,12939,3.99,,,,1,0,Jane Austen,,,,,,296182,1638,22241,"adult,adult-fiction,british-literature,chick-lit,classic-literature,classics,drama,english-literature,fiction,historical,historical-fiction,humor,literary-fiction,literature,love,novels,regency,romance,school,unfinished"
19697501,,30 Days in a Life: 2.6 Million Moments,,B006QRMM2A,,,ES,,,,true,2,3079159,9,5,1,0,2007/9/14,30 Days in a Life: 2.6 Million Moments,,1,0,0,0,0,5.00,,,,0,0,Jannel Rap,,,,,,8,0,,
19698501,1492865281,A Little Princess,9781492865285,,,,ES,,,,false,1141,3008,396296,1052985,251048,6079,1890/1/1,A Little Princess,book,115632,83714,40279,7709,3714,4.19,,,,2,0,Frances Hodgson Burnett,,,,,,112304,660,8102,"british-literature,chapter-books,childrens,classic-literature,classics,drama,family,fantasy,fiction,historical,historical-fiction,juvenile,literature,middle-grade,novels,realistic-fiction,school,victorian,young-adult"
19699001,,Film Theory and Philosophy,,B003V8ARZQ,,,ES,,,eng,true,1,19699001,8,13,3,0,1998/4/9,,book,1,2,0,0,0,4.33,,,,3,0,Richard        Allen,,,Murray Smith,,,4,1,,philosophy
19700001,,Secrets Of The Grand Canyon: A Spiritual Journey,,B004HKIJ1G,,,ES,,,,true,1,19700001,0,0,0,0,2010/12/21,,,0,0,0,0,0,0.00,,,,0,0,Lanny Kuester,,,,,,,0,,
19700501,,The Louisiana Coast: Guide to an American Wetland,,B007Y4VFB8,,,ES,,,eng,true,4,5999845,13,37,9,2,2008/10/9,The Louisiana Coast: Guide to an American Wetland (Tam Nature Guides),book,4,2,3,0,0,4.11,,,,0,0,Gay M. Gomez,,,,,,4,0,,"nature,non-fiction"
19701001,,Cerebral Laterality: Theory and Research,,B00B1XF6TK,,,ES,,,,true,7,4921557,0,0,0,0,1991/3/1,Cerebral Laterality: Theory and Research,,0,0,0,0,0,0.00,,,,0,0,Frederick L. Kitterle,,,,,,,0,,
19701501,,Two Brothers: A Story of Beginnings,,B004089GDA,,,ES,,,,true,2,11143378,0,0,0,0,2010/8/18,,,0,0,0,0,0,0.00,,,,0,0,D.C. Born,,,,,,,0,,
19702001,,"Piezoelectric Materials: Advances in Science, Technology and Applications: Proceedings of the NATO Advanced Research Workshop (Nato Science Partnership Subseries: 3 (closed))",,B000W27EXM,,,ES,,,,true,1,19702001,0,0,0,0,2008/5/27,,,0,0,0,0,0,0.00,,,,0,0,Carmen Galassi,,,"Kenji Uchino,Maria Dinescu,Michael Sayer",,,,0,,
19702501,,The Caretaker,,B006LD748Q,,,ES,,,,true,3,14406840,1,0,0,0,2011/12/1,,,0,0,0,0,0,0.00,,,,0,0,Douglas Kincaid,,,,,,1,0,,
19703501,,"Management by Menu, 4th Edition",,B008R0RX4Q,,,ES,,,,true,17,9381594,28,48,14,1,1975/1/1,,book,3,5,3,1,2,3.43,,,,1,0,Lendal H. Kotschevar,,,,,,8,0,,
19704001,,Grief Therapy with Latinos: Integrating Culture for Clinicians,,B004VBPQOE,,,ES,,,,true,5,19704001,3,5,1,1,2011/1/20,,,1,0,0,0,0,5.00,,,,0,0,"Carmen Inoa Vázquez,Dinelia Rosa",,,,,,2,0,,
19705001,,The Book Of Caleb,,B00DK5LG1E,,,ES,,,,true,1,19705001,0,0,0,0,2013/6/11,,,0,0,0,0,0,0.00,,,,0,0,Chukwudi C. Udejinegwo,,,,,,,0,,
19705501,,The Local Politics of Global English: Case Studies in Linguistic Globalization,,B00EMLDHV2,,,ES,,,,true,5,9447323,5,3,1,0,2003/1/1,,,0,0,1,0,0,3.00,,,,0,0,Selma K. Sonntag,,,,,,3,1,,non-fiction
19706001,,Eating Animals,,B00FOR2OJO,,,ES,,,,true,83,6604712,51139,233749,55724,5700,2009/10/31,Eating Animals,book,24072,21265,8102,1738,547,4.19,,,,4,1,Jonathan Safran Foer,,,,,,60135,391,3841,"adult,american,animals,biography-memoir,contemporary,essays,fiction,food,health,memoir,nature,non-fiction,philosophy,politics,psychology,science,society,sociology,unfinished"
19706501,,Interpretation of Law in the Age of Enlightenment: From the Rule of the King to the Rule of Law (Law and Philosophy Library),,B008EHHNWE,,,ES,,,,true,1,19706501,1,0,0,0,2011/7/1,,,0,0,0,0,0,0.00,,,,0,0,Yasutomo Morigiwa,,,"Jean-Louis Halpérin,Michael Stolleis",,,1,0,,
19707001,,Walking with Grandma Mary Through the Years 2010 and 2011: Through the Years 2010 and 2011,,B007DCRHDG,,,ES,,,,true,3,14422786,0,0,0,0,2012/2/3,,,0,0,0,0,0,0.00,,,,0,0,Mary Hines,,,,,,,0,,
19707501,,Regular Algebra and Finite Machines (Dover Books on Mathematics),,B00DP7UKO6,,,ES,,,,true,6,2048645,30,8,2,1,2012/1/1,"Regular algebra and finite machines, (Chapman and Hall mathematics series)",book,0,2,0,0,0,4.00,,,,1,1,John H. Conway,,,,,,16,0,3,
19708001,,The Realist Tradition and Contemporary International Relations (Political Traditions in Foreign Policy Series),,B007FRB0QO,,,ES,,,,true,5,2191532,3,0,0,0,2007/6/1,The Realist Tradition and Contemporary International Relations (Political Traditions in Foreign Policy Series),,0,0,0,0,0,0.00,,,,0,0,W. David Clinton,,,,,,2,0,,
19709001,,A History of Egypt from the End of the Neolithic Period to the Death of Cleopatra VII B.C. 30 - Vol. IV: Egypt and Her Asiatic Empire: 4 (Routledge Revivals),,B00FDR0Y4M,,,ES,,,,true,8,589313,4,3,1,0,2012/12/18,A History of Egypt: From the End of the Neolithic Period to the Death of Cleopatra VII. B.C. 30. Volume 4. Egypt and Her Asiatic Empire,,0,0,1,0,0,3.00,,,,0,0,E.A. Wallis Budge,,,,,,3,0,,
19709501,,The Wonderful Wizard of Oz (Annotated),,B006RJPEGS,,,ES,,,eng,true,2133,236093,515007,1268813,318373,10578,1900/5/17,The Wonderful Wizard of Oz,book,115450,108653,73546,15589,5135,3.99,,,,0,0,L. Frank Baum,,,,,,144506,1380,11445,"adventure,american,chapter-books,childrens,classic-literature,classics,fairy-tales,fantasy,fiction,juvenile,literature,magic,middle-grade,movies,novels,school,witches,young-adult"
19710001,,"The Great Wall: China Against the World, 1000 BC - AD 2000",,B008V43MPM,,,ES,,,,true,24,339183,561,655,191,27,1981/2/28,"The Great Wall: China Against the World, 1000 BC - AD 2000",book,25,63,76,23,4,3.43,,,,3,1,Julia Lovell,,,,,,280,10,26,"history,medieval,non-fiction"
19712501,,Shop Floor Stories,,B006AHK69W,,,ES,,,,true,2,19712501,2,0,0,0,2008/2/8,,,0,0,0,0,0,0.00,,,,0,0,Phil Ward,,,,,,2,0,,
19713001,,The Giants of the Citadel : The Rise of Adam and Eve that Changed the World Forever,,B00CK603XG,,,ES,,,,true,3,17715527,1,4,1,0,2013/4/16,,,0,1,0,0,0,4.00,,,,0,0,Michael J. Rossi,,,,,,,0,,
19713501,,The Manila Galleon,,B005CP5SK0,,,ES,,,,true,2,12065878,2,3,1,0,2003/10/14,,,0,0,1,0,0,3.00,,,,0,0,Bernard W. Rees,,,,,,1,0,,
19714501,,Fishies and Froggies in the Drain,,B00DM1GCQU,,,ES,,,,true,3,19714501,0,0,0,0,2013/6/12,,,0,0,0,0,0,0.00,,,,0,0,April V. Costa,,,,,,,0,,
19715001,,Playing Hard at Life: A Relational Approach to Treating Multiply Traumatized Adolescents,,B00CXQ5Y6Y,,,ES,,,,true,6,17988632,2,0,0,0,2013/1/1,,,0,0,0,0,0,0.00,,,,0,0,Etty Cohen,,,,,,2,0,,
19715501,0552527769,Heroquest: The Screaming Spectre,9780552527767,,,,ES,,,,false,1,19715501,8,4,2,0,1992/12/3,,,0,0,0,2,0,2.00,,,,2,0,Dave Morris,Hasbro,,,,,5,0,,"fantasy,fiction"
19716001,,Law and Ethics in Advanced Practice Nursing,,B004LVP7UM,,,ES,,,,true,6,16950888,1,0,0,0,2010/5/28,,book,0,0,0,0,0,0.00,,,,0,0,"Diane Kjervik,Edith Ann Brous",,,,,,1,0,,
19718001,,Everything God Made Gives,,B00C2L7JRC,,,ES,,,,true,2,14512437,0,0,0,0,2010/3/29,,,0,0,0,0,0,0.00,,,,0,0,Willie Sells Lemon,,,,,,,0,,
19718501,,The Bravest Boy I Ever Knew,,B004HHOQ84,,,ES,,,,true,2,7881672,104,76,16,8,2010/3/23,,,12,4,0,0,0,4.75,,,,0,0,Lisa Eichlin,,,,,,75,1,,
19719501,,ACL Made Simple,,B000PY3NR8,,,ES,,,,true,5,1987002,1,0,0,0,2004/1/1,ACL Made Simple,,0,0,0,0,0,0.00,,,,0,0,Don Johnson,,,,,,1,0,,
19720001,,The Art of Words,,B007Q6R5TU,,,ES,,,,true,2,7612845,1,0,0,0,2002/1/1,,,0,0,0,0,0,0.00,,,,0,0,Tracey Mitchell,,,,,,1,0,,
19720501,,Stealing Some Time: Volume Two,,B006VA9HV6,,,ES,,,,true,3,119014,137,291,69,4,2003/4/17,Stealing Some Time: Book II,book,30,28,8,2,1,4.22,,,,0,0,Mark Kendrick,,,,,,47,5,1,"adult,fantasy,fiction,gay,lgbt,science-fiction,speculative-fiction,time-travel"
19721001,0983080607,Transformational Leadership: A Blueprint for Real Organizational Change,9780983080602,,,,ES,,,,false,3,9342876,65,130,33,4,2010/5/15,,book,8,17,6,2,0,3.94,,,,4,0,"Paul Robert Walker,Randy Dobbs",,,,,,21,0,7,leadership
19721501,,Desert Christians: An Introduction to the Literature of Early Monasticism,,B006L2XMK6,,,ES,,,,true,5,433869,148,186,42,8,2004/1/1,Desert Christians: An Introduction to the Literature of Early Monasticism,,23,15,3,1,0,4.43,,,,6,0,William Harmless,,,,,,79,2,9,"christianity,history,medieval,religion,school,theology"
19723001,,Rebranding Rule,,B00DV6OHPY,,,ES,,,,true,2,13593980,41,28,6,0,2013/1/8,,,5,0,1,0,0,4.67,,,,2,0,Kevin Sharpe,,,,,,31,4,1,"academic,history,non-fiction"
19723501,1458421503,Red Hot Chili Peppers - Drum Play-Along Volume 32 Book/CD,9781458421500,,,,ES,,,,false,1,19723501,1,1,1,0,2012/7/1,,,0,0,0,0,1,1.00,,,,1,0,Red Hot Chili Peppers,,,,,,,0,,
19725001,,Spell Sisters: Olivia the Otter Sister,,B008CFJZOW,,,ES,,,,true,4,15801627,30,49,10,2,2013/1/1,,,9,1,0,0,0,4.90,,,,1,0,Amber Castle,Mary Hall,,,,,13,1,,
19725501,,"Sarah (The Merry Widows, #3)",,B0095NY2UM,,,ES,,Mills & Boon,eng,true,8,431350,63,74,20,0,1999/1/1,Sarah (The Merry Widows #3),book,6,6,5,2,1,3.70,,,Mills &amp; Boon Special Release,0,0,Theresa Michaels,,,,,,30,1,3,"harlequin,historical,romance"
19726001,,Component-Based Software Development for Embedded Systems: An Overview of Current Research Trends (Lecture Notes in Computer Science / Programming and Software Engineering),,B000V2L03I,,,ES,,,,true,2,2875653,0,0,0,0,2005/12/1,Component-Based Software Development for Embedded Systems: An Overview of Current Research Trends (Lecture Notes in Computer Science),,0,0,0,0,0,0.00,,,,0,0,"Christian Bunse,Christian Peper,Colin Atkinson,Hans-Gerhard Gross",,,,,,,0,,
19726501,,Excess Baggage,,B006W4TKAY,,,ES,,,,true,1,19726501,0,0,0,0,2008/3/7,,,0,0,0,0,0,0.00,,,,0,0,Tracy Carnes,,,,,,,0,,
19727001,,Delayed Preconditioning and Adaptive Cardioprotection (Developments in Cardiovascular Medicine),,B000PY3S46,,,ES,,,,true,2,17604732,0,0,0,0,1998/10/31,,,0,0,0,0,0,0.00,,,,0,0,"Derek M. Yellon,G.F. Baxter",,,,,,,0,,
19727501,,Changing Tides,,B006HYLVQ0,,,ES,,,,true,3,7954920,2,0,0,0,2008/12/1,,,0,0,0,0,0,0.00,,,,0,0,Justine Cerrigone-Szot,,,,,,2,0,,
19728001,8120345681,Process Simulation and Control Using Aspen,9788120345683,,,,ES,,,,false,1,19728001,14,5,1,0,2011/7/15,,,1,0,0,0,0,5.00,,,,1,0,Amiya K. Jana,,,,,,9,0,,
19729001,,Fairest #13,,B00BMWK3EI,,,ES,,,,true,3,18158511,49,50,13,0,2013/1/1,,book,3,5,5,0,0,3.85,,,,5,0,Lauren Beukes,Iñaki Miranda,,,,,33,3,,"fantasy,fiction,graphic-novels"
19730001,,End Zones and Border Wars: The Era of American Expansion in the CFL,,,,,ES,,,,false,1,19730001,49,113,29,3,2013/10/29,,,9,9,10,1,0,3.90,,,,29,3,Ed Willes,,,,,,17,1,,sports
19731001,0762580534,"Prince George's County, MD Street Atlas",9780762580538,,,,ES,,,,false,1,19731001,0,0,0,0,2012/7/30,,,0,0,0,0,0,0.00,,,,0,0,Kappa Map Group,,,,,,,0,,
19732001,,The Thunder: Perfect Mind: A New Translation and Introduction,,B009AYK4Z8,,,ES,,,,true,6,7943389,62,60,13,0,2010/11/15,,,10,2,0,1,0,4.62,,,,0,0,"Celene Lillie,Hal Taussig,Jared Calaway,Justin Lasser,Maia Kotrosits",,,,,,42,0,1,"poetry,theology"
19732501,,The Landmark Herodotus: The Histories,,B009BYAQPU,,,ES,,,eng,true,504,1362,99753,145315,36526,1025,-450/1/1,Ἰστορίαι,book,13976,11933,7558,1970,1089,3.98,,,,4,0,Herodotus,,,Robert B. Strassler,Andrea L. Purvis,,58500,129,2109,"adult,anthropology,classic-literature,classics,college,fiction,historical,historical-fiction,history,literature,mythology,non-fiction,philosophy,politics,reference,school,travel,unfinished,war"
19733001,,Machine Dreams,,,,,ES,,,,false,19,420187,1230,2157,578,54,1984/1/1,Machine Dreams,book,142,210,168,45,13,3.73,,,,3,0,Jayne Anne Phillips,,,,,,489,14,18,"adult,american,classics,family,fiction,historical,historical-fiction,literary-fiction,modern-classics,novels,short-stories,thriller,war"
19733501,,The Al Factor:The True Story of a 20th Century Businessman; All-American and Unsung Hero,,B007JFYGL8,,,ES,,,,true,1,19733501,0,0,0,0,2010/12/27,,,0,0,0,0,0,0.00,,,,0,0,Thomas  Rogers,,,,,,,0,,
19736001,,Doing Gender  Doing Difference,,B00CUFJVSA,,,ES,,,,true,7,862668,27,21,6,0,2002/5/31,"Doing Gender, Doing Difference: Inequality, Power, and Institutional Change",,1,2,2,1,0,3.50,,,,0,0,Sarah Fenstermaker,,,Candace West,,,16,0,1,"feminism,non-fiction,sociology"
19736501,,Don't Call It Love: Recovery From Sexual Addiction,,B00F8FA2FU,,,ES,,,,true,6,560615,490,731,178,11,1991/1/1,Don't Call It Love: Recovery From Sexual Addiction,,82,54,27,9,6,4.11,,,,17,0,Patrick J. Carnes,,,,,,231,3,34,"non-fiction,psychology,reference,relationships,school,self-help"
19737501,,By His Grace : Delivered from Jezebel,,B00BXE1RGS,,,ES,,,,true,4,19737501,0,0,0,0,2013/3/13,,,0,0,0,0,0,0.00,,,,0,0,Sandy Rivers,,,,,,,0,,
19738001,,Trading the Measured Move: A Path to Trading Success in a World of Algos and High Frequency Trading (Wiley Trading),,B00F2JFSIS,,,ES,,,,true,2,19738001,14,9,3,0,2013/1/1,,,1,0,1,0,1,3.00,,,,3,0,David Halsey,,,,,,7,0,3,
19739001,,The New American Exceptionalism (Critical American Studies),,B0054IQDVS,,,ES,,,,true,5,7245348,69,119,32,5,2009/1/1,,,6,18,2,5,1,3.72,,,,2,0,Donald E. Pease,,,,,,30,4,1,"american-history,history,non-fiction,war"
19739501,,Molecular Materials (Inorganic Materials Series),,B005CPJTS2,,,ES,,,,true,2,19739501,0,0,0,0,2011/7/5,,,0,0,0,0,0,0.00,,,,0,0,Duncan W. Bruce,,,"Dermot O'Hare,Richard I. Walton",,,,0,,
19740001,,Jockular Behavior: The Endless Antics Of Rich & Shameless Athletes,,B00869S31U,,,ES,,,,true,3,19740001,0,0,0,0,2012/5/22,,,0,0,0,0,0,0.00,,,,0,0,Edelstein Productions,,,,,,,0,,
19741501,,Health Promotion Programs: From Theory to Practice,,B003DL3O1A,,,ES,,,,true,7,8761361,58,61,17,2,2010/1/1,,,5,4,5,2,1,3.59,,,,0,0,Society for Public Health Education,,,"Carl I. Fertman,Diane D. Allensworth",,,30,1,1,medical
19744501,,Second Honeymoon,,B00684ZGBA,,,ES,,,,true,8,65888,56,47,12,1,2005/1/1,Second Honeymoon,book,4,4,3,1,0,3.92,,,,1,0,Laura Abbot,,,,,,35,0,,"contemporary,romance"
19745501,,"Preventing School Injuries: A Comprehensive Guide for School Administrators, Teachers, and Staff",,B000W9C6D8,,,ES,,,,true,2,5483003,0,0,0,0,2000/1/1,"Preventing School Injuries: A Comprehensive Guide Fo School Administrators, Teachers, and Staff",,0,0,0,0,0,0.00,,,,0,0,Marc Posner,,,,,,,0,,
19747001,,Cedar County,,B0071INTF2,,,ES,,,,true,2,3001533,5,12,4,1,2003/1/7,Cedar County: A Memoir of Iowa,,0,0,4,0,0,3.00,,,,0,0,Steve Sanger,,,,,,2,0,,non-fiction
19747501,,Wittgenstein: Meaning and Judgement,,B000V1TWLG,,,ES,,,,true,7,3223099,10,12,3,0,2003/1/1,Wittgenstein: Meaning and Judgement,,0,3,0,0,0,4.00,,,,0,0,Michael Luntley,,,,,,6,0,,
19748001,,Into The Night,,B005XZAX8G,,,ES,,,,true,1,19748001,0,0,0,0,2008/12/23,,,0,0,0,0,0,0.00,,,,0,0,Big Adam,,,,,,,0,,
19748501,,Covenantal Legacy: Old Principles on New Basis,,B0079GIDUC,,,ES,,,,true,2,7743858,0,0,0,0,2006/1/1,,,0,0,0,0,0,0.00,,,,0,0,Elza Gobira,,,,,,,0,,
19751001,,Shades,,B005EGWD1Y,,,ES,,,,true,3,1236887,1,5,1,0,2000/5/5,Shades,,1,0,0,0,0,5.00,,,,0,0,Samuel E. Stone,,,,,,,0,,
19752501,,The Green Challenge: The Development of Green Parties in Europe,,B001V9P0KY,,,ES,,,,true,1,19752501,0,0,0,0,1994/10/27,,,0,0,0,0,0,0.00,,,,0,0,Dick Richardson,,,Chris Rootes,,,,0,,
19753001,,Pyramids of the Mind,,B007Y3L68G,,,ES,,,,true,4,5592716,2,5,1,0,2004/2/1,Pyramids of the Mind,,1,0,0,0,0,5.00,,,,0,0,Malcolm S. Southwood,,,,,,,0,,
19753501,,Pink Cigarettes / Babies in Rhinestones (Storycuts),,B0068RAAOK,,,ES,,,,true,2,17431456,0,0,0,0,2011/11/17,,,0,0,0,0,0,0.00,,,,0,0,Shena Mackay,,,,,,,0,,
19754501,,"Mercury, Mining, and Empire: The Human and Ecological Cost of Colonial Silver Mining in the Andes",,B008561F0K,,,ES,,,,true,4,11727767,43,57,14,1,2011/7/1,,,7,3,3,0,1,4.07,,,,0,0,Nicholas A. Robins,,,,,,20,0,4,"anthropology,grad-school,historical,history"
19755501,,"Just So You Know, It's All Good:A Collection of Science Fiction & Other Short Stories",,B005X3G9BI,,,ES,,,,true,1,19755501,1,0,0,0,2009/4/9,,,0,0,0,0,0,0.00,,,,0,0,Christopher Parisi,,,,,,1,0,,
19756001,,Michelle Bridges' Calorie Counter,,B00AQ7FFD4,,,ES,,,,true,4,17414508,9,18,5,0,2013/1/2,,book,1,1,3,0,0,3.60,,,,1,0,Michelle Bridges,,,,,,2,0,,
19756501,,Joseph Smith as Scientist: A Contribution to Mormon Philosophy,,B00AHDH5MG,,,ES,,,,true,23,2465194,222,358,91,10,2003/1/1,Joseph Smith as Scientist,book,32,33,17,6,3,3.93,,,,1,0,John A. Widtsoe,,,,,,105,2,11,"college,faith,non-fiction,philosophy,religion,science,theology"
19757001,0590292560,We Are All Alike...We Are All Different,9780590292566,,,,ES,,,,false,6,4318745,237,211,56,21,1991/1/1,We Are All Alike... We Are All Different,book,18,15,16,6,1,3.77,,,,1,0,Cheltenham Elementary School Kindergartners,,,,,,75,6,1,"adult,childrens,family,non-fiction,picture-books,realistic-fiction,school,teaching"
19757501,,Precious Points: A Book of Inspirational Thoughts and Poetry,,B007CEX34M,,,ES,,,,true,2,14316318,1,0,0,0,2006/1/1,,,0,0,0,0,0,0.00,,,,0,0,the Phoenix,,,,,,1,0,,
19759001,,Clinky The Clown and The Secret of Happyville,,B0079TC5OO,,,ES,,,,true,1,19759001,0,0,0,0,2004/5/24,,,0,0,0,0,0,0.00,,,,0,0,Eric Hogue,,,,,,,0,,
19759501,,"Racial Crossings: Race, Intermarriage, and the Victorian British Empire (Oxford Historical Monographs)",,B00AXSVNN2,,,ES,,,eng,true,5,19759501,18,0,0,1,2011/5/19,,book,0,0,0,0,0,0.00,,,,0,1,Damon Ieremia Salesa,,,,,,14,0,1,"historical,history"
19760001,,10th Anniversary (Women's Murder Club #10),,B00FOQSAQ6,,,ES,,,eng,true,54,9436746,66471,151495,37171,1812,2011/5/2,10th Anniversary,book,13711,14354,7590,1238,278,4.08,,,,1,0,"James Patterson,Maxine Paetro",,,,,,13582,211,957,"adult,adult-fiction,contemporary,crime,detective,fiction,murder-mystery,mystery,mystery-thriller,novels,romance,suspense,thriller"
19760501,,National Geographic Kids Infopedia,,,,,ES,,,eng,false,2,13081937,21,24,6,0,2010/11/1,,book,3,1,1,1,0,4.00,,,,2,0,National Geographic Kids,,,,,,15,0,,animals
19761001,,Creating the Discipline of Knowledge Management,,B008BTVQ4G,,,ES,,,,true,8,2063708,10,7,2,0,2005/2/14,Creating the Discipline of Knowledge Management: The Latest in University Research,,0,1,1,0,0,3.50,,,,0,0,Michael Stankosky,,,,,,2,0,,reference
19762001,,Fostering Accountability: Using Evidence to Guide and Improve Child Welfare Policy,,B005OKZC9U,,,ES,,,,true,2,8421534,5,5,1,0,2010/1/8,,,1,0,0,0,0,5.00,,,,0,0,"John Poertner,Mark F. Testa",,,,,,2,1,1,
19762501,,Countdown to Lockdown: A Hardcore Journal,,B00FOT8MX4,,,ES,,,,true,11,8190803,1493,3020,876,57,2010/10/1,Countdown to Lockdown: A Hardcore Journal,book,135,263,353,109,16,3.45,,,,0,0,Mick Foley,,,,,,48,16,27,"adventure,autobiography,biography,humor,memoir,non-fiction,sports"
19764501,,Mexico-U.S. Migration Management: A Binational Approach (Program in Migration and Refugee Studies),,B0030IM33Q,,,ES,,,,true,6,12752277,3,4,1,0,2008/9/1,,,0,1,0,0,0,4.00,,,,0,0,Agustín Escobar Latapí,,"Briant Lindsay Lowell,Carla Perderzini,Francisco Fernández de Alba,Gustavo Verduzco Igartúa,Jeffrey S. Passel,Liliana Meza González,Philip Martin,Rafael Fernández de Castro,Roberta Clariond",Susan F. Martin,,,1,0,,
19765001,,My Old Confederate Home: A Respectable Place for Civil War Veterans,,B0078XFTBW,,,ES,,,,true,6,8258532,15,22,5,0,2010/1/1,My Old Confederate Home: A Respectable Place for Civil War Veterans,book,2,3,0,0,0,4.40,,,,0,0,Rusty Williams,,,,,,6,0,,
19765501,,"WWIII: The Night, The Angels Cry",,B007R8GAPM,,,ES,,,,true,2,19765501,0,0,0,0,2000/12/1,,,0,0,0,0,0,0.00,,,,0,0,GrinOlsson,,,,,,,0,,
19766001,,Werner & Ingbar's The Thyroid,,B008LXQ61K,,,ES,,,,true,7,6268833,13,26,6,2,2000/5/1,Werner and Ingbar's The Thyroid: A Fundamental and Clinical Text,,2,4,0,0,0,4.33,,,,0,0,"David Cooper,Lewis E. Braverman",,,,,,3,0,,"health,science"
19766501,,Cold Scheme,,B003C1HV5Q,,,ES,,,,true,3,17714335,476,19,4,1,,,not a book,3,1,0,0,0,4.75,,,,0,0,Edita A. Petrick,,,,,,466,2,,crime
19767501,,"Practical Aspects of Computational Chemistry: Methods, Concepts and Applications",,B008CNOGL6,,,ES,,,,true,4,7250542,0,0,0,0,2009/1/1,,,0,0,0,0,0,0.00,,,,0,0,Jerzy Leszczynski,,,Manoj Shukla,,,,0,,
19768001,,Liverpool Annie,,B00H6SM3YU,,,ES,,,,true,7,1523933,666,1471,341,16,1998/11/1,Liverpool Annie,book,179,104,48,6,4,4.31,,,,11,0,Maureen Lee,,,,,,72,5,13,"fiction,historical-fiction,history,literary-fiction,romance"
19770501,,Between Threats and War: U.S. Discrete Military Operations in the Post-Cold War World (Stanford Security),,B0069YNXI2,,,ES,,,,true,5,8609862,44,53,15,1,2010/8/3,,,4,3,6,1,1,3.53,,,,0,0,Micah Zenko,,,,,,12,-1,,
19771501,1478249390,Letters From A Young Catholic,9781478249399,,,,ES,,,,false,2,19771501,9,5,1,0,2013/9/4,,,1,0,0,0,0,5.00,,,,1,0,Mary Pearson,,,,,,8,0,,
19772001,9381431108,The Golden Louise L. Hay Collection,9789381431108,,,,ES,,,eng,false,4,14486195,198,257,56,3,2011/1/1,,book,41,8,6,1,0,4.59,,,,0,0,Louise L. Hay,,,,,,102,4,23,"non-fiction,self-help"
19774501,,Poetic Confessions:Confessions of a Poet,,B005OYCZC8,,,ES,,,,true,1,19774501,0,0,0,0,2005/3/25,,,0,0,0,0,0,0.00,,,,0,0,Arilita Moore Joyner,,,,,,,0,,
19775001,,"The Future of Employment Relations: New Paradigms, New Developments",,B00GAZYFS2,,,ES,,,,true,3,19775001,0,0,0,0,2011/1/1,,,0,0,0,0,0,0.00,,,,0,0,Adrian Wilkinson,,,Keith Townsend,,,,0,,
19775501,,"185 Wireless Secrets: Unleash the Power of PDAs, Cell Phones and Wireless Networks",,B0050XULSS,,,ES,,,,true,3,98614,10,10,2,1,2004/1/1,"185 Wireless Secrets: Unleash the Power of PDAs, Cell Phones and Wireless Networks",,2,0,0,0,0,5.00,,,,0,0,Jack McCullough,,,,,,3,0,1,
19776501,,Lyapunov Functionals and Stability of Stochastic Difference Equations,,B008CLU018,,,ES,,,,true,4,18197905,1,0,0,0,2011/6/2,,,0,0,0,0,0,0.00,,,,0,0,Leonid Shaikhet,,,,,,1,0,,
19777001,,"Separation of Power (Mitch Rapp, #5)",,B00ANT2YXE,,,ES,,,eng,true,55,937249,52077,161683,37388,864,2001/10/1,Separation of Power,book,18045,14213,4487,502,141,4.32,,,,1,0,Vince Flynn,,,,,,6172,35,1743,"action,adult,adult-fiction,adventure,american,crime,fiction,mystery,mystery-thriller,novels,politics,suspense,thriller,war"
19777501,1494206986,Persuasion,9781494206987,,,,ES,2013/11/18,Createspace Independent Publishing Platform,,false,2553,2156,702994,1918606,464119,15353,1817/12/1,Persuasion,book,204714,152198,80420,18197,8590,4.13,204,Paperback,,2,0,Jane Austen,,,,,,268614,1882,12395,"adult,adult-fiction,british-literature,chick-lit,classic-literature,classics,drama,english-literature,fiction,historical,historical-fiction,literary-fiction,literature,love,novels,regency,romance,school"
19778001,,Unifying Electrical Engineering and Electronics Engineering: Proceedings of the 2012 International Conference on Electrical and Electronics Engineering (Lecture Notes in Electrical Engineering),,B00ERM0QAG,,,ES,,,,true,3,16220272,1,0,0,0,2013/2/28,,,0,0,0,0,0,0.00,,,,0,0,Song Xing,,,"Jingming Xia,Suting Chen,Zhanming Wei",,,,0,1,
19779001,,10 Steps to Success: A Commonsense Guide to Building a Successful Insurance Business,,B006OIASX6,,,ES,,,,true,1,19779001,2,5,1,0,2006/1/18,,,1,0,0,0,0,5.00,,,,1,0,Daniel Fowler,,,,,,1,0,,
19779501,,Pass the Peas!,,B00ARUGEN0,,,ES,,,,true,1,19779501,0,0,0,0,2011/8/11,,,0,0,0,0,0,0.00,,,,0,0,Marla J.T. Magic,,,,,,,0,,
19780001,,American Cinema of the 1960s: Themes and Variations (Screen Decades: American Culture/American Cinema),,B00GG0T6GM,,,ES,,,eng,true,3,896564,42,70,20,1,2008/2/11,American Cinema of the 1960s: Themes and Variations (Screen Decades),book,4,6,7,2,1,3.50,,,,1,0,,,"Anna Everett,Christie Milliken,Christopher Sharrett,David Desser,Eric Schaefer,Harry M. Benshoff,James Morrison,Joe Mcelhaney,Leslie H. Abramson,Murray Pomerance",Barry Keith Grant,,,15,0,,"college,film"
19782001,,Hayden Just Loves to Learn,,B00FRQ4YZO,,,ES,,,,true,2,18772111,0,0,0,0,2013/10/8,,,0,0,0,0,0,0.00,,,,0,0,Camille Farley,,,,,,,0,,
19782501,,The Global Conspiracy,,B00DV6PFM8,,,ES,,,,true,2,8452941,1,0,0,0,2008/7/14,,,0,0,0,0,0,0.00,,,,0,0,Marsha Spiegel,,,,,,1,0,,
19783501,,The Church History of Rufinus of Aquileia: Books 10 and 11: Bks.10 & 11,,B000WNKS16,,,ES,,,,true,1,19783501,10,14,3,1,1997/9/25,,,2,1,0,0,0,4.67,,,,3,1,Rufinus of Aquilea,,,,Philip R. Amidon,,7,0,,
19784001,,"Women Athletes And Entrepreneurs: An Exploratory, Comparative Study Between Women Barrel Racers And Women Who Own Their Own Businesses.",,B00DFU5D72,,,ES,,,,true,2,19784001,0,0,0,0,2009/2/1,,,0,0,0,0,0,0.00,,,,0,0,Melissa L. Greer,,,,,,,0,,
19785001,,Berkeley's Idealism:A Critical Examination,,B005NJUASU,,,ES,,,,true,1,19785001,0,0,0,0,2011/5/18,,,0,0,0,0,0,0.00,,,,0,0,Georges Dicker,,,,,,,0,,
19785501,,The Birth of Industrial Accounting in France and Britain (Routledge New Works in Accounting History),,B00GXBBPEU,,,ES,,,,true,7,2524230,1,0,0,0,1997/10/1,The Birth of Industrial Accounting in France and Britain (Routledge New Works in Accounting History),,0,0,0,0,0,0.00,,,,0,0,"John R. Edwards,Marc Nikitin,Trevor Boyns",,,,,,1,0,,
19786001,,Encyclopedia of Ethics,,B00G24VNC2,,,ES,,,,true,9,2018487,6,1,1,0,1992/3/1,Encyclopedia of Ethics,,0,0,0,0,1,1.00,,,,0,0,Lawrence C. Becker,,,Charlotte B. Becker,,,1,0,,reference
19790001,,Sustainability: All That Matters,,B00GVFLKGQ,,,ES,,,,true,4,16191009,101,183,48,7,2012/10/26,,,8,24,15,1,0,3.81,,,,0,0,Chris Goodall,,,,,,37,1,3,"business,politics,reference,sociology"
19790501,,The Case of the Missing Coffee Pot: From the Case Files of Attorney Daniel Marcos,,B00H4FTXY8,,,ES,,,,true,3,18985999,0,0,0,0,2013/11/22,,,0,0,0,0,0,0.00,,,,0,0,Jeffery Sealing,,,,,,,0,,
19791501,0394840380,Rupert and Polly,9780394840383,,,,ES,,,,false,2,4325149,8,14,3,1,1978/1/1,Rupert and Polly,,2,1,0,0,0,4.67,,,,0,0,Jody Silver,,,,,,,2,,
19792001,,Green Lantern Corps (2011- ) #22,,B00DQC8YJS,,,ES,,,,true,2,19792001,14,27,7,0,,,,3,1,2,1,0,3.86,,,,7,0,"Robert Venditti,Van Jensen",,,,,,5,0,,"comics,graphic-novels"
19792501,,Old Mikamba Had a Farm,,B00BF08B5A,,,ES,,,,true,3,17347639,616,1356,350,107,2013/10/31,,,86,148,102,14,0,3.87,,,,0,0,Rachel Isadora,,,,,,138,11,,"animals,childrens,cultural,fiction,juvenile,music,picture-books,retellings"
19793501,,Psychiatric Rights (Rites?):A Treatise on Involuntary Mental Hospitalization and Thomas Szasz,,B006YM543Q,,,ES,,,,true,2,1113113,4,4,1,0,2004/2/1,Psychiatric Rights (Rites?): A Treatise on Involuntary Mental Hospitalization and Thomas Szasz,,0,1,0,0,0,4.00,,,,0,0,Mark Vellucci,,,,,,3,0,,
19794001,,After the Dance is Over,,B00GVFNSEI,,,ES,,,,true,6,2358345,306,1027,225,4,2001/4/5,After the Dance Is Over,book,154,50,16,4,1,4.56,,,,5,0,Joan Jonker,,,,,,43,0,7,"adult,fiction,historical,historical-fiction,romance"
19794501,,NATO and Terrorism: Organizational Expansion and Mission Transformation,,B004ZIRCUE,,,ES,,,,true,6,14619069,2,0,0,0,2011/3/17,,,0,0,0,0,0,0.00,,,,0,0,James W. Peterson,,,,,,1,0,1,
19795001,,The Fallen: A True Story of American POWs and Japanese Wartime Atrocities,,B00134B2EK,,,ES,,,,true,4,1391052,33,38,12,0,2004/6/21,The Fallen: A True Story of American POWs and Japanese Wartime Atrocities,,2,1,7,1,1,3.17,,,,0,0,Marc Landas,,,,,,19,0,1,"history,non-fiction"
19795501,,Remaking the Nation: Identity and Politics in Latin America,,B000OI13JK,,,ES,,,,true,1,19795501,0,0,0,0,2013/1/11,,,0,0,0,0,0,0.00,,,,0,0,Sallie Westwood,,,,,,,0,,
19797001,,C.L.R. James and the Study of Culture,,B009AURGP8,,,ES,,,,true,6,23032357,0,0,0,0,2010/1/1,,,0,0,0,0,0,0.00,,,,0,0,Andrew       Smith,,,,,,,0,,
19797501,,Poisoned By Pollution: An Unexpected Spiritual Journey,,B006CVWQY4,,,ES,,,,true,2,19453223,0,0,0,0,2009/4/15,,,0,0,0,0,0,0.00,,,,0,0,Anne Lipscomb,,,,,,,0,,
19798001,,Game Theory and Fisheries: Essays on the Tragedy of Free for All Fishing (Routledge Explorations in Environmental Economics),,B00EQ2G71E,,,ES,,,,true,6,18549783,0,0,0,0,2013/1/1,,,0,0,0,0,0,0.00,,,,0,0,Ussif Rashid Sumaila,,,,,,,0,,
19798501,,The Seat of the Soul,,,,,ES,,,,false,52,119760,58819,144579,36173,661,1989/3/1,,book,14641,10843,7537,2239,913,4.00,,,,76,11,Gary Zukav,,,,,,19118,24,2130,"business,faith,fiction,health,inspirational,non-fiction,personal-development,philosophy,psychology,reference,religion,science,self-help,spirituality,unfinished"
19799001,,"Reelpolitik II: Political Ideologies in '50s and '60s Films: Pt.2 (Communication, Media, and Politics)",,B00GJSIDIS,,,ES,,,,true,1,19799001,2,0,0,0,2004/2/16,,,0,0,0,0,0,0.00,,,,0,0,Beverly Merrill Kelley,,,,,,,0,1,
19802001,,The didactic functions of storytelling in the primary school classroom,,B007OVDCR6,,,ES,,,,true,1,19802001,0,0,0,0,2006/7/11,,,0,0,0,0,0,0.00,,,,0,0,Heidi Henniger,,,,,,,0,,
19803501,,Ready and Waiting,,B004Z1DM8C,,,ES,,,,true,1,19803501,0,0,0,0,2011/4/19,,,0,0,0,0,0,0.00,,,,0,0,Donna Geertson,,,,,,,0,,
19804501,,Inside the Workplace: Findings from the 2004 Workplace Employment Relations Survey,,B00CDUUA9Q,,,ES,,,,true,6,3141358,3,0,0,0,2006/8/18,,,0,0,0,0,0,0.00,,,,0,0,"Alex Bryson,Barbara Kersley,Carmen Alpin,Gill Dix,Helen Bewley,John Forth,Sarah Oxenbridge",,,,,,2,0,,
19805001,,The Structure and Regulation of Financial Markets,,B002IYEQRY,,,ES,,,,true,4,16809841,0,0,0,0,2000/1/1,,,0,0,0,0,0,0.00,,,,0,0,Peter D. Spencer,,,,,,,0,,
19807001,,Silent Wilderness,,B008BP5WOU,,,ES,,,,true,4,15889407,0,0,0,0,2012/6/7,,,0,0,0,0,0,0.00,,,,0,0,Doris Holland,,,,,,,0,,
19808001,,Walking Mountain-Shadow Spirit,,B00GS5SD4G,,,ES,,,,true,2,19808001,0,0,0,0,2013/11/18,,,0,0,0,0,0,0.00,,,,0,0,J.B. Patel,,,,,,,0,,
19809001,,The Relationship Challenge: Finding that Special Person and Making it Work,,B006R1QU28,,,ES,,,,true,1,19809001,0,0,0,0,2003/6/11,,,0,0,0,0,0,0.00,,,,0,0,G. Hibbs,,,,,,,0,,
19810501,,An American Political Scientist in Israel: From Athens to Jerusalem,,B004GHNHL2,,,ES,,,,true,2,8305647,0,0,0,0,2010/7/16,,,0,0,0,0,0,0.00,,,,0,0,Paul Eidelberg,,,,,,,0,,
19812001,8120343670,Fishes: An Introduction to Ichthyology,9788120343672,,,,ES,2011/12/1,Prentice Hall,,false,6,1882171,122,116,29,2,1988/3/1,Fishes: An Introduction to Ichthyology,book,9,12,7,1,0,4.00,744,Paperback,,0,0,Peter B. Moyle,,,,,,65,1,3,"non-fiction,reference,science"
19813001,,Adventures of Superman (1986-2006) #424,,B00CIID0EA,,,ES,,,,true,1,19813001,8,29,8,1,,,,3,1,2,2,0,3.62,,,,8,1,Marv Wolfman,Jerry Ordway,,,,,,0,,
19814501,,The Demise of The Color War Captain: A Novel,,B006ZUW03E,,,ES,,,,true,1,19814501,0,0,0,0,2003/1/30,,,0,0,0,0,0,0.00,,,,0,0,Tom Wilkins,,,,,,,0,,
19815501,,Loving Is A Gift,,B006ZICWSY,,,ES,,,,true,1,19815501,0,0,0,0,2002/11/27,,,0,0,0,0,0,0.00,,,,0,0,Mary Hall,,,,,,,0,,
19816001,,The Key To 203,,B00AD1M860,,,ES,,,,true,1,19816001,0,0,0,0,2007/8/30,,,0,0,0,0,0,0.00,,,,0,0,Ena Shaw,,,,,,,0,,
19817501,,How  I  Learnt  And  Healed  Through  Spirituality,,B007P2BY88,,,ES,,,,true,1,19817501,0,0,0,0,2009/8/26,,,0,0,0,0,0,0.00,,,,0,0,Eliane  Barben,,,,,,,0,,
19818001,,The Orchid House,,B000PY3MHY,,,ES,,,,true,9,1458541,266,252,76,11,1953/1/1,The Orchid House,book,10,20,34,8,4,3.32,,,,2,1,Phyllis Shand Allfrey,,,Lizabeth Paravisini-Gebert,,,159,12,,"adult,contemporary,fiction,literary-fiction,magical-realism,novels,romance"
19820001,817992727X,Messiah's Handbook,9788179927274,,,,ES,,,eng,false,5,29944,3565,8293,1948,60,2004/8/15,Messiah's Handbook: Reminders for the Advanced Soul,book,1000,553,310,66,19,4.26,,,,17,1,Richard Bach,,,,,,1182,5,63,"classics,fantasy,fiction,inspirational,non-fiction,novels,philosophy,religion,self-help,spirituality"
19820501,,Justice On Trial,,B0099O2HE0,,,ES,,,,true,3,16209054,0,0,0,0,2012/8/28,,,0,0,0,0,0,0.00,,,,0,0,Uduma Igwe Kalu,,,,,,,0,,
19821001,,An Apology for the Life of Mrs. Shamela Andrews,,B00B0XJHRS,,,ES,,,,true,1,19821001,2,3,1,0,2012/12/27,,,0,0,1,0,0,3.00,,,,1,0,Conny Keyber,,,,,,1,0,,
19822001,161538054X,Heidi Student Study Guide,9781615380541,,,,ES,2012/3/30,Memoria Press,,false,1,19822001,3,0,0,0,2010/6/10,,,0,0,0,0,0,0.00,,Paperback,,0,0,Highlands Latin School Faculty,,,,,,2,0,,
19822501,,The Chief Ranger,,B006OUAZK0,,,ES,,,eng,true,11,6499790,139,229,60,5,2009/6/1,The Chief Ranger,book,22,14,16,7,1,3.82,,,,1,0,Rebecca Winters,,,,,,48,8,1,"adult,chick-lit,contemporary,fiction,harlequin,romance"
19823001,,EMAILS Fwd:FW:,,B007RVGPO0,,,ES,,,,true,1,19823001,1,5,1,0,2010/5/5,,,1,0,0,0,0,5.00,,,,1,0,Gerry Gialogo Grindulo,,,,,,,0,,
19824001,,The Emperor's Adviser: Saionji Kinmochi and Pre-War Japanese Politics: Volume 4 (Routledge Library Editions: Japan),,B004OBZS58,,,ES,,,,true,1,19824001,0,0,0,0,2010/9/7,,,0,0,0,0,0,0.00,,,,0,0,Lesley Connors,,,,,,,0,,
19824501,,A Girl Called Fearless: A Novel (The Girl Called Fearless Series Book 1),,B00GETFZU6,,,ES,,,eng,true,5,18404156,4800,3416,893,182,2014/5/6,A Girl Called Fearless,book,274,297,233,70,19,3.83,,,,25,2,Catherine Linka,,,,,,3608,28,28,"adventure,chick-lit,contemporary,dystopia,fantasy,feminism,fiction,high-school,romance,science-fiction,suspense,teen,thriller,young-adult"
19825001,,Nobody Heard Me Cry,,B00GW4MH0E,,,ES,,,,true,8,5382029,211,385,101,10,2008/4/2,Nobody Heard Me Cry,book,30,31,31,9,0,3.81,,,,0,0,John Devane,,,,,,78,1,3,"abuse,adult,fiction,horror,love,memoir,non-fiction,romance,social-issues"
19827001,,Demand Driven Supply Chain: A Structured and Practical Roadmap to Increase Profitability,,B008CN2COO,,,ES,,,,true,3,14640313,2,7,2,0,2011/7/9,,,0,1,1,0,0,3.50,,,,0,0,Paulo Mendes,,,,,,,0,,
19828001,,Superman: The Man of Steel (1991-2003) #22,,B00D60AGBE,,,ES,,,,true,1,19828001,6,17,4,1,,,,2,1,1,0,0,4.25,,,,4,1,Louise Simonson,Jon Bogdanove,,,,,2,0,,comics
19828501,,"Global Communication: Theories, Stakeholders and Trends",,B00H3FWMDI,,,ES,,,,true,13,12365840,70,76,23,1,2001/9/11,,,2,9,7,4,1,3.30,,,,0,0,Thomas L. McPhail,,,,,,13,0,7,non-fiction
19829001,,Essays in Persuasion,,B004OA6KL0,,,ES,,,,true,26,368291,2086,824,203,15,1931/1/1,Essays in Persuasion,book,76,81,33,8,5,4.06,,,,3,0,John Maynard Keynes,,,,,,1714,14,72,"business,classics,economics,essays,history,non-fiction,philosophy,politics,psychology,social"
19830001,,"Virtue, Fortune, and Faith: A Genealogy of Finance (Barrows Lectures)",,B007BYQ106,,,ES,,,,true,4,4995690,21,38,9,2,2005/1/1,"Virtue, Fortune, and Faith: A Genealogy of Finance (Borderlines)",,4,3,2,0,0,4.22,,,,1,0,Marieke de Goede,,,,,,11,0,,"academic,economics,non-fiction"
19830501,,GO! with Windows 8 Getting Started,,B00H9GYVX0,,,ES,,,,true,1,19830501,0,0,0,0,2013/3/7,,,0,0,0,0,0,0.00,,,,0,0,Shelley Gaskin,,,,,,,0,,
19831001,,Eazy PMP,,B0067T7786,,,ES,,,,true,3,14389300,4,3,1,0,2011/6/3,,,0,0,1,0,0,3.00,,,,0,0,O.A. Amao,,,,,,3,0,,
19831501,,"Rape Work: Victims, Gender, and Emotions in Organization and Community Context (Perspectives on Gender)",,B00AZKV9XC,,,ES,,,,true,7,2487497,43,58,14,1,2005/1/1,"Rape Work: Victims, Gender, and Emotions in Organization and Community Context (Perspectives on Gender)",,5,7,1,1,0,4.14,,,,2,0,Patricia Yancey Martin,,,,,,19,3,3,"academic,feminism,grad-school,non-fiction,school,sociology"
19834001,,Tales of Natural and Unnatural Catastrophes,,B0071BWRKW,,,ES,,,,true,24,715383,692,1041,297,46,1987/1/1,Tales of Natural and Unnatural Catastrophes,book,54,99,93,45,6,3.51,,,,7,0,Patricia Highsmith,,,,,,284,9,16,"american,anthologies,collections,crime,fantasy,fiction,horror,humor,mystery,short-stories,suspense"
19834501,,Archbishop: A novel,,B00FAT9I54,,,ES,,,,true,2,18722281,99,245,60,12,2014/2/13,,book,26,20,7,7,0,4.08,,,,19,2,Michele Guinness,,,,,,25,1,4,"christian-fiction,fiction"
19836001,,Stillwater,,B000FC0UXK,,,ES,,,eng,true,9,1476146,121,195,63,10,2002/1/1,Stillwater,book,6,15,24,15,3,3.10,,,,4,0,William F. Weld,,,,,,23,4,5,"fiction,historical,young-adult"
19836501,1422611108,Let's Stay Safe!,9781422611104,,,,ES,,,,false,1,19836501,19,34,9,3,2011/8/15,,,4,2,0,3,0,3.78,,,,9,3,Bracha Goetz,Tova Leff,,,,,6,0,,
19837501,,Rhetoric and Discourse in Supreme Court Oral Arguments: Sensemaking in Judicial Decisions (Routledge Studies in Rhetoric and Communication),,B00AYILF5M,,,ES,,,,true,8,15859126,2,0,0,0,2012/12/19,,,0,0,0,0,0,0.00,,,,0,0,Ryan A. Malphurs,,,,,,2,0,,
19838001,,A Little Advice:A Series of Short Stories,,B005WU9F04,,,ES,,,,true,3,8780328,0,0,0,0,2009/10/28,,book,0,0,0,0,0,0.00,,,,0,0,Ron       Jacobs,,,,,,,0,,
19838501,,Creativity Defined: From Select Passages in Literature,,B0068BWN3W,,,ES,,,,true,2,7313771,1,5,1,0,2008/1/1,,,1,0,0,0,0,5.00,,,,0,0,Blake Bazel,,,,,,,0,,
19839501,,Primary Teachers Talking: A Study of Teaching As Work,,B000FA5Z00,,,ES,,,,true,8,5151733,1,4,1,0,1989/6/4,Primary Teachers Talking: A Study of Teaching As Work,,0,1,0,0,0,4.00,,,,0,0,"Jennifer Nias,Jennifer Nias",,,,,,,0,,
19840001,,Survivor's Odyssey : . . . from oppression to reconciliation,,B00D5SJKY6,,,ES,,,,true,3,18009246,5,14,3,2,2013/5/29,,,2,1,0,0,0,4.67,,,,0,0,Richard S. Wiener,,,,,,2,0,,
19841001,,Are We Spiritual Machines?: Ray Kurzweil vs. the Critics of Strong A.I.,,,,,ES,,,eng,false,2,83534,523,483,125,6,2001/6/6,Are We Spiritual Machines?: Ray Kurzweil vs. the Critics of Strong A.I.,book,35,50,28,12,0,3.86,,,,1,0,"George Gilder,Jay W. Richards,Ray Kurzweil",,,,,,358,5,3,"non-fiction,philosophy,religion,science,science-fiction,spirituality,technology"
19841501,,Shakespeare's Early Tragedies (Routledge Library Editions: Shakespeare),,B00FVTS67Y,,,ES,,,,true,9,18704230,3,3,1,0,1973/4/1,,,0,0,1,0,0,3.00,,,,0,0,Nicholas Brooke,,,,,,,0,1,non-fiction
19842001,,Salem Street,,B00GW4WVGY,,,ES,,,,true,10,3020213,939,2450,569,30,1994/7/1,Salem Street,book,306,166,72,15,10,4.31,,,,20,0,Anna Jacobs,,,,,,94,11,29,"adult,drama,fiction,historical,historical-fiction,modern,romance"
19842501,,Decoding Darkness: The Search For The Genetic Causes Of Alzheimer's Disease,,B007HOO4E0,,,ES,,,,true,6,20737154,219,147,41,6,1998/8/1,Decoding Darkness: The Search for the Genetic Causes of Alzheimer's Disease,,8,15,13,3,2,3.59,,,,1,0,"Ann B. Parson,Rudolph E. Tanzi",,,,,,97,3,8,"medical,non-fiction,psychology,science"
19843001,,Finding the Right One After Divorce,,B005127FRI,,,ES,,,,true,1,19843001,18,33,8,0,2007/4/1,,,4,2,1,1,0,4.12,,,,8,0,"Edward M. Tauber,Jim Smoke",,,,,,6,0,,
19843501,1936114526,Focus on Elementary Biology Teacher's Manual,9781936114528,,,,ES,2012/9/6,"Gravitas Publications, Inc.",,false,1,19843501,1,0,0,0,2012/9/6,,,0,0,0,0,0,0.00,52,Paperback,,0,0,Rebecca W. Keller,,,,,,,0,,
19844001,,Night Calls the Raven: Book 2 of The Master of the Tane,,B0079VPW9C,,,ES,,,,true,4,2782015,127,412,104,1,2005/8/31,Night Calls the Raven: Book 2 of The Master of the Tane,book,31,47,17,9,0,3.96,,,,0,0,Thomas Rath,,,,,,13,1,,fiction
19844501,,The Bride's Price,,B00GSWSBJ6,,,ES,,,,true,1,19844501,0,0,0,0,2013/4/30,,,0,0,0,0,0,0.00,,,,0,0,Rebecca St. Amand,,,,,,,0,,
19845501,,Benjamin Bear's Naughtiest Night Ever!,,B00A7ORGEC,,,ES,,,,true,2,11455131,4,5,1,0,2011/4/27,,,1,0,0,0,0,5.00,,,,0,0,Adriana L. Blake,,,,,,3,0,,
19846501,,Hell's Bells and Mademoiselles,,B008IX5OWK,,,ES,,,,true,3,17309811,26,29,7,1,2012/11/1,,book,3,2,2,0,0,4.14,,,,0,0,Joe Maxwell,,,,,,12,1,2,biography
19847001,,"American Exceptionalism, the French Exception, and Digital Media Law",,B00ER3BX7A,,,ES,,,,true,2,19847001,0,0,0,0,2013/7/10,,,0,0,0,0,0,0.00,,,,0,0,Lyombe S. Eko,,,,,,,0,,
19847501,,A Collection of Poems and Essays of Past Decades Involving Discussions of Important Matters & Topics,,B006B2E8KO,,,ES,,,eng,true,3,6102623,0,0,0,0,2008/7/20,A Collection of Poems and Essays of Past Decades Involving Discussions of Important Matters & Topics,book,0,0,0,0,0,0.00,,,,0,0,Felipe B. Nery,,,,,,,0,,
19850501,,Canada-The Safety Shoes Inc.,,B006MQNFEO,,,ES,,,,true,2,14615863,1,0,0,0,2009/7/1,,,0,0,0,0,0,0.00,,,,0,0,Shiva Kumar,,,,,,1,0,,
19851001,,His Child (Mills & Boon Intrigue),,B00994N1TA,,,ES,,,,true,6,2856618,141,236,64,10,2002/1/1,"His Child (Harlequin Intrigue, No. 648)",book,19,12,27,6,0,3.69,,,,2,0,Delores Fossen,,,,,,47,13,2,"contemporary,harlequin,love-story,romance,suspense"
19852001,,The End of it All:A Novel,,B0063AN4Q8,,,ES,,,,true,1,19852001,0,0,0,0,2009/11/4,,,0,0,0,0,0,0.00,,,,0,0,Alex G. Alvarez,,,,,,,0,,
19853001,,Frisky Finds a Home,,B00AMXU9HO,,,ES,,,,true,1,19853001,0,0,0,0,2012/11/30,,,0,0,0,0,0,0.00,,,,0,0,Carol Hankermeyer,,,,,,,0,,
19853501,,"The Great Bird Flu Hoax: The Truth They Don't Want You to Know About the ""Next Big Pandemic""",,B000VIHCWA,,,ES,,,eng,true,5,199342,68,84,25,4,2006/9/19,"The Great Bird Flu Hoax: The Truth They Don't Want You to Know About the ""Next Big Pandemic""",book,6,5,9,2,3,3.36,,,,0,0,Joseph Mercola,,,,,,38,0,1,"health,non-fiction,science"
19855001,148252371X,"You Don't Have A Money Problem: Wherever Your Money Goes, There You Are",9781482523713,,,,ES,,,,false,1,19855001,2,4,1,0,2013/5/11,,,0,1,0,0,0,4.00,,,,1,0,Eli A. Inkrot,,,,,,1,0,,
19855501,,"Dear Mom and Dad,",,B003ZHVH3Y,,,ES,,,,true,2,10087504,0,0,0,0,2010/8/11,,,0,0,0,0,0,0.00,,,,0,0,Susan Kessen,,,,,,,0,,
19856501,,Dreamland: A Scottish World Cup Success Story,,B00CM9CN70,,,ES,,,,true,3,19850096,2,2,1,0,2013/10/24,,,0,0,0,1,0,2.00,,,,0,0,Graham McColl,,,,,,1,0,,
19857001,,Kabbalah and the Art of Being: The Smithsonian Lectures,,B00G6TC5AW,,,ES,,,,true,7,1409508,8,7,2,1,2000/12/5,Kabbalah and the Art of Being : The Smithsonian Lectures,,0,1,1,0,0,3.50,,,,0,0,Shimon Shokek,,,,,,4,0,1,religion
19858001,1938560051,Life Size,9781938560057,,,,ES,,,,false,1,19858001,4,8,2,0,2012/10/1,,,0,2,0,0,0,4.00,,,,2,0,Sam Falls,,,,,,2,0,,
19859001,,Alzare Mis Ojos a Los Montes,,B005V92PPS,,,ES,,,,true,1,19859001,0,0,0,0,2010/1/8,,,0,0,0,0,0,0.00,,,,0,0,Martha Tarcila Valenzuela De Villegas,,,,,,,0,,
19860001,,The Church Leader's Counseling Resource Book: A Guide to Mental Health and Social Problems,,B004LLI6CI,,,ES,,,,true,3,10474241,26,43,10,2,2011/1/1,,,5,3,2,0,0,4.30,,,,2,0,"Cynthia Franklin,Rowena Fong",,,,,,14,1,,reference
19861501,,Cicada Summer,,B006RYYO8W,,,ES,,,,true,2,7725561,0,0,0,0,2000/1/1,,,0,0,0,0,0,0.00,,,,0,0,Frankie Tso,,,,,,,0,,
19862001,,"Allocation and Determination of Responsibilities, Powers and Competence in European Countries",,B00BSJYIX2,,,ES,,,,true,1,19862001,0,0,0,0,2011/3/31,,,0,0,0,0,0,0.00,,,,0,0,Wolfgang Tiede,,,,,,,0,,
19863001,,The Possum Riders: The Early Years,,B003NX70U4,,,ES,,,,true,3,19863001,0,0,0,0,2010/4/9,,,0,0,0,0,0,0.00,,,,0,0,Mitchell E. Marlow Sr.,,,,,,,0,,
19863501,,Whiteout: Poems,,B0087GZI6K,,,ES,,,,true,7,13214908,63,79,19,3,2012/1/1,,book,9,6,3,0,1,4.16,,,,0,0,George Murray,,,,,,36,3,,poetry
19864001,,"Printed Circuit Boards: Design, Fabrication, and Assembly (McGraw-Hill Electronic Engineering)",,B000YAT1RO,,,ES,,,,true,3,6180087,84,121,33,2,2005/8/17,Printed Circuit Boards (McGraw-Hill Electronic Engineering),,12,6,9,4,2,3.67,,,,0,0,R.S. Khandpur,,,,,,49,0,4,non-fiction
19864501,,Tutankhamen: The Life and Death of the Boy-King,,B00H6ETDD8,,,ES,,,,true,8,1235885,171,333,84,14,1996/1/1,Tutankhamen: The Life and Death of the Boy-King,book,25,36,19,3,1,3.96,,,,2,0,Christine Hobson el-Mahdy,,,,,,53,7,3,"biography,historical,history,non-fiction"
19865001,,Leadership Communication as Citizenship,,B007BBSXKA,,,ES,,,,true,5,16609341,4,4,1,0,2009/11/6,,,0,1,0,0,0,4.00,,,,0,0,"John O. Burtis,Paul D. Turman",,,,,,2,0,,
19865501,,"Language Policy and Modernity in Southeast Asia: Malaysia, the Philippines, Singapore, and Thailand",,B0023NVO70,,,ES,,,,true,5,2327844,12,18,4,1,2006/1/1,"Language Policy and Modernity in Southeast Asia: Malaysia, the Philippines, Singapore, and Thailand (Language Policy)",,2,2,0,0,0,4.50,,,,0,0,"Antonio L. Rappa,Lionel Wee Hock An",,,,,,1,0,1,
19866001,,Principles of Asymmetric Synthesis,,B008CYQL2M,,,ES,,,,true,1,19866001,0,0,0,0,2012/5/29,,,0,0,0,0,0,0.00,,,,0,0,"Jeffrey Aube,Robert E. Gawley",,,,,,,0,,
19867001,,Pollution Control in East Asia: Lessons from Newly Industrializing Economies,,B007NYFFJW,,,ES,,,,true,6,11252661,1,0,0,0,2002/2/1,,,0,0,0,0,0,0.00,,,,0,0,Michael T. Rock,,,,,,1,0,,
19867501,,Rain,,B003ZDO776,,,ES,,,,true,3,14563112,0,0,0,0,2010/8/6,,,0,0,0,0,0,0.00,,,,0,0,Evelyn L. Eubanks,,,,,,,0,,
19868001,,Electron Microscopy in Heterogeneous Catalysis (Series in Microscopy in Materials Science),,B008ID487W,,,ES,,,,true,1,19868001,0,0,0,0,2012/5/14,,,0,0,0,0,0,0.00,,,,0,0,"Gai,P.l",,,,,,,0,,
19869001,,How to Land an A330 Airbus: And Other Vital Skills for the Modern Man,,B00GVFY0RC,,,ES,,,,true,9,9211846,698,1328,371,29,2010/1/1,,book,69,131,121,46,4,3.58,,,,5,0,James May,,,,,,210,10,33,"comedy,funny,humor,memoir,non-fiction,science,short-stories"
19870001,,Moonshine Talking,,B004PYDABS,,,ES,,,,true,3,14356644,3,1,1,0,2011/2/16,,,0,0,0,0,1,1.00,,,,0,0,Scott Patterson,,,,,,2,0,,
19871001,,Love Intertwines,,B007CESOUU,,,ES,,,,true,2,12007889,0,0,0,0,2003/9/16,,,0,0,0,0,0,0.00,,,,0,0,Jennifer Siller,,,,,,,0,,
19871501,,Where The Rivers Run Deep,,B00CR9KF4S,,,ES,,,,true,1,19871501,0,0,0,0,2013/5/8,,,0,0,0,0,0,0.00,,,,0,0,L.R. Holder,,,,,,,0,,
19872001,,SOS Sobriety: The Proven Alternative to 12-step Programs,,B0033AHGB0,,,ES,,,,true,2,2469022,6,11,4,0,1992/7/1,Sos Sobriety: The Proven Alternative to 12-Step Programs,,1,1,0,0,2,2.75,,,,0,0,James Christopher,,,,,,1,1,,"non-fiction,self-help"
19872501,,The Hills of Galbothia (Tenemor),,B00H56TCN8,,,ES,,,,true,2,14347204,3,15,3,0,2011/8/14,,,3,0,0,0,0,5.00,,,,0,0,Edwin Rivera,,,,,,2,0,,
19874001,,A Possum's Bible Story: Moses and the Exodus from Egypt,,B00CF4HF20,,,ES,,,,true,2,17946407,2,4,1,1,2013/7/2,,,0,1,0,0,0,4.00,,,,0,0,Jamey M. Long,,,,,,,0,,
19874501,,The New Politics of Leisure and Pleasure,,B009AUR4HI,,,ES,,,,true,5,10835090,5,8,2,0,2010/11/30,,,0,2,0,0,0,4.00,,,,1,0,Peter Bramham,,,Stephen Wagg,,,1,0,1,
19875001,,"Let Me Eat Cake: A Celebration of Flour, Sugar, Butter, Eggs, Vanilla, Baking Powder, and a Pinch of Salt",,B004RP8W7W,,,ES,,,,true,6,4007026,252,314,111,37,2009/3/27,"Let Me Eat Cake: A Celebration of Flour, Sugar, Butter, Eggs, Vanilla, Baking Powder, and a Pinch of Salt",,13,18,37,23,20,2.83,,,,0,0,Leslie F. Miller,,,,,,105,2,10,"adult,cookbooks,food,history,humor,memoir,non-fiction"
19876001,,The Little Star,,B00FPM3MVW,,,ES,,,,true,2,18641866,0,0,0,0,2013/9/30,,,0,0,0,0,0,0.00,,,,0,0,Laurie Shauver,,,,,,,0,,
19878001,,When the Words Were My Companions,,B006MBAKTM,,,ES,,,,true,2,12524233,0,0,0,0,2008/8/1,,,0,0,0,0,0,0.00,,,,0,0,Larry Alan Jones,,,,,,,0,,
19878501,,Feast Day of Fools,,B005QE3JQW,,,ES,,,,true,29,10081131,6429,16570,4189,548,2011/1/1,Feast Day Of Fools,book,1389,1631,852,228,89,3.96,,,,17,0,James Lee Burke,,,,,,1397,29,129,"american,crime,detective,fiction,murder-mystery,mystery,mystery-thriller,novels,suspense,thriller,unfinished"
19879001,,"Vested: How P&G, McDonald's, and Microsoft are Redefining Winning in Business Relationships",,B0087OSRAQ,,,ES,,,,true,4,13539026,40,73,16,0,2012/9/18,,,10,5,1,0,0,4.56,,,,3,0,"Karl Manrodt,Kate Vitasek",,,,,,18,0,3,business
19880001,,"Mama Never Cried: A Memoir of Mary Ethel Weaver, A Simple Country Woman",,B006ZTUG40,,,ES,,,,true,1,19880001,0,0,0,0,2001/1/15,,,0,0,0,0,0,0.00,,,,0,0,Larry Weaver,,,,,,,0,,
19881001,,Communication Systems,,B000WDQKL8,,,ES,,,,true,3,1704943,2,5,1,0,2005/8/23,Communication Systems,book,1,0,0,0,0,5.00,,,,0,0,"Marcelo S. Alencar,Valdemar C. da Rocha",,,,,,1,0,,
19882501,,Wishful Thinking,,B00DIXTKZW,,,ES,,,,true,1,19882501,0,0,0,0,2009/7/3,,,0,0,0,0,0,0.00,,,,0,0,Max McNamara,,,,,,,0,,
19883501,1140776029,"Analysis of the Game of Chess. by Mr. Philidor. a New Edition, Improved and Greatly Enlarged. to Which Is Added, Several Parties, Played by the Author Blindfold, Against Three Adversaries. Volume 2 of 2",9781140776024,,,,ES,2010/5/27,"Gale Ecco, Print Editions",,false,1,19883501,0,0,0,0,2010/5/27,,,0,0,0,0,0,0.00,194,Paperback,,0,0,F.D. Philidor,,,,,,,0,,
19885001,,Deep Heat,,B00GVG1448,,,ES,,,,true,8,42024,446,876,251,11,1999/1/1,Deep Heat,book,50,65,101,28,7,3.49,,,,0,0,Chris Manby,,,,,,86,9,5,"adult,chick-lit,contemporary,fiction,humor,modern,romance"
19885501,,"Gray Markets: Prevention, Detection and Litigation",,B00A8SRW32,,,ES,,,,true,3,7286125,5,5,1,0,2009/1/1,,,1,0,0,0,0,5.00,,,,0,0,David R. Sugden,,,,,,3,0,,
19886001,,Clementine Rose and the Surprise Visitor,,B00CQ1D1TS,,,ES,,,,true,6,15851335,294,625,148,19,2012/9/3,,book,80,37,18,10,3,4.22,,,,3,0,Jacqueline Harvey,,,,,,89,16,11,"animals,family,middle-grade,mystery"
19886501,,"My Name Is America: The Journal Of Patrick Seamus Flaherty, United States Marine Corps",,,,,ES,,,,false,9,247979,1904,4162,995,156,2002/6/1,"The Journal of Patrick Seamus Flaherty: United States Marine Corps, Khe Sanh, Vietnam, 1968 (My Name Is America)",book,454,319,179,36,7,4.18,,,,0,0,Ellen Emerson White,,,,,,632,5,42,"adventure,autobiography,childrens,death,fiction,historical,historical-fiction,history,juvenile,mental-health,middle-grade,non-fiction,novels,teen,war,young-adult"
19887001,,The March Up: Taking Baghdad with the United States Marines,,B000XUDHCA,,,ES,,,,true,11,1213803,560,1035,273,13,2003/9/9,The March Up: Taking Baghdad with the 1st Marine Division,book,62,114,78,16,3,3.79,,,,7,0,"Francis J. ""Bing"" West Jr.,Ray L. Smith",,,,,,215,8,6,"american-history,history,non-fiction,war,young-adult"
19887501,,A Camp In Fallujah Desert,,B00GYYHDI8,,,ES,,,,true,1,19887501,1,0,0,0,2013/11/12,,,0,0,0,0,0,0.00,,,,0,0,Aylmer Ibrahim,,,,,,1,0,,
19888001,,Fruits of the Hawaiian Islands,,B00FRIPCI0,,,ES,,,,true,11,19888001,0,0,0,0,2009/7/29,,,0,0,0,0,0,0.00,,,,0,0,Gerrit Parmile Wilder,,,,,,,0,,
19888501,,The Tycoon's Delicious Distraction,,B00GGNSXH2,,,ES,,,eng,true,17,18168633,181,276,96,6,2013/12/1,,book,12,13,35,23,13,2.88,,,,6,0,Maggie Cox,,,,,,42,5,6,"adult-fiction,harlequin,romance"
19889001,1492212202,I'm Raybo,9781492212201,,,,ES,,,,false,1,19889001,1,5,1,0,2013/9/22,,,1,0,0,0,0,5.00,,,,1,0,Ray Novak,,,,,,,0,,
19891001,,A Secret In The Family,,B00GW4S1R2,,,ES,,,,true,13,6862901,688,1876,469,14,2009/1/1,,book,191,134,110,21,13,4.00,,,,21,0,Lyn Andrews,,,,,,125,4,34,"family,fiction,novels"
19891501,,Venison,,B004XJ55DG,,,ES,,,,true,2,6973851,0,0,0,0,2004/1/1,,,0,0,0,0,0,0.00,,,,0,0,James Mirarchi,,,,,,,0,,
19892501,,Brain Storms: A Collection of Free Verse:Thoughts of an Aging Mind,,B0062JHHQS,,,ES,,,,true,1,19892501,0,0,0,0,2005/4/12,,,0,0,0,0,0,0.00,,,,0,0,David R. Torrence,,,,,,,0,,
19893501,,The More the Terrier (A Pet Rescue Mystery),,B0052RHBOO,,,ES,,,,true,4,10744315,796,846,237,36,2011/10/4,,book,53,66,90,19,9,3.57,,,,6,1,Linda O. Johnston,,,,,,494,11,3,"american,animals,cozy-mystery,crime,fiction,mystery"
19894001,,Love Times Four: Lesbian Love Stories,,B006UAH2AU,,,ES,,,,true,4,49171,55,82,23,0,2003/9/1,Love Times Four: Lesbian Love Stories,,8,4,6,3,2,3.57,,,,5,0,Jeanne McCann,,,,,,19,1,2,love
19894501,,Cowboy Seeks Perfect Wife,,B0096WJCVQ,,,ES,,,eng,true,8,1850899,13,7,2,0,1997/4/1,Cowboy Seeks Perfect Wife (Silhouette Romance),book,0,1,1,0,0,3.50,,,,0,0,Linda Lewis,,,,,,6,0,1,
19895001,,Wolves of the Crescent Moon,,B003S9W9M2,,,ES,,,,true,11,6690328,1173,1742,540,105,2003/1/1,Wolves of the Crescent Moon,book,76,135,207,79,43,3.23,,,,3,0,Yousef Al-Mohaimeed,,,,,,492,10,10,"contemporary,cultural,fiction,historical-fiction,literature,mystery,novels,tragedy,unfinished"
19895501,,About The Bible: Bible Book Study,,B009H8C630,,,ES,,,,true,1,19895501,0,0,0,0,2012/9/21,,,0,0,0,0,0,0.00,,,,0,0,Larry Roberts,,,,,,,0,,
19897501,,Standing Upright,,B004P1ILE2,,,ES,,,,true,1,19897501,0,0,0,0,2011/3/8,,,0,0,0,0,0,0.00,,,,0,0,Sandy Malcom,,,,,,,0,,
19899501,,Wilma the Waitress and The Waffle House,,B00FM66FKQ,,,ES,,,,true,2,17221579,4,10,2,0,2013/2/19,,,2,0,0,0,0,5.00,,,,0,0,Amber Dulin,,,,,,2,0,,
19900001,,An Introduction to Recombinant DNA in Medicine,,B000SBIHR4,,,ES,,,,true,4,1126115,1,0,0,0,1984/11/27,"An Introduction to Recombinant DNA in Medicine, 2nd Edition",,0,0,0,0,0,0.00,,,,0,0,"Alan E.H. Emery,S. Malcolm",,,,,,1,0,,
19902001,,Addressing Rape Reform in Law and Practice,,B008P1HGXK,,,ES,,,,true,4,6479097,10,13,3,0,2008/10/6,Addressing Rape Reform in Law and Practice,,2,0,1,0,0,4.33,,,,2,0,Susan Caringella,,,,,,4,0,1,"feminism,non-fiction"
19904001,,Interactive Learning Technology for the Deaf (Nato ASI Subseries F: (closed)),,B000PY420A,,,ES,,,,true,1,19904001,0,0,0,0,1993/12/1,,,0,0,0,0,0,0.00,,,,0,0,"A. Brekelmans,Ben A.G. Elsendoorn,Frans Coninx",,,,,,,0,,
19904501,,Booty,,B00806290K,,,ES,,,,true,2,19904501,0,0,0,0,2012/4/1,,,0,0,0,0,0,0.00,,,,0,0,Valerie Kershaw,,,,,,,0,,
19905501,,Exodus into Evil : A Collection of Short Horror Stories,,B007OAGR92,,,ES,,,,true,6,14382001,3,0,0,0,2011/12/12,,,0,0,0,0,0,0.00,,,,0,0,Stanley J. Brzycki,,,,,,3,0,,
19906001,,Gulliver's Travels: and Alexander Pope's Verses on Gulliver's Travels (Vintage Classics),,B003QCKNGK,,,ES,,,,true,5,10124006,53,40,12,0,1726/1/1,,book,4,0,6,0,2,3.33,,,,3,0,Jonathan Swift,,,,,,24,2,3,classics
19906501,,Time and Money: How Long and How Much Money is Needed to Regulate a Viable Economy (Lecture Notes in Economics and Mathematical Systems),,B00ESXIKMA,,,ES,,,,true,3,17301321,1,0,0,0,2013/5/29,,,0,0,0,0,0,0.00,,,,0,0,Jean-Pierre Aubin,,,,,,1,0,,
19907501,,Swarming Landscapes: The Art of Designing For Climate Adaptation (Advances in Global Change Research: 48),,B00APXDMMU,,,ES,,,eng,true,2,19907501,0,0,0,0,2012/12/2,,book,0,0,0,0,0,0.00,,,,0,0,Rob Roggema,,,,,,,0,,
19908001,,Star Trek: The Original Series: Devil's Bargain,,B008O4X0K6,,,ES,,,,true,5,15803184,508,845,238,39,2013/2/26,,book,41,86,79,27,5,3.55,,,,5,0,Tony Daniel,,,,,,186,10,16,"fiction,novella,novels,science-fiction"
19908501,,Ossie's Dream: My Autobiography,,B00351YERQ,,,ES,,,,true,5,9493664,25,57,16,1,2009/9/1,,,2,6,7,1,0,3.56,,,,0,0,Ossie Ardiles,,,,,,6,0,,
19909001,,Building Reputational Capital: Strategies for Integrity and Fair Play that Improve the Bottom Line,,B000TQBC4S,,,ES,,,,true,4,903361,12,26,6,0,2004/3/5,Building Reputational Capital: Strategies for Integrity and Fair Play that Improve the Bottom Line,,4,1,0,1,0,4.33,,,,2,0,Kevin T. Jackson,,,,,,3,0,,business
19909501,1936768070,Sonship Manual,9781936768073,,,,ES,,,,false,1,19909501,9,12,3,0,2011/10/31,,,1,1,1,0,0,4.00,,,,3,0,World Harvest Mission,,,,,,2,0,,theology
19911501,,"When Love Speaks: Poetry and prose for weddings, relationships and married life. (Vintage Classics)",,B005F3GLD2,,,ES,,,,true,3,11216495,31,38,11,0,2011/2/3,,book,2,3,4,2,0,3.45,,,,1,0,Adam O'Riordan,,,,,,16,1,,"non-fiction,poetry"
19912501,,Lombardi and Landry: How Two of Pro Football's Greatest Coaches Launched Their Legends and Changed the Game Forever,,B005PY78KQ,,,ES,,,,true,4,11880842,80,172,48,5,2011/8/24,,book,4,24,17,2,1,3.58,,,,0,0,Ernie Palladino,,,,,,22,2,,"historical,sports"
19915501,,Enice,,B002R5AWMW,,,ES,,,,true,1,19915501,1,5,1,0,2009/10/13,,,1,0,0,0,0,5.00,,,,1,0,Enice Toussaint,,,,,,,0,,
19916001,,The Life of Florence Nightingale (Complete),,B00B0XLFG4,,,ES,,,,true,11,16031246,11,9,2,1,1942/1/1,,book,1,1,0,0,0,4.50,,,,0,0,Edward Tyas Cook,,,,,,,0,1,
19916501,,The Celestial Scriptures: Keys to the Suppressed Wisdom of the Ancients,,B007F9S8IU,,,ES,,,,true,1,19916501,1,0,0,0,2002/1/22,,,0,0,0,0,0,0.00,,,,0,0,C.M. Houck,,,,,,1,0,,
19917001,,The Address Book,,B00APDOF94,,,ES,,,,true,3,11912644,25,41,12,2,2011/5/25,,book,2,4,4,1,1,3.42,,,,1,0,Jane Clifton,,,,,,7,0,,non-fiction
19918001,,The Firm: The Story of McKinsey and Its Secret Influence on American Business,,B00A26FO12,,,ES,,,,true,20,16130157,5364,7200,1921,150,2013/8/6,,book,402,788,595,117,19,3.75,,,,0,0,Duff McDonald,,,,,,568,19,104,"biography,business,history,non-fiction,politics"
19918501,,"A Woman's Guide to Vitamins, Herbs, and Supplements (Healthy Home Library)",,B003N2PEIK,,,ES,,,,true,3,6149159,13,15,4,0,2008/12/30,"A Woman's Guide to Vitamins, Herbs, and Supplements (Healthy Home Library)",book,1,1,2,0,0,3.75,,,,0,0,Deborah Mitchell,,,,,,5,0,,"health,non-fiction"
19919001,,Honor Your Father and Mother:A Biblical Perspective on What Parental Honor Really Means in Modern Times,,B0062FUD0O,,,ES,,,,true,2,5130820,1,0,0,0,2006/3/1,Honor Your Father and Mother: A Biblical Perspective on What Parental Honor Really Means in Modern Times,,0,0,0,0,0,0.00,,,,0,0,Andrew G. Robbins,,,,,,1,0,,
19920001,,The Truth Behind His Touch,,B008CJZEAC,,,ES,,,eng,true,18,14854567,139,259,77,9,2012/6/1,,book,15,17,28,15,2,3.36,,,,0,0,Cathy Williams,,,,,,18,0,3,"harlequin,romance"
19920501,,Materials Chemistry,,B008847ZJO,,,ES,,,,true,6,12220156,9,10,3,0,2007/6/30,Materials Chemistry,,1,1,0,0,1,3.33,,,,0,0,Bradley D. Fahlman,,,,,,5,0,1,
19921001,,"Thomas Francis Meagher : Irish Rebel, American Yankee, Montana Pioneer",,B007ECLVAA,,,ES,,,,true,1,19921001,0,0,0,0,2004/3/1,,,0,0,0,0,0,0.00,,,,0,0,Gary R. Forney,,,,,,,0,,
19922001,,"Your Body Beautiful: Clockstopping Secrets to Staying Healthy, Strong, and Sexy in Your 30s, 40s, and Beyond",8876250441366,,,,ES,,,,false,5,12565868,165,202,62,10,2012/1/5,,,6,18,25,12,1,3.26,,,,1,0,"Christine Rojo,Jennifer Ashton",,,,,,15,5,,"health,non-fiction,self-help"
19922501,,"Passionate Chef, Ice Queen Boss (The Brides of Bella Rosa)",,B006MCRXTQ,,,ES,,,eng,true,13,8682437,90,97,29,4,2010/1/1,,book,6,6,10,6,1,3.34,,,,0,0,Jennie Adams,,,,,,33,2,3,"harlequin,romance"
19924501,0965722074,The Animals Sleep: A Bedtime Book of Biomes,9780965722070,,,,ES,,,,false,1,19924501,2,0,0,0,2011/6/8,,,0,0,0,0,0,0.00,,,,0,0,Thomas M. Heffron,Lina Safar,,,,,2,0,,
19925501,1453890769,Praying Out Loud: When the Pastor Prays,9781453890769,,,,ES,,,,false,1,19925501,0,0,0,0,2010/10/23,,,0,0,0,0,0,0.00,,,,0,0,Neal E. Lloyd,,,,,,,0,,
19926001,,Wishing on a Star: My Journey Across the Gender Divide,,B007KN1TOG,,,ES,,,,true,3,14544625,0,0,0,0,2012/2/6,,,0,0,0,0,0,0.00,,,,0,0,Rachael Evelyn Booth,,,,,,,0,,
19927001,,Leadership Mastery: How to Challenge Yourself and Others to Greatness (Dale Carnegie Training),,B003ATPRW4,,,ES,,,,true,10,7123302,402,338,91,7,2009/1/1,,book,24,33,23,6,5,3.71,,,,1,0,Dale Carnegie,,,,,,222,1,34,"business,leadership,non-fiction,personal-development,philosophy,self-help"
19928501,,Windsong:The story of a young wolf,,B005UCS7N0,,,ES,,,,true,1,19928501,0,0,0,0,2005/9/10,,,0,0,0,0,0,0.00,,,,0,0,Tom Pataky,,,,,,,0,,
19929501,,Bella: a novelization of the award-winning movie,,B007V8RQF6,,,ES,,,,true,12,2864730,379,753,208,28,2008/4/1,Bella,book,47,66,67,25,3,3.62,,,,3,0,Lisa Samson,,Metanoia Films,,,,112,7,7,"christian,christian-fiction,contemporary,family,fiction,inspirational,love,romance"
19930501,,Manifest Destiny,,B07B6BZDL5,,,ES,,,eng,true,9,2272926,76,111,31,4,1989/1/1,Manifest Destiny,book,7,10,9,4,1,3.58,,,,3,0,Brian Garfield,,,,,,31,5,,"american-history,fiction,historical-fiction"
19932001,,A New Beginning,,B0065FCHDM,,,ES,,,,true,2,12679630,0,0,0,0,2008/8/27,,,0,0,0,0,0,0.00,,,,0,0,Molly Denholm,,,,,,,0,,
19933001,,The Field,,B005DGI32I,,,ES,,,,true,1,19933001,0,0,0,0,2011/7/18,,,0,0,0,0,0,0.00,,,,0,0,Lorna Cahall,,,,,,,0,,
19933501,1477632336,Recoil: Evasion-Based Self-Defense Against One or More Attackers,9781477632338,,,,ES,,,,false,1,19933501,0,0,0,0,2012/6/27,,,0,0,0,0,0,0.00,,,,0,0,Garrett Kai,,,,,,,0,,
19934001,1927017114,Cholesterol And Heart Health - What the Drug Companies Won't Tell You and Your Doctor Doesn't Know,9781927017111,,,,ES,,,eng,false,1,19934001,3,0,0,0,2013/5/1,,book,0,0,0,0,0,0.00,,,,0,0,Michael T. Murray,Fwh Creative,,Donna   Dawson,,,3,0,,
19934501,,"Same God, Different Churches",,B004GJVY4W,,,ES,,,,true,1,19934501,1,0,0,0,2005/9/6,,,0,0,0,0,0,0.00,,,,0,0,Katie Meier,,,,,,,0,1,
19935001,,Intercultural Economic Analysis: Theory and Method,,B008BB7HUQ,,,ES,,,,true,6,9252695,0,0,0,0,2009/1/1,,,0,0,0,0,0,0.00,,,,0,0,Rongxing Guo,,,,,,,0,,
19935501,,Supporting Literacy: A Guide for Primary Classroom Assistants,,B000FBFEMI,,,ES,,,,true,8,17493919,1,0,0,0,2000/10/12,,,0,0,0,0,0,0.00,,,,0,0,Kate Grant,,,,,,1,0,,
19936001,,When Universities are Destroyed: How Tulane University and the University of Alabama Rebuilt after Disaster,,B0060M1OPC,,,ES,,,eng,true,3,8080435,5,5,1,0,2010/3/10,,,1,0,0,0,0,5.00,,,,0,0,Jack Kushner,,,,,,4,0,,
19937001,,Interpreting the Early Modern World: Transatlantic Perspectives (Contributions To Global Historical Archaeology),,B008BBCSHS,,,ES,,,,true,3,31456438,0,0,0,0,2010/10/28,,,0,0,0,0,0,0.00,,,,0,0,Mary C. Beaudry,,,James Symonds,,,,0,,
19937501,,Autonomy from GOD: the carnal mind?,,B006IOD6UI,,,ES,,,,true,1,19937501,0,0,0,0,2008/4/28,,,0,0,0,0,0,0.00,,,,0,0,Edgar Rogers,,,,,,,0,,
19938001,,Benchmarking for School Improvement: A Practical Guide for Comparing and Achieving Effectiveness,,B000PWR06K,,,ES,,,,true,6,17135240,0,0,0,0,2001/9/6,,,0,0,0,0,0,0.00,,,,0,0,Anthony Kelly,,,,,,,0,,
19938501,,Introductory and Intermediate Algebra,,B00BHROY3Y,,,ES,,,eng,true,24,1792455,14,11,4,0,1998/1/1,Introductory and Intermediate Algebra ,book,1,1,0,0,2,2.75,,,Fifth Edition,0,0,"John Hornsby,Margaret L. Lial,Terry McGinnis",,,,,,2,1,1,education
19939501,,Weeping Wounds and Silent Desires,,B0081YUTQC,,,ES,,,,true,3,14415209,0,0,0,0,2012/4/9,,,0,0,0,0,0,0.00,,,,0,0,Zafar H. Khan,,,,,,,0,,
19940001,,Delivering Quality Service,,B003L785OW,,,ES,,,,true,6,583262,131,140,35,1,1990/3/19,Delivering Quality Service,,14,12,5,3,1,4.00,,,,1,0,Valarie A. Zeithaml,,,,,,66,1,4,"business,research"
19940501,,Polymer Science: A Comprehensive Reference,,B00D8GA6G6,,,ES,,,,true,3,16786769,0,0,0,0,2012/1/1,,,0,0,0,0,0,0.00,,,,0,0,Martin Moeller,,,Krzysztof Matyjaszewski,,,,0,,
19942001,,The Playboy's Plain Jane,,B0074ZYUI2,,,ES,,,eng,true,15,2532583,159,279,83,3,2006/12/1,The Playboy's Plain Jane,book,14,22,32,10,5,3.36,,,,0,0,Cara Colter,,,,,,43,7,1,"contemporary,fiction,harlequin,romance"
19942501,,The Wonders of Peace,,B008D6J50O,,,ES,,,,true,1,19942501,0,0,0,0,2012/4/17,,,0,0,0,0,0,0.00,,,,0,0,David Ayesiyenga,,,,,,,0,,
19943001,,"The Predator (Animorphs, #5)",,,,,ES,,,eng,false,16,125337,7695,18861,4950,152,1996/1/1,The Predator,book,1406,1600,1585,317,42,3.81,,,,50,0,"K.A. Applegate,Katherine Applegate",,,,,,737,45,33,"action,adventure,aliens,animals,childrens,fantasy,fiction,juvenile,middle-grade,novels,paranormal,science-fiction,science-fiction-fantasy,shapeshifters,speculative-fiction,teen,war,young-adult"
19944501,,I can do dumb,,B003TLMZ9Q,,,ES,,,,true,1,19944501,0,0,0,0,2010/6/10,,,0,0,0,0,0,0.00,,,,0,0,Tim Watro,,,,,,,0,,
19945001,,Retrieving Angels,,B00FE0IWJW,,,ES,,,eng,true,3,19945001,0,0,0,0,2013/5/29,,book,0,0,0,0,0,0.00,,,,0,0,Sandra Cimadori,,,,,,,0,,
19945501,,Ophthalmic Pathology: A Concise Guide,,B00A9YH8TS,,,ES,,,,true,4,15948535,1,0,0,0,2012/10/2,,,0,0,0,0,0,0.00,,,,0,0,Thomas J. Cummings,,,,,,,0,1,
19946001,,An Introduction to Multilevel Modeling Techniques (Quantitative Methodology Series),,B001Y35H1O,,,ES,,,,true,10,10189259,19,36,8,1,1999/11/1,,,5,2,1,0,0,4.50,,,,0,0,"Ronald H. Heck,Scott L. Thomas",,,,,,7,0,2,
19946501,,"The Political Dimension In Teacher Education: Comparative Perspectives On Policy Formation, Socialization And Society (The Wisconsin Series of Teach)",,B00G6TCMG4,,,ES,,,,true,5,20847181,0,0,0,0,2013/1/1,,,0,0,0,0,0,0.00,,,,0,0,"Beverly Lindsay,Mark B. Ginsburg",,,,,,,0,,
19947501,,Uncle Sam Wants You: World War I and the Making of the Modern American Citizen,,B004KKXKQW,,,ES,,,,true,7,2847111,231,371,96,9,2008/6/7,Uncle Sam Wants You,book,18,50,25,3,0,3.86,,,,4,0,Christopher Capozzola,,,,,,99,8,8,"american-history,education,grad-school,history,non-fiction,politics,science-fiction,war"
19948501,,The Natural Remedy Bible,,B0040ZN30U,,,ES,,,,true,3,10289400,24,20,4,0,2010/5/11,,,4,0,0,0,0,5.00,,,,0,0,"John Lust,Michael Tierra",,,,,,19,0,2,
19949001,,Money Finders System: Because It's Your Money,,B008OLOJSG,,,ES,,,,true,2,19949001,0,0,0,0,2012/6/7,,,0,0,0,0,0,0.00,,,,0,0,John Clower,,,,,,,0,,
19949501,,"Heir of Danger (Heirs of Kilronan Trilogy, #3)",,B006J3FNS6,,,ES,,,eng,true,7,11279315,336,137,39,8,2011/12/27,Heir of Danger,book,8,11,16,1,3,3.51,,,,0,0,Alix Rickloff,,,,,,17,8,1,"action,fantasy,fiction,gothic,historical,historical-fiction,mystery,paranormal,regency,romance"
19950501,,Adventures of Superman (1986-2006) #436,,B00D31W1GE,,,ES,,,,true,1,19950501,10,33,8,0,,,,2,5,1,0,0,4.12,,,,8,0,John Byrne,Jerry Ordway,,,,,2,0,,
19951501,,A Force for Nature: The Story of NRDC and Its Fight to Save Our Planet,,B004BXA3IQ,,,ES,,,,true,4,8510580,111,131,34,6,2010/1/1,,book,8,14,11,1,0,3.85,,,,2,0,"Branko Mitrovic,John H. Adams,Patricia Adams",,George Black,,,,55,1,9,"nature,non-fiction,science"
19952001,,Handbook of Agricultural Entomology,,B00B9TO6RO,,,ES,,,,true,6,15928540,9,13,3,1,2013/2/1,,book,2,0,1,0,0,4.33,,,,0,0,Helmut F. van Emden,,,,,,3,0,2,
19952501,,Nanotechnology for Environmental Remediation (Modern Inorganic Chemistry),,B000WNBLXU,,,ES,,,,true,4,8364920,0,0,0,0,2006/1/1,Nanotechnology for Environmental Remediation (Modern Inorganic Chemistry),,0,0,0,0,0,0.00,,,,0,0,"Frank Cheng,Sung Hee Joo",,,,,,,0,,
19953001,,Flipped: A Drug-induced Journey to The Event Horizon of Insanity,,B005JI27N6,,,ES,,,,true,1,19953001,0,0,0,0,2011/8/26,,,0,0,0,0,0,0.00,,,,0,0,Robert P. Cantu,,,,,,,0,,
19954001,,All Shall Be Well; And All Shall Be Well; And All Manner of Things Shall Be Well,,B0031RS5P6,,,ES,,,,true,16,1350704,1339,2131,660,156,2007/7/12,All Shall Be Well; And All Shall Be Well; And All Manner of Things Shall Be Well,book,81,188,235,113,43,3.23,,,,1,0,Tod Wodicka,,,,,,521,12,14,"american,comedy,contemporary,drama,family,fiction,historical-fiction,history,humor,literary-fiction,literature,mystery,novels,relationships,travel"
19954501,,Strategic Reserve (Alias),,B003YCQ4HE,,,ES,,,,true,7,1951743,170,262,69,2,2006/3/1,Strategic Reserve (Alias),book,21,20,22,5,1,3.80,,,,0,0,"Christina F. York,J.J. Abrams",,,,,,67,7,,"adventure,contemporary,realistic-fiction,young-adult"
19955001,,Divine Healing: Giving God an Opportunity,,B0091JC8GA,,,ES,,,,true,2,19955001,1,0,0,0,2011/9/6,,,0,0,0,0,0,0.00,,,,0,0,Doyle Jones,,,,,,,0,1,
19955501,061537896X,"The Death of Hip Hop, Marriage & Morals: Helping youth resurrect culture, family and faith",9780615378961,,,,ES,,,,false,2,19955501,24,29,6,1,2011/8/3,,,5,1,0,0,0,4.83,,,,5,1,Brady Goodwin Jr.,,,,,,16,0,,
19956001,,Beyond Belief: The American Press and the Coming of the Holocaust 1933-45,,B003ZDOVCC,,,ES,,,,true,7,54167,317,254,59,6,1985/1/1,"Beyond Belief: The American Press and the Coming of the Holocaust, 1933-1945",book,29,23,5,0,2,4.31,,,,0,0,Deborah E. Lipstadt,,,,,,232,5,7,"american-history,historical,history,non-fiction,war"
19957001,,Journey of Song: Public Life and Morality in Cameroon,,B001CUM0QO,,,ES,,,eng,true,3,19957001,2,4,1,0,2005/11/1,Journey of Song: Public Life And Morality in Cameroon,book,0,1,0,0,0,4.00,,,,1,0,Clare A. Ignatowski,,,,,,1,0,,
19958001,,The New Glucose Revolution Shopper's Guide to GI Values 2008: The Authoritative Source of Glycemic Index Values for More Than 1000 Foods,,B003Q6CUBC,,,ES,,,,true,2,2251557,24,44,14,0,2005/1/1,New Glucose Revolution Shopper's Guide to GI Values 2008: The Authoritative Source of Glycemic Index Values for More Than 500 Foods,,2,3,5,3,1,3.14,,,,0,0,"Jennie Brand-Miller,Kaye Foster-Powell",,,,,,3,0,,"food,health,non-fiction"
19958501,,The Big Bang to Now: All of Time in Six Chunks,,B009OUY8GY,,,ES,,,,true,1,19958501,8,9,2,1,2012/10/10,,,1,1,0,0,0,4.50,,,,2,1,Terry Sissons,,,,,,1,1,5,
19959001,,The Face of Discrimination: How Race and Gender Impact Work and Home Lives,,B00EMLDIV6,,,ES,,,,true,5,685005,15,27,7,0,2007/1/1,The Face of Discrimination: How Race and Gender Impact Work and Home Lives,,1,4,2,0,0,3.86,,,,0,0,Vincent J. Roscigno,,,,,,6,0,1,sociology
19961001,,Transnational Russian-American Travel Writing (Routledge Research in Travel Writing),,B0076XCVCE,,,ES,,,,true,8,13717391,0,0,0,0,2011/6/15,,,0,0,0,0,0,0.00,,,,0,0,Margarita Marinova,,,,,,,0,,
19961501,,eHealth Solutions for Healthcare Disparities,,B0014D4KO4,,,ES,,,,true,1,19961501,0,0,0,0,2007/10/5,,,0,0,0,0,0,0.00,,,,0,0,Michael Christopher Gibbons,,,,,,,0,,
19962501,,"Race, Whiteness, and Education",,B001Y35IRW,,,ES,,,eng,true,7,19962501,22,29,6,1,2009/1/1,,book,5,1,0,0,0,4.83,,,,6,1,Zeus Leonardo,,,,,,15,0,,"education,school"
19963001,,Victor,,B00DN1A4S6,,,ES,,,,true,3,18127723,0,0,0,0,2013/6/19,,,0,0,0,0,0,0.00,,,,0,0,Chuck Smith,,,,,,,0,,
19963501,,A Vindication of the Rights of Woman,,B003P9XDIO,,,ES,,,eng,true,20,224387,42973,59019,15114,522,1792/1/1,A Vindication of the Rights of Woman,book,4721,5654,3611,837,291,3.90,,,Penguin Great Ideas,1,0,Mary Wollstonecraft,,,,,,23278,105,885,"academic,adult,british-literature,classic-literature,classics,college,education,english-literature,essays,feminism,fiction,historical,history,literature,non-fiction,philosophy,politics,school,social-issues,sociology"
19965001,,The Mayan Calendar Smashes to the Ground,,B0069SBY98,,,ES,,,,true,4,9841531,2,5,1,1,2011/1/11,,,1,0,0,0,0,5.00,,,,0,0,Kim Ripley Hartt,,,,,,1,0,,
19965501,,"Knowledge Management for Health Care Procedures: From Knowledge to Global Care, AIME 2007 Workshop K4CARE 2007, Amsterdam, The Netherlands, July 7, 2007, ... / Lecture Notes in Artificial Intelligence)",,B001BY34IY,,,ES,,,,true,1,19965501,0,0,0,0,2008/4/10,,,0,0,0,0,0,0.00,,,,0,0,David Riaño,,,,,,,0,,
19966001,,"A Summer Remembered/Be Your Age, Dear (Storycuts)",,B0067ZJXXC,,,ES,,,,true,2,17431369,1,0,0,0,2011/11/17,,,0,0,0,0,0,0.00,,,,0,0,Elvi Rhodes,,,,,,1,0,,
19967001,,Primitive Economics of the New Zealand Maori (Routledge Revivals),,B00ABLA7NI,,,ES,,,,true,7,13716332,4,0,0,0,2011/9/30,,book,0,0,0,0,0,0.00,,,,0,0,Raymond Firth,,,,,,3,1,,anthropology
19967501,,Prescription for a Superior Existence,,B003YCQ0KA,,,ES,,,,true,9,2429994,239,316,94,25,2008/6/10,Prescription for a Superior Existence: A Novel,book,18,20,37,16,3,3.36,,,,0,0,Josh Emmons,,,,,,123,4,1,"american,contemporary,fiction,philosophy,psychology"
19969501,,Call Me Coach: A Life in College Football,,B0058V15OG,,,ES,,,,true,5,6002865,6,8,2,0,2008/9/1,Call Me Coach: A Life in College Football,,1,0,1,0,0,4.00,,,,0,0,Paul F. Dietzel,,,,,,4,1,,biography
19970001,,"The Life of Reason or The Phases of Human Progress: Introduction and Reason in Common Sense, Volume VII, Book One (The Works of George Santayana) (Volume 7)",,B0081OKVCE,,,ES,,,,true,12,1428363,39,28,7,1,1980/2/1,Reason in Common Sense: The Life of Reason Volume 1,book,3,2,1,1,0,4.00,,,,0,0,George Santayana,,,"Marianne S. Wokeck,Martin A. Coleman",,,28,0,2,"philosophy,politics"
19970501,,The Spitting Image: a novel,,B006Q85YOW,,,ES,,,,true,1,19970501,0,0,0,0,2006/1/4,,,0,0,0,0,0,0.00,,,,0,0,Paul Brauner,,,,,,,0,,
19971501,,"The Pilates Pregnancy: Maintaining Strength, Flexibility, And Your Figure",,B001GAPCTW,,,ES,,,,true,2,564910,32,53,15,4,2001/11/1,"The Pilates Pregnancy: Maintaining Strength, Flexibility, and Your Figure",,3,4,6,2,0,3.53,,,,2,0,Mari Winsor,,,,,,10,0,2,
19972001,,Intellectual Property and the New Global Japanese Economy (Routledge Studies in the Growth Economies of Asia),,B0028G9A00,,,ES,,,,true,9,19972001,0,0,0,0,2009/3/26,,,0,0,0,0,0,0.00,,,,0,0,Ruth Taplin,,,,,,,0,,
19972501,,Global Mobility Regimes,,B009C8W7O8,,,ES,,,,true,5,16997142,1,0,0,0,2011/1/1,,,0,0,0,0,0,0.00,,,,0,0,Rey Koslowski,,,,,,1,0,,
19973001,,Midnight Chill,,B00G5ITCU0,,,ES,,,,true,2,17818966,8,28,6,2,2013/5/28,,,4,2,0,0,0,4.67,,,,0,0,Jack Cole,,,,,,2,0,,
19974001,,Trouble in Paradise: Globalization and Environmental Crises in Latin America,,B00EPE03OU,,,ES,,,,true,2,19974001,3,13,3,0,2013/8/21,,,1,2,0,0,0,4.33,,,,3,0,J. Roberts Timmons,,,,,,,0,,
19974501,,A Rat's Tale II,,B0058HAJUG,,,ES,,,,true,1,19974501,0,0,0,0,2011/4/12,,,0,0,0,0,0,0.00,,,,0,0,Heidi Jackson,,,,,,,0,,
19975501,,Audits Are Terrifying,,B008N0OPOG,,,ES,,,,true,2,14539145,1,0,0,0,2012/2/21,,,0,0,0,0,0,0.00,,,,0,0,Robert A. Clemmons,,,,,,1,0,,
19976001,,"The Baby Gizmo Buying Guide: From Pacifiers to Potties . . . Why, When, and What to Buy for Pregnancy Through Preschool",,B001EHECJS,,,ES,,,,true,3,19976001,2,0,0,0,2008/2/12,,,0,0,0,0,0,0.00,,,,0,0,"Heather Maclean,Hollie Schultz",,,,,,1,0,,
19976501,,Improving Subject Teaching: Lessons from Research in Science Education,,B000SK23V6,,,ES,,,eng,true,9,9923531,2,0,0,0,2006/9/1,,book,0,0,0,0,0,0.00,,,,0,0,"John Leach,Jonathan Osborne,Mary Ratcliffe,Robin Millar",,,,,,2,0,,
19977001,,Radioanalytical Chemistry Experiments,,B001D1Q1O4,,,ES,,,,true,5,9908948,0,0,0,0,2007/1/1,,,0,0,0,0,0,0.00,,,,0,0,"Bernd Kahn,Moses Attrep",,,,,,,0,,
19977501,,Finding New Ground,,B00DBASFZ8,,,ES,,,,true,1,19977501,4,10,3,1,2013/6/9,,,1,0,1,1,0,3.33,,,,3,1,Robert Chadwick,,,,,,1,0,,
19978501,,The Twinning Verse Three: The Song of the Seraphim,,B009OXTOLA,,,ES,,,,true,3,16243578,1,5,1,0,2012/10/1,,,1,0,0,0,0,5.00,,,,0,0,Justin R. Cary,,,,,,,0,,
19979001,,Lipids in Aquatic Ecosystems,,B008BAP8ZS,,,ES,,,,true,4,5434872,2,5,1,0,2009/1/1,Lipids in Aquatic Ecosystems,book,1,0,0,0,0,5.00,,,,0,0,Michael T. Arts,,,"Martin Kainz,Michael T. Brett",,,1,0,,
19979501,,The Ships Friends Build,,B005UCYL7G,,,ES,,,,true,2,19644483,0,0,0,0,2006/4/14,,,0,0,0,0,0,0.00,,,,0,0,V.C. Neal,,,,,,,0,,
19980001,,"Juicy Joy: 7 Simple Steps to Your Glorious, Gutsy Self",,B006M7O9J8,,,ES,,,,true,3,13202285,26,50,13,5,2012/3/1,,,5,3,3,2,0,3.85,,,,4,0,Lisa McCourt,,,,,,10,0,1,
19980501,,"Cross-Language Information Retrieval and Evaluation: Workshop of Cross-Language Evaluation Forum, CLEF 2000, Lisbon, Portugal, September 21-22, 2000, Revised Papers (Lecture Notes in Computer Science)",,B000QECA3U,,,ES,,,,true,3,1889685,0,0,0,0,2001/10/16,"Cross-Language Information Retrieval and Evaluation: Workshop of Cross-Language Evaluation Forum, CLEF 2000, Lisbon, Portugal, September 21-22, 2000, Revised Papers (Lecture Notes in Computer Science)",,0,0,0,0,0,0.00,,,,0,0,Carol Peters,,,,,,,0,,
19981001,,Imaging of the Brain with Histological Correlations,,B0013OFK2A,,,ES,,,,true,1,19981001,0,0,0,0,2002/8/24,,,0,0,0,0,0,0.00,,,,0,0,Antonios Drevelegas,,,,,,,0,,
19982001,,Psych Soc Work Gt Brit Ils 264: 261 (International Library of Sociology),,B00DSLYIB0,,,ES,,,,true,1,19982001,0,0,0,0,2013/7/4,,,0,0,0,0,0,0.00,,,,0,0,Noel Timms,,,,,,,0,,
19982501,1491240903,The Fourth Level: Nature Wisdom Teachings of the Inka,9781491240908,,,,ES,,,,false,2,19982501,27,41,9,3,2013/8/1,,,6,2,1,0,0,4.56,,,,4,1,Elizabeth B. Jenkins,,,,,,10,0,7,
19983501,,The Closing of the American Border,,B001F76TZW,,,ES,,,,true,14,4588852,135,203,55,14,2008/1/1,"The Closing of the American Border: Terrorism, Immigration, and Security Since 9/11",book,11,19,22,3,0,3.69,,,,3,0,Edward Alden,,,,,,64,2,3,"american,non-fiction,politics"
19984001,,Solutions Manual to Accompany Statistics and Probability with Applications for Engineers and Scientists,,B00FWOY3FM,,,ES,,,,true,1,19984001,2,0,0,0,2013/11/4,,,0,0,0,0,0,0.00,,,,0,0,"Bhisham C. Gupta,Irwin Guttman",,,,,,2,0,,
19984501,,The Difference Between a Boy and a Man,,B007O59XGG,,,ES,,,,true,1,19984501,0,0,0,0,2009/6/23,,,0,0,0,0,0,0.00,,,,0,0,Amy Modica Myers,,,,,,,0,,
19985501,,Over-The-Ear Booklight (0330-1),0634989033010,,,,ES,,,,false,1,19985501,0,0,0,0,,,,0,0,0,0,0,0.00,,,,0,0,Unknown,,,,,,,0,,
19986001,0763572926,Rigby PM Plus: Individual Student Edition Blue (Levels 9-11) Baby Bear Climbs a Tree,9780763572921,,,,ES,2000/8/26,Rigby,,false,1,19986001,2,3,2,0,2000/8/26,,,0,0,0,1,1,1.50,16,Paperback,,2,0,,,,,,,,1,,
19986501,,Human Origins and Environmental Backgrounds (Developments in Primatology: Progress and Prospects),,B000WBAKM0,,,ES,,,,true,1,19986501,0,0,0,0,2006/3/24,,,0,0,0,0,0,0.00,,,,0,0,Hidemi Ishida,,,"Martin Pickford,Masato Nakatsukasa,Naomichi Ogihara,Russell Tuttle",,,,0,,
19987001,,Murder is in the Details: Three Short Stories,,B005AIGTFM,,,ES,,,,true,1,19987001,1,3,1,0,2011/6/21,,,0,0,1,0,0,3.00,,,,1,0,Corlyss Morrel Disbrow,,,,,,,0,,
19989001,,Another Steven Soderbergh Experience: Authorship and Contemporary Hollywood,,B00C7CJXCA,,,ES,,,,true,5,15926702,13,17,4,0,2013/4/4,,,1,3,0,0,0,4.25,,,,0,0,Mark Gallagher,,,,,,7,1,,film
19989501,,Routledge Handbook of Clinical Supervision: Fundamental International Themes (Routledge Handbooks),,B004OBZT9S,,,ES,,,,true,9,7824666,1,0,0,0,2010/1/1,,,0,0,0,0,0,0.00,,,,0,0,"John Fowler,John R. Cutcliffe,Kristiina Hyrkxe4s",,,Kristiina Hyrkas,,,,0,,
19990001,,"Advances in Experimental Medicine and Biology, Volume 633: Crossroads Between Innate and Adaptive Immunity II",,B008CN74LA,,,ES,,,eng,true,4,14360710,0,0,0,0,2008/11/1,,book,0,0,0,0,0,0.00,,,,0,0,Stephen P. Schoenberger,,,"Bali Pulendran,Peter D. Katsikis",,,,0,,
19990501,,Coordinating Assessment Practice Across the Primary School (Subject Leaders' Handbooks),,B000PMG8OU,,,ES,,,,true,5,17522312,0,0,0,0,2003/10/4,,,0,0,0,0,0,0.00,,,,0,0,"Mike  Harrison,Mike Wintle",,,,,,,0,,
19991001,,Habits,,B005EM0Q0S,,,ES,,,,true,2,13124678,0,0,0,0,2010/6/23,,,0,0,0,0,0,0.00,,,,0,0,Kevin Bryan,,,,,,,0,,
19991501,,The Woman in the Black Raincoat: Short Stories and Poems,,B00F5S5A84,,,ES,,,,true,3,18471165,0,0,0,0,2013/9/5,,,0,0,0,0,0,0.00,,,,0,0,Elaine Billstrom,,,,,,,0,,
19992501,,The Here and Now: A Novel,,B00DPRVXWO,,,ES,,,,true,3,673671,21,20,7,1,2002/12/1,The Here and Now: A Novel,book,1,0,4,1,1,2.86,,,,1,0,Gregg Easterbrook,,,,,,11,0,,novels
19993501,,Tokyo in Transit: Japanese Culture on the Rails and Road,,B005HG54C6,,,ES,,,,true,4,8679920,41,39,11,0,2010/12/3,,,1,6,2,2,0,3.55,,,,0,0,Alisa Freedman,,,,,,15,0,5,history
19994001,,"A Little, Aloud, for Children",,B0084E7I86,,,ES,,,,true,3,19186454,20,29,6,1,2012/6/7,,,5,1,0,0,0,4.83,,,,2,0,Angela MacMillan,,,,,,11,0,1,
19995001,,The Adventure of Bitty Mouse,,B00CHGYLDW,,,ES,,,,true,2,17863707,0,0,0,0,2013/4/9,,,0,0,0,0,0,0.00,,,,0,0,Marie George,,,,,,,0,,
19996001,,Our Street: East End Life in the Second World War,,B002RI92PW,,,ES,,,,true,4,914052,167,259,68,6,2003/9/4,Our Street: East End Life in the Second World War,,21,24,14,7,2,3.81,,,,19,0,Gilda O'Neill,,,,,,57,7,19,"autobiography,biography,historical,history,non-fiction,war"
19997501,,"Comparative Genomics: RECOMB 2004 International Workshop, RCG 2004, Bertinoro, Italy, October 16-19, 2004, Revised Selected Papers (Lecture Notes in Computer Science / Lecture Notes in Bioinformatics)",,B000PY3VHA,,,ES,,,,true,2,5993277,0,0,0,0,2005/4/1,"Comparative Genomics: RECOMB 2004 International Workshop, RCG 2004, Bertinoro, Italy, October 16-19, 2004, Revised Selected Papers (Lecture Notes in Computer Science / Lecture Notes in Bioinformatics)",,0,0,0,0,0,0.00,,,,0,0,Jens Lagergren,,,,,,,0,,
19998501,,British Atlantic World: Oxford Bibliographies Online Research Guide (Oxford Bibliographies Online Research Guides),,B003UYUTO0,,,ES,,,,true,1,19998501,1,4,1,0,2010/6/1,,,0,1,0,0,0,4.00,,,,1,0,Trevor Burnard,,,,,,,0,,
19999501,,Baseball (My Opinion),,B005VQGD7C,,,ES,,,,true,3,7784531,1,3,1,1,2008/10/1,,,0,0,1,0,0,3.00,,,,0,0,Larry Rahn,,,,,,,0,,
